LAMMPS data file -- atom_style full -- generated by chemfiles
2000 atoms
0 bonds
0 angles
0 dihedrals
0 impropers
1 atom types
0 bond types
0 angle types
0 dihedral types
0 improper types
0.00000000 1296.66827 xlo xhi
0.00000000 1296.66827 ylo yhi
0.00000000 1296.66827 zlo zhi

# Pair Coeffs
# 1 Ar

Masses

1 39.948 # Ar

Atoms # full

1 1 1 0.0 702.0980837067425 726.8840265238533 291.99710705969073 # Ar
2 2 1 0.0 330.8017199786191 1249.9003037413845 1230.1214320495992 # Ar
3 3 1 0.0 575.6348249968644 109.96590837431998 402.8842850132519 # Ar
4 4 1 0.0 908.0256139271448 900.3226966780793 472.75955656277915 # Ar
5 5 1 0.0 222.81527100612016 441.2301202470995 1179.0066430185957 # Ar
6 6 1 0.0 965.211300342078 344.0383996777996 1125.1384705164514 # Ar
7 7 1 0.0 546.7270057916891 45.06818435713165 269.9636339371109 # Ar
8 8 1 0.0 473.57165764454896 572.2206187499081 14.26371009778878 # Ar
9 9 1 0.0 566.9025331129263 317.33778597027197 341.9865329322374 # Ar
10 10 1 0.0 1101.9163283334176 753.0923517731267 690.3072732697093 # Ar
11 11 1 0.0 279.69670683465523 526.1716531323036 564.2867917076773 # Ar
12 12 1 0.0 408.9573316069347 136.04434364508157 1114.5329089256907 # Ar
13 13 1 0.0 712.768769673706 32.48498531234805 481.99171327885995 # Ar
14 14 1 0.0 1247.9884328172486 520.4768494966961 202.07756628619268 # Ar
15 15 1 0.0 466.21030986265725 1086.8787744843648 634.6613947745008 # Ar
16 16 1 0.0 806.7543620968609 571.8556201881146 404.8532333428395 # Ar
17 17 1 0.0 321.88371125797454 1078.0139720871757 108.41490621291908 # Ar
18 18 1 0.0 406.56787721203347 458.21391426625377 482.94743514495457 # Ar
19 19 1 0.0 551.120516271465 611.5597986503885 683.2598725189573 # Ar
20 20 1 0.0 990.9151630495012 534.2360650906872 1242.3075806228023 # Ar
21 21 1 0.0 77.17106127277988 1106.1019413247298 353.99308293649267 # Ar
22 22 1 0.0 131.45040573969845 413.7061411793247 357.6651924643544 # Ar
23 23 1 0.0 786.5418394499552 1206.332218948836 91.18304437504581 # Ar
24 24 1 0.0 904.9616490351016 751.901828078338 504.80593160042804 # Ar
25 25 1 0.0 707.9058767358389 126.30380911317876 357.8555382205123 # Ar
26 26 1 0.0 431.83380258468554 893.5613923541714 732.3965766711593 # Ar
27 27 1 0.0 1218.658317214378 1245.5869740944202 668.7190674241256 # Ar
28 28 1 0.0 723.8929511121091 652.3863898976251 375.3248084862334 # Ar
29 29 1 0.0 76.90288180211623 685.0762878828128 123.86682671479338 # Ar
30 30 1 0.0 724.8003764998573 1137.2015233173913 214.78095831749047 # Ar
31 31 1 0.0 299.2491331207729 937.3571752671378 305.6855761147471 # Ar
32 32 1 0.0 459.464504804247 829.1045312431175 1100.7805039651034 # Ar
33 33 1 0.0 696.2799373920486 853.5147641368332 212.14682370467142 # Ar
34 34 1 0.0 1233.4673860615608 420.4015657131957 823.6742185230958 # Ar
35 35 1 0.0 787.4224433473288 962.3405479532044 592.1368251680665 # Ar
36 36 1 0.0 152.8358239746866 997.9931103150212 135.73066196716118 # Ar
37 37 1 0.0 187.43363911646398 710.7465987350569 210.8998254646808 # Ar
38 38 1 0.0 69.66316491818105 451.48605581460026 710.3261265394815 # Ar
39 39 1 0.0 1111.9320614372862 556.0185865913762 134.7586902431557 # Ar
40 40 1 0.0 286.6231657964007 305.19233967976925 830.5328973874626 # Ar
41 41 1 0.0 15.074929566854326 1181.6554854320475 249.36777490272598 # Ar
42 42 1 0.0 236.41352083602544 475.424035957312 314.06044200305655 # Ar
43 43 1 0.0 152.83391890500607 704.7778527314149 107.41524657303579 # Ar
44 44 1 0.0 860.9683147423425 1079.6176808006587 1134.2116996760446 # Ar
45 45 1 0.0 305.3554248528489 874.1057915881441 1005.5076827729328 # Ar
46 46 1 0.0 1103.0572253590556 600.5750205010121 707.3015735820644 # Ar
47 47 1 0.0 792.7014160359088 387.69199755449364 896.6055556840927 # Ar
48 48 1 0.0 583.2714298267063 468.5632057580387 100.77103228661889 # Ar
49 49 1 0.0 125.7172638632653 360.07247457552853 308.1043985023559 # Ar
50 50 1 0.0 922.2996210569121 110.02149610535855 84.76216670877265 # Ar
51 51 1 0.0 214.15482174596832 906.8131918799147 996.4900731073301 # Ar
52 52 1 0.0 553.9479380753972 167.4522795786754 580.1787759601086 # Ar
53 53 1 0.0 853.8639941997599 665.9087479366601 1256.6300850665634 # Ar
54 54 1 0.0 77.66798969862023 312.0860120032383 728.808401740235 # Ar
55 55 1 0.0 234.31109425753127 626.7515774569224 405.7639087642793 # Ar
56 56 1 0.0 423.3757124775549 831.7923693304234 44.9795892201323 # Ar
57 57 1 0.0 417.68369753013957 504.88669364659336 367.5223578731261 # Ar
58 58 1 0.0 1187.94654643626 760.4450376029824 393.3362439422581 # Ar
59 59 1 0.0 631.6556098527847 560.4212778292913 502.14633414072796 # Ar
60 60 1 0.0 90.15100906560961 928.5238639293169 344.5964026243046 # Ar
61 61 1 0.0 126.45000296289768 862.5651836451473 901.6355056446118 # Ar
62 62 1 0.0 318.8184822439055 510.3214262419744 1202.288367407725 # Ar
63 63 1 0.0 558.8429436581878 283.17198589777246 633.1519688547685 # Ar
64 64 1 0.0 115.48585280329786 521.8736552659288 1247.9580295197782 # Ar
65 65 1 0.0 1275.0573215019924 1207.4642007185485 1227.7188732413003 # Ar
66 66 1 0.0 103.20951594405439 618.9146581423348 345.7878497371151 # Ar
67 67 1 0.0 425.4033229141192 140.95670209997363 1274.6636082454268 # Ar
68 68 1 0.0 1105.9365712482374 735.1634498470844 298.8270846937252 # Ar
69 69 1 0.0 69.025130167098 743.0303374817956 818.1437032791249 # Ar
70 70 1 0.0 161.62132725762694 900.2134813313667 14.535299201310243 # Ar
71 71 1 0.0 1025.2862139778554 442.5938057799339 1274.2280003560372 # Ar
72 72 1 0.0 477.0214739918816 781.2053894360338 494.63939983560533 # Ar
73 73 1 0.0 1029.7434093403158 770.2514409754536 1010.1709226104177 # Ar
74 74 1 0.0 572.1167904232312 848.0296811316673 104.59927117855297 # Ar
75 75 1 0.0 534.7321933388877 657.3818092181818 515.853617095847 # Ar
76 76 1 0.0 208.79694108846058 516.2964658258671 577.4697708884506 # Ar
77 77 1 0.0 141.77427529938004 462.5604035364785 1227.243213756958 # Ar
78 78 1 0.0 59.63190563840427 737.2275667567453 729.5039921313513 # Ar
79 79 1 0.0 1049.6089497653027 122.17287549837023 678.7048383964736 # Ar
80 80 1 0.0 68.72461506591863 859.3769999824312 190.0714646718927 # Ar
81 81 1 0.0 508.5972316614425 268.8515649138407 27.7604524308403 # Ar
82 82 1 0.0 475.4805472815486 358.64000578157356 64.04044236778996 # Ar
83 83 1 0.0 956.1368265945825 127.92037591963533 343.283106534086 # Ar
84 84 1 0.0 1149.799085251807 523.7458056920613 26.56530486011498 # Ar
85 85 1 0.0 972.9168511401383 832.9950672343389 794.9887853804267 # Ar
86 86 1 0.0 480.0348194402599 645.7752235614893 140.94654877670752 # Ar
87 87 1 0.0 34.166056397083736 1090.2021700906096 1190.7256351651145 # Ar
88 88 1 0.0 644.165250727346 1101.425626315123 708.9130379106675 # Ar
89 89 1 0.0 406.415197948772 1114.701228452234 1280.3058577042577 # Ar
90 90 1 0.0 1086.2307582659637 716.6512797972093 1236.1160592683657 # Ar
91 91 1 0.0 442.29537520523627 1110.8919135069696 438.8286636945331 # Ar
92 92 1 0.0 1249.773827155696 547.0451542190508 316.86880948959634 # Ar
93 93 1 0.0 456.52180712971847 867.9086529294677 354.7184953906256 # Ar
94 94 1 0.0 721.8060722352672 1266.481279008379 1139.6021327763976 # Ar
95 95 1 0.0 929.7220472214684 194.2274357083489 22.343564490101027 # Ar
96 96 1 0.0 223.24667178065891 782.4767642540525 850.7559296011816 # Ar
97 97 1 0.0 1.19316227250437 514.044667585038 116.18203867376896 # Ar
98 98 1 0.0 962.3801747507886 645.0407624194746 1105.2619952910309 # Ar
99 99 1 0.0 100.96095447569682 377.1152640471843 771.1883904994647 # Ar
100 100 1 0.0 1052.9541618687033 574.9864147298092 25.71010589438742 # Ar
101 101 1 0.0 1249.9365893648128 1265.5991135006475 49.6353281670585 # Ar
102 102 1 0.0 741.665335395088 963.19292009546 338.7531684120679 # Ar
103 103 1 0.0 1005.2453413479475 841.3945906514128 920.9656660319723 # Ar
104 104 1 0.0 723.5984154712145 250.76662608369418 750.3754701301184 # Ar
105 105 1 0.0 538.9314231750259 717.7058295879746 209.7095442225314 # Ar
106 106 1 0.0 1282.4131326033555 743.4936421105801 247.23458402306042 # Ar
107 107 1 0.0 151.4120250908372 731.4774252750052 925.118653213557 # Ar
108 108 1 0.0 137.4418832076074 546.7368248525078 390.9738724988744 # Ar
109 109 1 0.0 782.2973444761975 218.3975565619905 1172.17440824322 # Ar
110 110 1 0.0 327.54250848443746 301.1233202591559 25.77660058206495 # Ar
111 111 1 0.0 1154.9806201684414 974.7797532746437 194.83296811101715 # Ar
112 112 1 0.0 1246.2721574184263 423.2807355717427 866.144211454869 # Ar
113 113 1 0.0 249.06029874840138 243.7834515921093 1095.6175639835633 # Ar
114 114 1 0.0 1256.0682944418131 1206.499042742158 808.2489890419185 # Ar
115 115 1 0.0 1283.2065087778587 326.30162523926305 435.5356357570741 # Ar
116 116 1 0.0 56.89257299188404 1274.733595275357 936.4784884560838 # Ar
117 117 1 0.0 855.7955199750494 444.5806396177023 428.58587026443035 # Ar
118 118 1 0.0 1143.475832289995 799.9150460406878 1214.8758658320485 # Ar
119 119 1 0.0 1236.427988212618 785.0986808249538 1282.8887775047376 # Ar
120 120 1 0.0 101.31172188479596 367.73269457862915 1209.3244701870183 # Ar
121 121 1 0.0 311.6412767947667 471.76846055035355 506.08045470785527 # Ar
122 122 1 0.0 212.83586301502106 224.38287746920997 1221.5152164732513 # Ar
123 123 1 0.0 326.52974409676824 897.5276060175123 823.6966085147758 # Ar
124 124 1 0.0 863.0391164279904 754.8924906484226 1233.1451783938878 # Ar
125 125 1 0.0 174.04606666561733 438.9950935626645 74.46083716728972 # Ar
126 126 1 0.0 312.7958265346645 107.62629372957754 1083.7149367580191 # Ar
127 127 1 0.0 130.45191114987557 332.80007169345566 462.9182056228211 # Ar
128 128 1 0.0 637.5256812391841 1021.8787629485147 964.4397117289037 # Ar
129 129 1 0.0 28.111243420777694 354.2800402616808 671.8806329253754 # Ar
130 130 1 0.0 1126.190984765892 775.680556506814 783.9352810352401 # Ar
131 131 1 0.0 589.0037229300648 589.868761480339 227.95650785728057 # Ar
132 132 1 0.0 922.347655298538 399.24317326089533 433.7983556555259 # Ar
133 133 1 0.0 1171.7319348605097 158.18304057034644 519.0440661730985 # Ar
134 134 1 0.0 773.4863640994183 19.999773122165667 185.7620782682949 # Ar
135 135 1 0.0 235.94717440837977 1237.3134069175326 437.59432282596526 # Ar
136 136 1 0.0 394.6938516944183 583.2437804992567 1024.4418404313983 # Ar
137 137 1 0.0 118.77477387109963 888.3564935396212 485.4410490846472 # Ar
138 138 1 0.0 579.0883636630721 267.2731749404037 89.97663825204812 # Ar
139 139 1 0.0 835.8702179330866 1271.9751831229705 530.5849084778412 # Ar
140 140 1 0.0 562.3865713895045 422.39379454131466 791.7762481021971 # Ar
141 141 1 0.0 132.28992076139292 666.233315899501 400.44829361020254 # Ar
142 142 1 0.0 316.0364134749764 181.61068432303313 1008.8763705470724 # Ar
143 143 1 0.0 1260.874324846626 525.6832117746586 313.8897301639077 # Ar
144 144 1 0.0 264.18830494823186 999.6608861933928 1011.3837382398444 # Ar
145 145 1 0.0 1257.151832566122 263.1470580139369 902.908016955071 # Ar
146 146 1 0.0 421.68797284325115 684.296847036741 455.75483198737663 # Ar
147 147 1 0.0 528.5957861448438 1024.636292978327 731.3662155813591 # Ar
148 148 1 0.0 723.1250024134969 1098.7313409886524 850.3980819112412 # Ar
149 149 1 0.0 729.3284349620264 961.3396656808823 619.9434130963639 # Ar
150 150 1 0.0 1213.540132519633 874.5059367740143 528.9322396087533 # Ar
151 151 1 0.0 182.2062416244857 822.3925879151236 1193.0573437066705 # Ar
152 152 1 0.0 402.53545369050084 39.52107388773055 1180.4872789053848 # Ar
153 153 1 0.0 894.6595756378744 679.9185377222177 1014.5324230312465 # Ar
154 154 1 0.0 1004.7823119326973 771.5918226361566 838.5190737571703 # Ar
155 155 1 0.0 1120.142786718751 1285.0806020032264 28.43989205381451 # Ar
156 156 1 0.0 339.5663778846453 367.86929849480293 332.89932629438783 # Ar
157 157 1 0.0 1282.653264362381 149.88920173617385 13.782341985205294 # Ar
158 158 1 0.0 1231.8011147369318 1095.3535578963908 66.10667223214597 # Ar
159 159 1 0.0 260.8532213298794 1174.9209871014846 781.2339941417596 # Ar
160 160 1 0.0 511.96110715761876 812.6321563196512 436.76322700870463 # Ar
161 161 1 0.0 1039.7048977213071 1039.9436874542669 1068.0445495581066 # Ar
162 162 1 0.0 985.0085101407133 846.4590148141592 373.4274722928379 # Ar
163 163 1 0.0 1293.5970138278763 279.6952264066618 1081.9386734538257 # Ar
164 164 1 0.0 258.5614068291776 138.3368246130112 28.4886521364273 # Ar
165 165 1 0.0 1121.8600725688314 974.3978194509224 371.6787459627736 # Ar
166 166 1 0.0 135.63548647488366 689.4473008124686 192.71894049335955 # Ar
167 167 1 0.0 1242.031985100807 719.9579954373363 258.79599510759454 # Ar
168 168 1 0.0 619.8829804461981 526.8453484078873 114.74757497608205 # Ar
169 169 1 0.0 893.4720141322027 593.1230054408134 423.12528204539944 # Ar
170 170 1 0.0 306.631633150485 235.45257038831784 1028.3214102599738 # Ar
171 171 1 0.0 12.270775768267892 135.76088092219737 86.94291318759022 # Ar
172 172 1 0.0 1050.0282966914629 213.27609720333476 434.15893384397543 # Ar
173 173 1 0.0 315.4582212520433 772.5915775886133 1165.3868614838811 # Ar
174 174 1 0.0 1180.3609454868465 487.0760202364903 1089.6861805982899 # Ar
175 175 1 0.0 239.69253989939733 864.5547440982958 376.0537639886908 # Ar
176 176 1 0.0 933.3422916556874 452.85624770413125 997.0770729274396 # Ar
177 177 1 0.0 795.0189498448658 805.0575582944084 210.8756682598283 # Ar
178 178 1 0.0 883.062458829473 366.8365469077389 664.890060861671 # Ar
179 179 1 0.0 184.3845393168464 725.9364729118485 440.2518174319708 # Ar
180 180 1 0.0 248.00762174674705 227.2940724168304 77.19175739574331 # Ar
181 181 1 0.0 550.2184346770722 818.948508073292 331.206031268934 # Ar
182 182 1 0.0 1.8794769662784399 285.8029991806246 629.9989558304723 # Ar
183 183 1 0.0 35.8784644742707 205.00344015338982 602.4778546862309 # Ar
184 184 1 0.0 778.4872976444452 741.3116246418039 410.8022742583931 # Ar
185 185 1 0.0 392.7838893293981 1275.0893895982404 687.0729570745547 # Ar
186 186 1 0.0 716.2620569773782 1107.9422761417288 781.0945215315879 # Ar
187 187 1 0.0 78.42801025115399 144.76372776116492 338.0530936261589 # Ar
188 188 1 0.0 1280.0032229557871 235.86305499853532 895.3874513391015 # Ar
189 189 1 0.0 1218.6680295149845 562.1839492753396 217.71590802337087 # Ar
190 190 1 0.0 687.0511664654508 553.1311579508567 1189.1460994635108 # Ar
191 191 1 0.0 116.72084366443089 76.72711841242175 741.0623276950909 # Ar
192 192 1 0.0 537.9581014892136 301.7586952055073 1283.1815555978847 # Ar
193 193 1 0.0 763.9776245139135 480.1778266228694 999.1722776137133 # Ar
194 194 1 0.0 304.45583894694005 566.1449703552297 457.06358666994083 # Ar
195 195 1 0.0 464.55308594154553 73.76128470096995 364.7681961219899 # Ar
196 196 1 0.0 694.8535436220732 652.3068518504798 1106.4120379058122 # Ar
197 197 1 0.0 1062.4828722997863 884.9463531704496 35.44169249178898 # Ar
198 198 1 0.0 1111.0770902128875 720.274534243727 703.0421149558528 # Ar
199 199 1 0.0 141.28030166480403 1048.7092115644123 822.0272222842169 # Ar
200 200 1 0.0 194.38810334415533 1033.8442781454596 371.24479116353825 # Ar
201 201 1 0.0 244.43248996903384 1284.2814293396725 655.6551916318535 # Ar
202 202 1 0.0 456.0001778258885 710.4185001454315 561.4037232516907 # Ar
203 203 1 0.0 248.7374780282383 576.9562349100323 202.97457241976522 # Ar
204 204 1 0.0 1153.3561761162134 769.9571374444777 977.3062609308461 # Ar
205 205 1 0.0 689.638429816271 946.6719137687528 684.3525385947387 # Ar
206 206 1 0.0 822.0591377391688 745.8897662690457 704.4730455481347 # Ar
207 207 1 0.0 595.6556198289506 962.5871370962219 85.44629841530879 # Ar
208 208 1 0.0 216.53205907973918 658.4025833814736 816.6547919964145 # Ar
209 209 1 0.0 221.9365911643056 798.9483764611642 35.600843480811506 # Ar
210 210 1 0.0 548.6168563909229 178.89035497176718 170.92940831527034 # Ar
211 211 1 0.0 1087.1824852444934 766.9248288521314 372.11345577293423 # Ar
212 212 1 0.0 226.30364242367023 1204.9649100410365 102.86612254647197 # Ar
213 213 1 0.0 1006.386209155723 182.1612556644315 296.8880765538259 # Ar
214 214 1 0.0 975.1592072046402 20.491458514482915 569.5972679956859 # Ar
215 215 1 0.0 575.6363680518948 229.19466036846558 71.00764030404125 # Ar
216 216 1 0.0 817.222830071749 817.6089990002656 314.04477908311407 # Ar
217 217 1 0.0 698.6166882813608 801.6951774818872 170.77245032200503 # Ar
218 218 1 0.0 48.80789633985615 584.033423673422 772.3876174722195 # Ar
219 219 1 0.0 451.70583294960807 1238.334586973122 478.47629896861116 # Ar
220 220 1 0.0 303.53529139163805 644.2910372779949 635.475756977954 # Ar
221 221 1 0.0 271.5287051138085 1008.1205165259562 222.91606488266518 # Ar
222 222 1 0.0 768.273156796721 647.715484248598 921.4100393282416 # Ar
223 223 1 0.0 460.3278119099956 666.5349574013273 57.06378820766806 # Ar
224 224 1 0.0 832.1588575099051 1256.5756881215605 992.602770155987 # Ar
225 225 1 0.0 505.7186020907196 60.974346857073996 338.3593174951745 # Ar
226 226 1 0.0 1283.051941579648 471.87438671074324 702.0143228133406 # Ar
227 227 1 0.0 947.669118058863 399.1918801531455 458.3153093241083 # Ar
228 228 1 0.0 903.4018524966647 246.57595948963433 394.2195305671785 # Ar
229 229 1 0.0 2.911111281011693 243.72705787311511 664.655960965972 # Ar
230 230 1 0.0 1120.4524338744193 1250.7578112220913 364.37489967248246 # Ar
231 231 1 0.0 522.1894252656392 113.88768237344655 1260.0284371948069 # Ar
232 232 1 0.0 499.40147953655634 400.50269813558543 1103.882873213785 # Ar
233 233 1 0.0 63.711344826642595 332.74217418461063 307.73882131588516 # Ar
234 234 1 0.0 1212.2568209731237 528.7514441810306 346.11968533854713 # Ar
235 235 1 0.0 213.696684162724 335.0386300547724 545.8420098348505 # Ar
236 236 1 0.0 140.41765772848746 735.5952061705008 821.6304712408939 # Ar
237 237 1 0.0 1009.968902589946 240.12896265812535 611.011265574648 # Ar
238 238 1 0.0 224.63956505808645 270.8397486473039 703.1283389222135 # Ar
239 239 1 0.0 431.4628227776052 1113.5599612193887 964.1489806562691 # Ar
240 240 1 0.0 894.1245504214189 109.33640688236498 936.2216179664276 # Ar
241 241 1 0.0 873.6538906960026 350.97813333517627 101.53353530141898 # Ar
242 242 1 0.0 1267.4815631748434 180.26362803593875 1218.544111192099 # Ar
243 243 1 0.0 378.6098957377698 776.2243999174968 504.4573542569917 # Ar
244 244 1 0.0 1203.8600887416558 614.5806124858094 758.2755819123233 # Ar
245 245 1 0.0 1113.2749630471092 1030.342415685305 621.3726168968385 # Ar
246 246 1 0.0 916.8133129684994 482.46430970074545 571.4056757571478 # Ar
247 247 1 0.0 722.8691933848678 135.3118459540058 255.1598734240513 # Ar
248 248 1 0.0 308.3583536849202 405.51291548840385 668.2839422762098 # Ar
249 249 1 0.0 503.4840703617064 651.147402383429 642.5427985467171 # Ar
250 250 1 0.0 1093.5587981592828 538.8569961865452 195.28311902164793 # Ar
251 251 1 0.0 820.7279546562055 1141.017904854745 1172.879656029234 # Ar
252 252 1 0.0 790.9909016804638 941.681092954907 210.35146691377275 # Ar
253 253 1 0.0 611.6480516679533 676.1868875519746 336.8744633266064 # Ar
254 254 1 0.0 274.8577209298231 264.275364873274 7.682672864792951 # Ar
255 255 1 0.0 814.341302328391 1001.3656415350384 920.1603945543351 # Ar
256 256 1 0.0 181.2509331869675 546.9949668934203 273.33786250977585 # Ar
257 257 1 0.0 773.0231369842112 1100.5274577465318 1257.931474818992 # Ar
258 258 1 0.0 425.85971211385487 167.60539989975078 762.489279120902 # Ar
259 259 1 0.0 81.58124766677943 886.4813482908976 1093.185237678624 # Ar
260 260 1 0.0 1201.5513236982772 998.7668596155239 1215.4686628225547 # Ar
261 261 1 0.0 572.6739188131647 267.6299100861309 814.1620178152871 # Ar
262 262 1 0.0 993.9169109440786 550.1789587622474 777.5780177438447 # Ar
263 263 1 0.0 995.887932292027 1020.0741864451177 1237.414684269549 # Ar
264 264 1 0.0 6.187863761557546 858.3037784146456 137.6036181938742 # Ar
265 265 1 0.0 901.4815372584424 916.8532347431423 921.8166161273246 # Ar
266 266 1 0.0 615.1487665613392 1074.3687068708618 834.9015214241628 # Ar
267 267 1 0.0 802.7352798925867 1120.8267746920608 272.917188782485 # Ar
268 268 1 0.0 35.80017219961642 1119.1159464476946 219.9539583004782 # Ar
269 269 1 0.0 526.2162574113416 427.1733596678519 319.26817434357855 # Ar
270 270 1 0.0 803.2061861136093 279.1591312001722 229.41807723538275 # Ar
271 271 1 0.0 1096.7377157822532 1230.209614279131 288.19126860504565 # Ar
272 272 1 0.0 1138.122164017985 923.4979402747126 1289.791817988782 # Ar
273 273 1 0.0 834.4129381937247 1006.8963533863157 341.37292672645384 # Ar
274 274 1 0.0 932.6303252597959 475.73508914440686 1105.4771457322136 # Ar
275 275 1 0.0 332.2559317977775 395.7521473227839 882.9480470004125 # Ar
276 276 1 0.0 373.49129799614354 1107.1888613432418 1172.1742420184253 # Ar
277 277 1 0.0 1222.9654071596058 1236.7394743747152 272.5957418936957 # Ar
278 278 1 0.0 436.3707112647848 923.8666646401739 731.1148358585723 # Ar
279 279 1 0.0 218.87945201056888 1106.9590397995905 265.80303901950384 # Ar
280 280 1 0.0 1017.7498250967635 1170.0879133180406 1140.1953433323827 # Ar
281 281 1 0.0 466.7974942307254 562.991753849137 904.4409023848838 # Ar
282 282 1 0.0 1177.0615659961718 1170.0841248322452 717.334611958201 # Ar
283 283 1 0.0 1066.6847279245353 1053.5275682009074 197.2928475090489 # Ar
284 284 1 0.0 1196.5501083904894 103.2373108619403 886.9699520111026 # Ar
285 285 1 0.0 1248.613088903897 243.70965241496896 391.6783724332545 # Ar
286 286 1 0.0 612.5036461867958 73.47600326420891 599.8866279438389 # Ar
287 287 1 0.0 839.2253975101571 753.0493990965059 90.53443574378672 # Ar
288 288 1 0.0 479.1549532033851 406.24213894937765 233.96451540308342 # Ar
289 289 1 0.0 432.5790849923696 655.3425042082218 680.6569552996035 # Ar
290 290 1 0.0 508.636035250266 238.94615909155573 471.2738647685516 # Ar
291 291 1 0.0 1212.8088063747016 958.091019644038 673.1861445945549 # Ar
292 292 1 0.0 78.00104718685472 1044.9708088693114 1165.520900852693 # Ar
293 293 1 0.0 710.1583472626743 367.9767105576581 277.01134457399934 # Ar
294 294 1 0.0 173.81626069950335 409.9421693361263 73.74485011454934 # Ar
295 295 1 0.0 842.4526253904335 614.8970280905457 811.9715016545476 # Ar
296 296 1 0.0 354.02698646172587 865.3300167229822 1104.4819462723103 # Ar
297 297 1 0.0 1019.8927308118658 724.7251540061284 69.38549350188765 # Ar
298 298 1 0.0 1191.1642744308754 873.2949637154743 445.74057588355254 # Ar
299 299 1 0.0 690.4235465057154 825.462167976836 194.06851185203476 # Ar
300 300 1 0.0 230.14483341004993 666.946551450629 3.683333437681377 # Ar
301 301 1 0.0 982.0143263639702 413.00508571653216 389.46236597999956 # Ar
302 302 1 0.0 344.48517176753245 252.6198517224871 610.3842887605708 # Ar
303 303 1 0.0 906.1831165759301 595.270149565466 591.5915712152666 # Ar
304 304 1 0.0 605.3175010117006 795.5058399548408 787.8086512631031 # Ar
305 305 1 0.0 1226.443363097359 667.7236306176759 470.55581194907694 # Ar
306 306 1 0.0 1226.9369080413328 928.5867496129928 1051.8402564204166 # Ar
307 307 1 0.0 694.6964299173897 564.9298755569115 1041.1593569117608 # Ar
308 308 1 0.0 143.75830319236255 40.93637257014658 377.48126949424886 # Ar
309 309 1 0.0 140.9827343513037 363.37224274302656 646.1989922159798 # Ar
310 310 1 0.0 1165.0893290431234 1082.4529233453136 1219.6105142591275 # Ar
311 311 1 0.0 862.5768545607604 185.06560531448716 962.3443352469277 # Ar
312 312 1 0.0 1112.8655586863515 199.20699696409014 71.0433545978796 # Ar
313 313 1 0.0 733.5098297648535 72.53173631777909 951.7734588556302 # Ar
314 314 1 0.0 1286.6360425226046 773.964702810811 1218.1765135307921 # Ar
315 315 1 0.0 811.7349153482829 255.53048695460362 340.6812603170845 # Ar
316 316 1 0.0 465.2492014552571 595.2105365535188 874.9567573182014 # Ar
317 317 1 0.0 438.01471778102933 559.1061502350603 44.84989449198006 # Ar
318 318 1 0.0 283.18249185363385 1241.9420597150063 926.1659280248945 # Ar
319 319 1 0.0 605.511481346371 1235.2797135708688 717.0390379355125 # Ar
320 320 1 0.0 827.0322638674669 835.8983446258167 529.8866746827596 # Ar
321 321 1 0.0 1156.4070878478271 469.84191670524746 1152.078790301676 # Ar
322 322 1 0.0 431.8262557461299 1265.9671252150067 465.59928903697426 # Ar
323 323 1 0.0 1071.9631944529167 157.4899488513196 823.4626201985294 # Ar
324 324 1 0.0 703.6595256208345 539.798187178384 22.016463498131998 # Ar
325 325 1 0.0 971.1425525599082 1211.770708644111 342.29606467205247 # Ar
326 326 1 0.0 1117.6877505508494 615.4679361965308 417.5837249146873 # Ar
327 327 1 0.0 798.782106280667 972.8527052828483 660.3085173784748 # Ar
328 328 1 0.0 145.8219754831746 1076.3797812073362 827.6168855343623 # Ar
329 329 1 0.0 481.4192703042295 795.3101387661885 207.92809472908806 # Ar
330 330 1 0.0 612.3761696328424 535.6637936637942 525.1288929724014 # Ar
331 331 1 0.0 978.8813233424686 936.6409353901803 1113.8120461205076 # Ar
332 332 1 0.0 419.15389649188086 26.90672327282278 638.342913571872 # Ar
333 333 1 0.0 339.8499500624668 158.27036911807988 1271.1795948131357 # Ar
334 334 1 0.0 166.3510500995281 958.562230194811 43.258633486850464 # Ar
335 335 1 0.0 890.3292133457636 939.7146125065639 1140.03487440268 # Ar
336 336 1 0.0 92.55735734443276 762.8363350836868 218.89878831930127 # Ar
337 337 1 0.0 1024.641715381768 379.954826423222 417.8361834495714 # Ar
338 338 1 0.0 525.546273204282 1287.4148456862326 1063.7228632964402 # Ar
339 339 1 0.0 673.7620460869205 134.32441127144455 1056.3745503933899 # Ar
340 340 1 0.0 199.10162393566895 38.58203485638745 761.7266959025292 # Ar
341 341 1 0.0 537.2824767508337 239.20107909375307 819.3950985587265 # Ar
342 342 1 0.0 1123.4345514138793 950.8821092175045 964.9321439713132 # Ar
343 343 1 0.0 1050.103358589989 782.251276377848 728.8412988901447 # Ar
344 344 1 0.0 1291.6946756527639 434.6887835803239 74.65537202243112 # Ar
345 345 1 0.0 1182.6064087826178 159.62858536153945 225.40995294686857 # Ar
346 346 1 0.0 549.3704841722044 180.17973011118076 730.1620841521677 # Ar
347 347 1 0.0 357.53121555125165 447.95147090853715 46.08031089199452 # Ar
348 348 1 0.0 34.65661031841842 763.9770891964284 150.3257699363209 # Ar
349 349 1 0.0 267.1888139192083 1271.0454980961986 618.951327947557 # Ar
350 350 1 0.0 693.0664793781556 867.5996814139818 366.9227947118981 # Ar
351 351 1 0.0 581.9763626262684 949.9000522309497 643.4287331249129 # Ar
352 352 1 0.0 403.6721150257342 795.0761931677857 938.292490402151 # Ar
353 353 1 0.0 197.8677542122017 1209.6443499913944 163.4108823516762 # Ar
354 354 1 0.0 44.05632978161151 1233.1915211032494 169.49916449627437 # Ar
355 355 1 0.0 1268.3736340389846 1041.0316089230196 819.804808880267 # Ar
356 356 1 0.0 415.98535038360717 1052.0927594045975 754.6386508571317 # Ar
357 357 1 0.0 201.45848709006523 621.0627537123152 1279.295431077941 # Ar
358 358 1 0.0 395.13368057405506 869.4024214609087 107.79428861575995 # Ar
359 359 1 0.0 169.40666594118267 7.746252868318277 132.891017299223 # Ar
360 360 1 0.0 224.63109543545377 199.88460374401757 1277.953087140572 # Ar
361 361 1 0.0 1138.1893066067557 1033.0917907476248 226.07466290824573 # Ar
362 362 1 0.0 243.72175907796674 637.7940842509578 655.9900194061128 # Ar
363 363 1 0.0 390.04227477278414 540.118753412312 740.8937756599503 # Ar
364 364 1 0.0 70.93320538541533 1015.3880516937137 731.8856968985657 # Ar
365 365 1 0.0 950.8461939616234 1028.2030211505376 962.6530608163475 # Ar
366 366 1 0.0 192.20235093672085 1275.3238157786475 820.5240485922249 # Ar
367 367 1 0.0 991.5862478027251 164.83260774241285 425.11885643578 # Ar
368 368 1 0.0 1253.0511100003273 857.3925018093603 129.08473564034 # Ar
369 369 1 0.0 455.25180807430985 843.0823638640003 537.6466018383599 # Ar
370 370 1 0.0 652.1271141474135 970.279352767533 188.242362599101 # Ar
371 371 1 0.0 372.27179484870686 1045.9316547455837 723.9763937629615 # Ar
372 372 1 0.0 635.3915490225843 261.91823871989266 348.51518440522125 # Ar
373 373 1 0.0 338.40647916714045 245.871662707427 1259.994276756617 # Ar
374 374 1 0.0 710.6944133675964 965.2880914206896 161.9802892025458 # Ar
375 375 1 0.0 609.9752739793524 769.4161469114041 642.5759380081391 # Ar
376 376 1 0.0 434.8514059328372 657.8252862710065 240.74155466455204 # Ar
377 377 1 0.0 327.951051123778 92.95298258944119 315.42199426387765 # Ar
378 378 1 0.0 839.6396808118496 623.8882748349097 880.6302357215224 # Ar
379 379 1 0.0 296.0495290312518 3.8969712156232 1123.073116743473 # Ar
380 380 1 0.0 1164.550483487743 351.93502162495355 212.79854802985585 # Ar
381 381 1 0.0 621.8429623916849 44.176224917133425 387.35483549183664 # Ar
382 382 1 0.0 1097.0388611786911 804.9889564071706 508.59819276651393 # Ar
383 383 1 0.0 148.75931281958162 309.82545978549194 1059.9793074004415 # Ar
384 384 1 0.0 1252.9979482426272 265.6876060344598 1099.074980940782 # Ar
385 385 1 0.0 1176.444413270984 1057.1221278611356 712.3678928741106 # Ar
386 386 1 0.0 1132.3502266236314 488.2464077123122 465.224638753524 # Ar
387 387 1 0.0 1225.2812884584537 658.5961241522901 1211.2334812051222 # Ar
388 388 1 0.0 44.08495624831233 870.185245443589 23.673511179210276 # Ar
389 389 1 0.0 207.35099494516328 770.2049463575123 300.91303052905107 # Ar
390 390 1 0.0 1129.8820810479551 425.15307185629075 1186.883927962097 # Ar
391 391 1 0.0 50.34272394522481 750.196393711635 751.1143690404489 # Ar
392 392 1 0.0 460.2623206050213 112.95429436231343 921.7502782987359 # Ar
393 393 1 0.0 656.800846156985 270.63153996972073 241.82670164202395 # Ar
394 394 1 0.0 895.8037995596975 73.69413014748716 521.9299108407472 # Ar
395 395 1 0.0 664.2016975586919 1012.5592552604047 1085.1082380589642 # Ar
396 396 1 0.0 67.33730820303445 36.021284333019295 899.4883468427552 # Ar
397 397 1 0.0 693.6967850176172 333.6982358480718 1249.9800776598574 # Ar
398 398 1 0.0 1187.9027131677626 143.40683117564134 23.635707980871224 # Ar
399 399 1 0.0 544.8880502384118 1150.299102432906 950.9687679996579 # Ar
400 400 1 0.0 1249.786694758569 709.094976660315 250.22466548178394 # Ar
401 401 1 0.0 523.1589814906497 671.6301530687039 1083.3413008645828 # Ar
402 402 1 0.0 500.851893708616 941.728947117348 597.1441753369016 # Ar
403 403 1 0.0 55.35806748097668 404.23610002865234 884.6169304491724 # Ar
404 404 1 0.0 133.51641359344487 375.450472127242 1075.4923674523939 # Ar
405 405 1 0.0 127.80351007246385 443.8128488515878 533.3492740966492 # Ar
406 406 1 0.0 722.4716109844445 1097.1063476130075 377.171649557862 # Ar
407 407 1 0.0 743.2405427011261 539.9253257254439 731.7523817676517 # Ar
408 408 1 0.0 813.6495146961722 1032.9455860584746 227.0339292388821 # Ar
409 409 1 0.0 881.5479318137814 299.3645253685858 48.90357300343931 # Ar
410 410 1 0.0 376.69752914482024 502.33313847373006 1237.2724646476859 # Ar
411 411 1 0.0 461.27797279801615 1023.0250498490954 945.3871455505785 # Ar
412 412 1 0.0 147.14698173896105 1112.9269024154455 616.2572386261384 # Ar
413 413 1 0.0 1139.917480728668 104.87270087548801 420.8906067221117 # Ar
414 414 1 0.0 738.0071358453606 107.19600376156264 391.3773638314683 # Ar
415 415 1 0.0 1053.4651023560727 1084.8532266412526 353.74858376499793 # Ar
416 416 1 0.0 947.9283937299622 841.2396568181958 341.72061325133234 # Ar
417 417 1 0.0 248.83631855086708 584.6749119021665 1188.884664932134 # Ar
418 418 1 0.0 341.155486527444 810.5156005126876 382.3419716001543 # Ar
419 419 1 0.0 1089.0008605291068 1019.0208581341768 213.944755824999 # Ar
420 420 1 0.0 269.8489824741575 1265.4331901707883 501.6742194232347 # Ar
421 421 1 0.0 691.7480567358776 531.5472927493073 362.9113854870046 # Ar
422 422 1 0.0 876.4245111687496 826.8578166319395 530.558422242179 # Ar
423 423 1 0.0 1127.07645388882 909.4421659824168 874.8369824480214 # Ar
424 424 1 0.0 456.82286737715145 523.1404737022715 5.103012704075512 # Ar
425 425 1 0.0 924.672616014422 235.56194013193817 159.29505179197406 # Ar
426 426 1 0.0 1028.5801771987176 561.9557016257247 403.7224713499684 # Ar
427 427 1 0.0 291.19342393975023 226.1006069997745 669.7360044722859 # Ar
428 428 1 0.0 236.43910553942868 1036.4849748347797 1183.758128796162 # Ar
429 429 1 0.0 673.7626876915822 1007.863920390089 246.33686653782607 # Ar
430 430 1 0.0 585.7970046546869 702.592478599418 836.7728970463747 # Ar
431 431 1 0.0 1183.3718641447879 29.660035689904305 971.9909741280802 # Ar
432 432 1 0.0 322.5581641973218 520.9005124714173 1244.612696350682 # Ar
433 433 1 0.0 693.2709681193671 280.04242029139857 1010.1602749438609 # Ar
434 434 1 0.0 1181.0955021854938 1248.0878386840668 1262.4465700611133 # Ar
435 435 1 0.0 453.671775007141 4.44236827927195 11.15360374082965 # Ar
436 436 1 0.0 403.9283987245933 522.0930321400766 262.08609568781117 # Ar
437 437 1 0.0 664.7237088785675 1011.6946969739371 496.3222968760673 # Ar
438 438 1 0.0 66.889998511984 1244.2553324380644 430.6209492497201 # Ar
439 439 1 0.0 981.729852270658 713.6954668202695 1019.7199876766616 # Ar
440 440 1 0.0 227.08679844003765 1017.5593731998962 44.01256304952781 # Ar
441 441 1 0.0 1163.1021048021896 410.3940720690731 378.4524522143061 # Ar
442 442 1 0.0 535.9730763614542 741.340800513793 560.3942175215504 # Ar
443 443 1 0.0 803.4149959242127 211.74025409769104 563.4658223912935 # Ar
444 444 1 0.0 761.4478440555301 820.4423370693754 402.3039248711673 # Ar
445 445 1 0.0 958.4888273411912 1237.829439729727 483.4800644676095 # Ar
446 446 1 0.0 529.2438342381953 865.4241438981431 263.68592837753977 # Ar
447 447 1 0.0 1024.8449541138507 54.26751396583567 184.75597269811178 # Ar
448 448 1 0.0 895.1483649740782 1256.7888548295916 193.46613191056736 # Ar
449 449 1 0.0 106.4272542627236 116.31305946391765 51.67010231692402 # Ar
450 450 1 0.0 699.6630877172473 1187.885277573357 348.5922792912543 # Ar
451 451 1 0.0 1231.5062547960433 669.0604711824136 262.1583138255163 # Ar
452 452 1 0.0 19.241663044583365 703.4569322145691 494.40851687348106 # Ar
453 453 1 0.0 1235.1821716929273 217.613720486864 15.808762717360164 # Ar
454 454 1 0.0 744.9562970704723 1186.7658785857489 722.2399284814786 # Ar
455 455 1 0.0 492.10868444643836 229.20851070405794 272.1459438756903 # Ar
456 456 1 0.0 751.8780459268298 411.92402779974907 52.46806904975645 # Ar
457 457 1 0.0 468.9962078661411 49.05620949985057 665.6030461197987 # Ar
458 458 1 0.0 687.8933801139627 385.0437990622444 167.0009588363217 # Ar
459 459 1 0.0 490.1376538636092 607.6181687632711 229.64448202990425 # Ar
460 460 1 0.0 444.65236543756595 157.04433031783236 1031.9236613989556 # Ar
461 461 1 0.0 439.0892555949067 1211.9934841364966 317.62356619145896 # Ar
462 462 1 0.0 1108.7251293015968 223.98387681802157 695.5028901353265 # Ar
463 463 1 0.0 443.3347137999599 779.3209135896338 898.8441478438207 # Ar
464 464 1 0.0 999.9756223085149 565.496752059414 893.3100655023828 # Ar
465 465 1 0.0 345.4872522743772 258.40393446383973 110.2170452040678 # Ar
466 466 1 0.0 485.38601111047035 1019.9401055255194 892.1143022841131 # Ar
467 467 1 0.0 649.1915961747694 234.25512213514364 256.32110682542225 # Ar
468 468 1 0.0 969.3198943381788 1238.630554190618 859.973052224142 # Ar
469 469 1 0.0 846.8814352989533 135.59581297176683 238.85608550421992 # Ar
470 470 1 0.0 975.889764344774 345.2109518179445 1026.7373753685372 # Ar
471 471 1 0.0 534.3591915826212 654.6858727839494 582.3235002883231 # Ar
472 472 1 0.0 1242.2608915490548 324.53485634094903 331.5664481985486 # Ar
473 473 1 0.0 762.2515021405443 143.85996352130795 85.13897734446823 # Ar
474 474 1 0.0 270.0316567299852 527.0352797260324 120.45504609586382 # Ar
475 475 1 0.0 516.6242876603374 843.916927172368 858.7403924540237 # Ar
476 476 1 0.0 409.1080585599029 830.4071960417477 1050.6488349725098 # Ar
477 477 1 0.0 193.0940028860372 1208.0704447742514 554.9962223592929 # Ar
478 478 1 0.0 837.1808751163926 841.4143100066588 259.5420625026847 # Ar
479 479 1 0.0 407.8559478831035 886.8608093441597 630.6766308069756 # Ar
480 480 1 0.0 776.3884332460042 161.91513838717586 1164.9438429454108 # Ar
481 481 1 0.0 1187.2142427894642 247.96496080316433 1245.5802285049424 # Ar
482 482 1 0.0 1157.0488175004614 308.25115056215884 235.69927700792874 # Ar
483 483 1 0.0 1252.4274830923491 620.3689137386327 98.98820963398484 # Ar
484 484 1 0.0 400.26446327432103 586.6938897082939 706.5018365849592 # Ar
485 485 1 0.0 507.61407008539305 278.74711687346115 139.73155741265512 # Ar
486 486 1 0.0 1038.587091284574 63.111436682891 926.1151366308519 # Ar
487 487 1 0.0 957.6764257098469 490.34930671142024 1023.3509705073617 # Ar
488 488 1 0.0 1024.7021605958314 1190.6633022388487 81.08322625772576 # Ar
489 489 1 0.0 9.53261451910948 410.5875517784241 504.65368942473754 # Ar
490 490 1 0.0 56.62453466771058 1166.0855137681176 400.70742749404616 # Ar
491 491 1 0.0 1024.4115783303394 724.8952971056818 1115.949733923774 # Ar
492 492 1 0.0 1181.4543657769318 565.1053030917386 475.51195186052877 # Ar
493 493 1 0.0 975.469450739886 1040.58295461059 342.5467325632237 # Ar
494 494 1 0.0 1177.4960948513317 669.8296110340315 830.4493882666658 # Ar
495 495 1 0.0 867.6831968996249 1235.4857288109813 176.87230871084842 # Ar
496 496 1 0.0 1181.8884900683743 224.38233173032296 37.367413509568514 # Ar
497 497 1 0.0 594.6156910889326 807.1110076466198 622.9342173183838 # Ar
498 498 1 0.0 217.68469670784924 542.436172679121 270.5747404264257 # Ar
499 499 1 0.0 108.08709931654386 716.438280641437 148.5296912009178 # Ar
500 500 1 0.0 640.4510279463092 367.8560797521852 540.0667167391749 # Ar
501 501 1 0.0 278.534325369738 1058.3573313912389 888.600233363384 # Ar
502 502 1 0.0 206.93316316442582 271.23382099193014 1196.0838248154182 # Ar
503 503 1 0.0 98.30968041996032 1258.5618235443944 327.92714092516763 # Ar
504 504 1 0.0 637.520088176929 592.1095923505894 226.6408908878422 # Ar
505 505 1 0.0 638.407532055367 855.8653878962483 1220.5554406686826 # Ar
506 506 1 0.0 13.742147557444271 611.7720703851566 402.77475865253035 # Ar
507 507 1 0.0 460.8277038076281 72.69048189696531 392.4587416158312 # Ar
508 508 1 0.0 989.2956558126399 6.949083037805801 365.93750456726093 # Ar
509 509 1 0.0 614.5127817995069 425.64078748053987 358.0824092537793 # Ar
510 510 1 0.0 677.1930406495518 1140.0003407706756 110.77367593653288 # Ar
511 511 1 0.0 608.0610492853685 1084.7943929173257 729.7143590747195 # Ar
512 512 1 0.0 1054.0204539598412 114.520012081891 521.187213218613 # Ar
513 513 1 0.0 1237.7778145130344 421.6241855052538 861.3644916384703 # Ar
514 514 1 0.0 259.33604248832825 915.0071790889599 1153.4232398446554 # Ar
515 515 1 0.0 1216.3748718800375 355.20939958913897 281.8029276158006 # Ar
516 516 1 0.0 944.1483000055905 497.7825358662701 600.3611601450498 # Ar
517 517 1 0.0 998.7421738783204 1007.1021976257612 957.3424611046007 # Ar
518 518 1 0.0 453.6005605426144 385.55423807720166 497.60540301296095 # Ar
519 519 1 0.0 1050.2618873799822 1044.209970234516 499.266459674383 # Ar
520 520 1 0.0 505.40429809819744 544.0018537826901 571.165920066309 # Ar
521 521 1 0.0 1144.161718518953 843.8969664622882 1258.9703603042751 # Ar
522 522 1 0.0 523.8416082278958 431.4909718295782 85.93387352951837 # Ar
523 523 1 0.0 947.8948688082279 1289.312748121631 1033.510704913114 # Ar
524 524 1 0.0 890.1818848520123 599.851738650108 888.7477318769853 # Ar
525 525 1 0.0 861.6130811062475 183.62422723975388 856.481103909189 # Ar
526 526 1 0.0 1062.716960148568 810.7202504229459 769.2415058511089 # Ar
527 527 1 0.0 1170.765118821854 137.2261440454521 882.6560762462371 # Ar
528 528 1 0.0 257.98022252724024 0.7772324553347043 901.901473319597 # Ar
529 529 1 0.0 47.93538867095794 1281.3171768254674 58.562661089053975 # Ar
530 530 1 0.0 286.1274483621009 816.1868973829573 486.16632411316203 # Ar
531 531 1 0.0 694.0537121771151 886.1614035159133 1020.2348585277653 # Ar
532 532 1 0.0 682.1348698797649 1225.9067259310448 101.90021890076892 # Ar
533 533 1 0.0 349.50542250863816 560.1977516277406 1197.1731898778407 # Ar
534 534 1 0.0 240.99266704095848 1096.9106809130321 636.2074693580068 # Ar
535 535 1 0.0 1020.0498117139407 619.7826175909707 466.4113199323316 # Ar
536 536 1 0.0 312.8558977408352 948.7000808498123 1271.0247199201808 # Ar
537 537 1 0.0 1102.5365728681893 208.51100185206653 61.406232229824106 # Ar
538 538 1 0.0 645.2992711466194 298.58239447097327 521.1664106137154 # Ar
539 539 1 0.0 491.85635841106784 555.5703830166121 1275.605236440661 # Ar
540 540 1 0.0 305.8162794622428 1017.321025648301 729.907272876153 # Ar
541 541 1 0.0 666.176694160446 664.7336253112054 343.64969687274487 # Ar
542 542 1 0.0 1254.8695777947555 565.3826561076197 464.2801251434148 # Ar
543 543 1 0.0 1148.3353605557459 77.09718190725103 604.7488877577941 # Ar
544 544 1 0.0 209.90107533097006 820.7743607957461 457.3561219425641 # Ar
545 545 1 0.0 1019.99773075817 836.8125624755969 1089.598550142007 # Ar
546 546 1 0.0 1032.1177085069558 74.0072490615932 1278.6603824695649 # Ar
547 547 1 0.0 1232.9836106161736 811.57703631084 17.004044106487694 # Ar
548 548 1 0.0 1247.2086445374318 711.0665693963765 84.94781620884143 # Ar
549 549 1 0.0 620.2297830903311 234.52686840496293 34.849905224430714 # Ar
550 550 1 0.0 107.81350633757557 235.80592642741775 956.9217729223549 # Ar
551 551 1 0.0 904.5046109963544 364.9708075693106 358.12806582105884 # Ar
552 552 1 0.0 476.88259655897724 358.25863048269457 1267.2604233592658 # Ar
553 553 1 0.0 1187.8907604279689 42.597764418464 11.957791264321319 # Ar
554 554 1 0.0 1192.701813926403 200.400305832691 168.7276244037134 # Ar
555 555 1 0.0 1162.6656884953588 721.1717760086149 1200.0144386443662 # Ar
556 556 1 0.0 1143.6937334029421 593.2488749410355 629.0729370616176 # Ar
557 557 1 0.0 232.2370084894531 700.2565694912496 995.9828985813075 # Ar
558 558 1 0.0 431.12909321176414 316.23935513374556 174.48140359586174 # Ar
559 559 1 0.0 1008.3985115811366 1044.0492540915354 801.1907456082216 # Ar
560 560 1 0.0 622.0517435411947 282.8617565742012 652.2749543313511 # Ar
561 561 1 0.0 1042.8027799358103 649.5803280649077 424.19838975240054 # Ar
562 562 1 0.0 1025.7994890779582 855.1360926382098 81.42156222901583 # Ar
563 563 1 0.0 709.6681147506332 694.4258143460543 850.8094894336556 # Ar
564 564 1 0.0 1149.3678312965021 162.16069556616333 1262.5864064675193 # Ar
565 565 1 0.0 733.7507184623809 745.0947349491025 1063.642577169895 # Ar
566 566 1 0.0 1281.2030494866458 1149.3504033075174 236.7998466671593 # Ar
567 567 1 0.0 13.322158265539887 641.9310265465356 379.73174020041125 # Ar
568 568 1 0.0 721.8421611674881 684.4975268107818 106.54006850820349 # Ar
569 569 1 0.0 92.51254011383038 134.38669954852924 92.36380863198877 # Ar
570 570 1 0.0 288.66727697129045 1203.094406338867 260.81842918616366 # Ar
571 571 1 0.0 495.5644967914315 15.252344496151604 369.7025560328565 # Ar
572 572 1 0.0 367.2274981138722 854.4468130641845 1044.1284034846553 # Ar
573 573 1 0.0 957.76047032903 588.0027829315636 493.6688358044859 # Ar
574 574 1 0.0 169.0067380307175 560.5149749439585 501.3235250686942 # Ar
575 575 1 0.0 1045.3841365220974 313.09586205454355 935.3854928743333 # Ar
576 576 1 0.0 744.6884219908164 338.2141537712582 648.66762922546 # Ar
577 577 1 0.0 1051.465264303916 104.03070996058221 52.92127143856556 # Ar
578 578 1 0.0 1256.2401365155438 278.7091144521223 476.6125359451524 # Ar
579 579 1 0.0 100.09452427469365 606.2557747115109 889.6765574105808 # Ar
580 580 1 0.0 370.40366761071414 1083.5401934109893 577.9665802718935 # Ar
581 581 1 0.0 25.23162678537857 1245.500113470914 752.5412459675908 # Ar
582 582 1 0.0 819.3448843554039 6.085750447446659 707.9228694917314 # Ar
583 583 1 0.0 863.9356890477903 515.8645390418743 893.1665028299909 # Ar
584 584 1 0.0 191.70452645749842 1217.896702473514 637.2811882842446 # Ar
585 585 1 0.0 1210.36882529743 361.60467959693614 643.8784578676923 # Ar
586 586 1 0.0 597.6887512342846 648.0868513592146 755.6268314224511 # Ar
587 587 1 0.0 16.62135405633888 1127.0137857679551 705.748144097138 # Ar
588 588 1 0.0 817.762567432633 598.7025353618136 639.1617569209375 # Ar
589 589 1 0.0 1168.530041679751 112.3952863047188 132.3873174848846 # Ar
590 590 1 0.0 690.6366356974686 1179.3086891691141 510.3797936597411 # Ar
591 591 1 0.0 309.19700882895694 1198.4317227983845 338.9892404568142 # Ar
592 592 1 0.0 163.75760308316507 680.1867357162083 1263.3520463622353 # Ar
593 593 1 0.0 224.81578261781257 152.24777646637756 284.408812712356 # Ar
594 594 1 0.0 340.97766436900974 1175.4127600778615 7.546052565607322 # Ar
595 595 1 0.0 657.1768558195025 1198.9531165866747 650.2922544555754 # Ar
596 596 1 0.0 1025.484504905691 203.14262123543656 435.4173767645519 # Ar
597 597 1 0.0 6.665062303598741 243.3556888838956 1019.919197435569 # Ar
598 598 1 0.0 782.731232887286 260.8534710773973 993.8111254202528 # Ar
599 599 1 0.0 368.58212894798635 1145.0599877423365 890.6645520424981 # Ar
600 600 1 0.0 1105.1900234232464 471.72263321414533 413.75141472198914 # Ar
601 601 1 0.0 138.8744264645254 731.7152195477408 904.5994444568015 # Ar
602 602 1 0.0 1223.480988735536 1228.9957876658411 470.79942550685115 # Ar
603 603 1 0.0 15.301617326710971 850.0403278346562 705.1237096670549 # Ar
604 604 1 0.0 614.1297998109648 970.9170886791723 966.0307283545187 # Ar
605 605 1 0.0 84.91370331480806 479.0997296195139 40.74007248097456 # Ar
606 606 1 0.0 814.5143613832311 852.6488208377529 541.671942810025 # Ar
607 607 1 0.0 513.8826997675092 1179.463274020271 873.8384981523872 # Ar
608 608 1 0.0 347.7681857093866 209.92716405008207 782.769389920036 # Ar
609 609 1 0.0 425.076403537167 852.091712182141 72.31367171579122 # Ar
610 610 1 0.0 373.39286358023264 5.439411525976341 252.5626580395017 # Ar
611 611 1 0.0 1278.6681807267328 528.3360374062742 991.8454661470456 # Ar
612 612 1 0.0 1101.2634826442352 1119.3923436938223 707.4381472936049 # Ar
613 613 1 0.0 718.620258940188 324.63772206890843 1268.3033899746051 # Ar
614 614 1 0.0 903.6400514848351 562.6492520502072 848.1838312627883 # Ar
615 615 1 0.0 964.6040386669358 629.060056959701 679.5502703973892 # Ar
616 616 1 0.0 1126.9810089552611 464.05765475055654 600.1298824714534 # Ar
617 617 1 0.0 257.2258110607312 543.9407791709917 1042.3062534024277 # Ar
618 618 1 0.0 644.5616439707337 260.38053489290974 110.0863914908024 # Ar
619 619 1 0.0 790.5276141372054 951.1838690121979 1296.4749947920336 # Ar
620 620 1 0.0 370.29438733969323 495.96821778877205 224.49432712161092 # Ar
621 621 1 0.0 1272.0027263209226 293.915307384257 1233.243438126445 # Ar
622 622 1 0.0 433.31033446287455 397.55808069097606 842.863423211821 # Ar
623 623 1 0.0 120.2601411206816 426.56222776332123 1063.7211974357635 # Ar
624 624 1 0.0 12.12400809407605 1007.5531940381574 1252.7893101840543 # Ar
625 625 1 0.0 648.6094080144362 1066.0327491415176 1253.6793901122248 # Ar
626 626 1 0.0 307.4425731971146 527.0422569893783 592.3340537582807 # Ar
627 627 1 0.0 481.4146730582186 748.6239384364104 176.22364343963116 # Ar
628 628 1 0.0 526.3632195544452 313.5508366693364 812.8351046235726 # Ar
629 629 1 0.0 27.38139692332394 1012.8617938711348 947.4093341828914 # Ar
630 630 1 0.0 587.7407587165735 92.15273439110227 753.5766525634541 # Ar
631 631 1 0.0 627.8280103385113 284.0447266793503 284.7091741559054 # Ar
632 632 1 0.0 578.6974871000763 120.30564620084824 620.4924514245599 # Ar
633 633 1 0.0 627.2579611089105 194.6584839996017 239.55442208255354 # Ar
634 634 1 0.0 1114.8276593417695 575.3940848116094 507.914677102975 # Ar
635 635 1 0.0 916.3805990560286 1026.3972440078644 1092.2555678874176 # Ar
636 636 1 0.0 418.3697791138668 1093.7755632971855 1194.7416797993906 # Ar
637 637 1 0.0 109.47446660667161 1232.9483325193326 377.79572495959945 # Ar
638 638 1 0.0 805.1691886123488 151.16105555295343 1135.1707187548398 # Ar
639 639 1 0.0 396.7729139292185 368.89480921628285 933.8913883218851 # Ar
640 640 1 0.0 55.814721755853185 652.8290084856411 669.5793103913022 # Ar
641 641 1 0.0 823.176080289215 696.75413541293 823.504419125816 # Ar
642 642 1 0.0 334.80412720066863 337.5235430944148 6.625111046583989 # Ar
643 643 1 0.0 995.5510577203875 494.0245820434535 976.7935076245619 # Ar
644 644 1 0.0 503.0300877982082 1012.9596887077261 1267.4338798151132 # Ar
645 645 1 0.0 23.93716153014266 130.86930073842817 309.3459172479892 # Ar
646 646 1 0.0 1105.8399952900959 120.67053500270752 1145.6753066781737 # Ar
647 647 1 0.0 666.2005880975264 646.1501446877122 531.1753220930351 # Ar
648 648 1 0.0 55.49616841071943 632.1511818074802 290.1656028768716 # Ar
649 649 1 0.0 186.7495695195831 705.6226373061344 1203.3960740580135 # Ar
650 650 1 0.0 475.6230435408652 467.20357826660836 985.6479994677752 # Ar
651 651 1 0.0 517.1570044050442 470.93656555639205 695.7427830204342 # Ar
652 652 1 0.0 511.36083672085635 468.6554059832046 511.2690307138048 # Ar
653 653 1 0.0 464.914700665757 1036.3586433864095 761.6811312878035 # Ar
654 654 1 0.0 356.25408697993305 958.6904781334055 964.0460470282308 # Ar
655 655 1 0.0 843.2381813510235 424.9488935031665 1195.0568497935046 # Ar
656 656 1 0.0 258.6755820038051 981.5779482406856 296.9717883994988 # Ar
657 657 1 0.0 387.18571728565394 642.1170744194644 381.5712488567352 # Ar
658 658 1 0.0 416.62877107092476 474.30111148338403 319.2097293437564 # Ar
659 659 1 0.0 307.91005934021166 398.6359635892796 625.7763150500347 # Ar
660 660 1 0.0 1142.7956404494353 156.49579744090727 222.49798554270612 # Ar
661 661 1 0.0 997.5491532817755 655.3909690355306 34.24012993916724 # Ar
662 662 1 0.0 549.8090334619338 495.97333286015 186.5001432752169 # Ar
663 663 1 0.0 868.4825712686481 119.40770383596055 418.4608458551817 # Ar
664 664 1 0.0 380.585862929356 294.3963283192078 129.8556182266312 # Ar
665 665 1 0.0 480.75430265049226 160.97809845664247 83.87595993549225 # Ar
666 666 1 0.0 785.5442671269486 437.9932963999656 255.92018642648452 # Ar
667 667 1 0.0 1185.4810235278205 646.6183176282103 478.2759886286287 # Ar
668 668 1 0.0 440.84340361086436 1194.8548917663713 496.26705683326315 # Ar
669 669 1 0.0 675.7329609656642 26.15337925094482 680.5266290413668 # Ar
670 670 1 0.0 117.15658306524257 91.75241155498034 1207.0218834522666 # Ar
671 671 1 0.0 1082.748522792335 1026.376883665905 1058.185548210487 # Ar
672 672 1 0.0 235.0356149290264 752.4759371384263 83.30064195213704 # Ar
673 673 1 0.0 206.60028939324204 1211.5547139496543 649.5394627204957 # Ar
674 674 1 0.0 317.08367422509394 1148.6722769771338 1020.7031990240658 # Ar
675 675 1 0.0 744.6328831773757 1155.8045435388456 1266.5122362138002 # Ar
676 676 1 0.0 475.36898667049434 784.6078154891476 631.8242087220461 # Ar
677 677 1 0.0 1179.0553737863538 289.8373296131983 1200.9055515493078 # Ar
678 678 1 0.0 383.63709522592285 252.72702421216627 124.28007018255104 # Ar
679 679 1 0.0 512.0007802727309 323.7754224941485 253.0466747721563 # Ar
680 680 1 0.0 85.9318803689247 733.9377730966995 219.59608634672307 # Ar
681 681 1 0.0 379.1638209260754 524.0067885770296 1281.482238459664 # Ar
682 682 1 0.0 634.4545712984537 1160.7752065350514 746.0826280367081 # Ar
683 683 1 0.0 516.3813224141677 727.3716801021915 1158.7510114248869 # Ar
684 684 1 0.0 1156.5695677346523 76.03234232199688 415.20366804112234 # Ar
685 685 1 0.0 319.9160176735084 965.3546209889574 341.7765157267591 # Ar
686 686 1 0.0 425.60911586355274 1000.3641526998125 227.79615080112754 # Ar
687 687 1 0.0 590.9800653032843 315.15965889665205 55.34028982409992 # Ar
688 688 1 0.0 44.99398536167085 1296.5047828750317 809.7708112867384 # Ar
689 689 1 0.0 218.88214099628408 1065.7066895221606 112.52776211685337 # Ar
690 690 1 0.0 1199.1919975762232 307.6320579934965 67.85565132582474 # Ar
691 691 1 0.0 900.7995433859286 630.5129931884071 414.09380769680115 # Ar
692 692 1 0.0 1013.7510427354223 92.36920727168854 400.3922865822853 # Ar
693 693 1 0.0 1269.8912093267386 87.94559264303766 523.3107988915247 # Ar
694 694 1 0.0 1252.5321351835214 1215.4771139944883 214.8349074182959 # Ar
695 695 1 0.0 343.9307827798616 1295.2115789359955 414.9896865996372 # Ar
696 696 1 0.0 723.7385018046919 1037.6778014445351 919.2970953237837 # Ar
697 697 1 0.0 843.0892816962202 715.9637940237066 1192.6029000281565 # Ar
698 698 1 0.0 1098.6391328098691 278.17328284345626 216.78785377837727 # Ar
699 699 1 0.0 111.33902093615212 862.2247453470161 48.84461763483005 # Ar
700 700 1 0.0 208.953378220158 213.0103871928276 1043.135220016851 # Ar
701 701 1 0.0 106.85379908692619 186.9887446986845 323.1353451916934 # Ar
702 702 1 0.0 1286.0400298049872 286.70239072208625 565.369766817406 # Ar
703 703 1 0.0 288.10919826490425 498.195994285261 188.6156515522849 # Ar
704 704 1 0.0 980.285030924433 1160.4316639963147 127.97531303315763 # Ar
705 705 1 0.0 505.0645472088147 384.0477914910976 776.362877753537 # Ar
706 706 1 0.0 644.3665525259964 810.8973019501248 260.4707578388256 # Ar
707 707 1 0.0 845.2949993411593 181.2772892142973 201.24913780033424 # Ar
708 708 1 0.0 1130.5096961853906 27.440650361495255 110.56112446771482 # Ar
709 709 1 0.0 272.3136612493543 119.2342435303438 1265.1068437002875 # Ar
710 710 1 0.0 419.1882858465804 1010.9518978700149 1234.8755527616734 # Ar
711 711 1 0.0 525.616994512803 1210.942797471406 666.3708601553938 # Ar
712 712 1 0.0 866.6480739388401 966.506876234376 514.9907518231681 # Ar
713 713 1 0.0 1062.1532555293554 928.097780785241 742.3076091436365 # Ar
714 714 1 0.0 1123.3134219618498 1030.7782036043861 593.461505289804 # Ar
715 715 1 0.0 342.58145029658493 493.0587110592887 459.7428675163589 # Ar
716 716 1 0.0 1188.9036436933031 533.308842533862 390.9156563968866 # Ar
717 717 1 0.0 1203.6377576021935 865.7465515636736 836.1649618316878 # Ar
718 718 1 0.0 977.2563527805423 368.85677055004817 889.6512395017996 # Ar
719 719 1 0.0 50.39615351425048 854.2557735424472 427.17784624349457 # Ar
720 720 1 0.0 775.8787557945207 459.1484876172401 307.41846174999137 # Ar
721 721 1 0.0 359.703902971523 271.58263394968486 990.1789046665139 # Ar
722 722 1 0.0 592.2302144097442 335.6064811539702 310.5218343516027 # Ar
723 723 1 0.0 975.0554652240295 213.4712043769365 388.27958562743123 # Ar
724 724 1 0.0 545.0230543711001 702.7185458091456 496.2057472541578 # Ar
725 725 1 0.0 875.8504785324237 64.180148276984 983.1030376082391 # Ar
726 726 1 0.0 134.83766454216385 1136.6969345187222 577.7503678145351 # Ar
727 727 1 0.0 316.47766916299497 802.8726550533636 115.49015999704228 # Ar
728 728 1 0.0 458.8281252645831 39.3655868003609 471.59909510736185 # Ar
729 729 1 0.0 150.32199741894163 272.0922670451351 755.5746110612323 # Ar
730 730 1 0.0 600.6015844721732 33.17756921206191 145.46160453108718 # Ar
731 731 1 0.0 896.3973669420152 293.1307908449083 1175.572715996674 # Ar
732 732 1 0.0 193.73717119456762 423.8558999846575 105.65813787046173 # Ar
733 733 1 0.0 745.3442715990782 873.7641322487126 417.4666656127957 # Ar
734 734 1 0.0 650.2459459304032 1075.6509944278646 519.1935326265202 # Ar
735 735 1 0.0 173.67561770927196 797.6176601043358 264.7553493388744 # Ar
736 736 1 0.0 947.1841336746866 322.67474735069635 364.0146580546856 # Ar
737 737 1 0.0 1008.9841536401657 304.8753799168701 605.5933145364027 # Ar
738 738 1 0.0 522.2576542464382 364.3752180619679 176.02994593440613 # Ar
739 739 1 0.0 487.05205879126765 836.6947322062971 837.4584311283163 # Ar
740 740 1 0.0 713.1739115651127 482.0258975307341 41.93082077397771 # Ar
741 741 1 0.0 467.8229309064994 599.4082784775306 1273.5506365392155 # Ar
742 742 1 0.0 344.88914221212116 992.0203900928458 1036.6799157729647 # Ar
743 743 1 0.0 907.3879299928786 704.2494601569764 885.4190780861541 # Ar
744 744 1 0.0 1269.4224122545097 434.5889392455425 306.1358734150332 # Ar
745 745 1 0.0 500.76693040842326 113.93180934968723 831.7437359646739 # Ar
746 746 1 0.0 724.2824476520309 24.76882589034993 510.3082626423124 # Ar
747 747 1 0.0 388.57211792258227 924.2222593442291 116.78143564936758 # Ar
748 748 1 0.0 701.8549497853007 529.5042456962298 1120.8814586267636 # Ar
749 749 1 0.0 896.7524091037361 275.92409807168156 782.1308297473175 # Ar
750 750 1 0.0 484.51353606193743 230.53138798457044 1220.0380401231387 # Ar
751 751 1 0.0 745.0334273210326 1012.4449052129673 612.49736118906 # Ar
752 752 1 0.0 1274.3309757070008 1088.3877548070616 837.9897970358186 # Ar
753 753 1 0.0 654.5042774620708 895.3419299739833 5.983859678568855 # Ar
754 754 1 0.0 453.2145885629929 799.6115561664102 220.22714277873035 # Ar
755 755 1 0.0 554.5366261263232 1199.9824830609302 904.2369944964518 # Ar
756 756 1 0.0 578.8178442477325 1257.2345932232136 980.5528898816257 # Ar
757 757 1 0.0 68.3069648473126 1209.4615447227575 182.33439908541888 # Ar
758 758 1 0.0 915.9522872963257 817.1104339062074 591.5161382438412 # Ar
759 759 1 0.0 994.9223322837072 31.742543548297647 999.0805206373609 # Ar
760 760 1 0.0 177.1954531429855 730.8250954165559 741.70956327382 # Ar
761 761 1 0.0 992.775043144122 807.4837036385356 1067.939911943305 # Ar
762 762 1 0.0 724.3222124401394 157.0493039682405 129.4549698507221 # Ar
763 763 1 0.0 32.30751913963934 432.67571698099067 971.6795802748851 # Ar
764 764 1 0.0 362.7337668485094 1238.2147088612908 1277.2979065789016 # Ar
765 765 1 0.0 676.277087652755 838.1245532094279 841.2844389520748 # Ar
766 766 1 0.0 462.91581788944313 581.3733440871071 260.5695461438858 # Ar
767 767 1 0.0 78.84142250782867 427.42102914604425 55.48509372010739 # Ar
768 768 1 0.0 221.53533907807105 1154.676496531617 35.120354283385396 # Ar
769 769 1 0.0 790.1705719376571 790.8947948406078 821.2647434423793 # Ar
770 770 1 0.0 1202.409433896145 394.50795965600275 409.23263890590766 # Ar
771 771 1 0.0 828.2219458694498 970.822075246758 821.331651008882 # Ar
772 772 1 0.0 1244.4654489907252 265.5729135664316 850.2763868160622 # Ar
773 773 1 0.0 1084.7127759917591 505.4852392868146 379.7209818445868 # Ar
774 774 1 0.0 1183.6188929042332 255.19476035328017 1076.74412177339 # Ar
775 775 1 0.0 675.3108901683653 842.6835912812576 874.51381673182 # Ar
776 776 1 0.0 3.003888401356948 143.54892670092187 577.2673926460744 # Ar
777 777 1 0.0 587.0685503501684 450.4108613522994 177.3553052573645 # Ar
778 778 1 0.0 512.0136972836323 963.3135262535675 1197.216124817742 # Ar
779 779 1 0.0 628.7482172460301 780.9243779197739 774.6547969531365 # Ar
780 780 1 0.0 988.6019822758631 731.1153833267651 551.9590143790838 # Ar
781 781 1 0.0 216.08578453509415 975.8730806621512 1168.4813005137207 # Ar
782 782 1 0.0 1099.5826035113369 46.98208189339607 183.86292191201719 # Ar
783 783 1 0.0 1224.8746826948204 404.46711921638155 124.61702507779567 # Ar
784 784 1 0.0 951.3136797549625 267.0027218067114 1249.9832627599596 # Ar
785 785 1 0.0 604.285450239859 334.9228138698757 497.36384686490754 # Ar
786 786 1 0.0 786.9185597377012 95.73653785377782 661.214048592419 # Ar
787 787 1 0.0 1098.1254386426838 260.79958167912173 53.518072334508304 # Ar
788 788 1 0.0 1039.9369371444316 509.42168679190917 93.55783087678121 # Ar
789 789 1 0.0 80.75626207980552 448.18523125191155 479.7951255360638 # Ar
790 790 1 0.0 1273.257647276648 681.4795419537387 792.7369204692518 # Ar
791 791 1 0.0 354.7648623630402 373.8689156733449 455.4846624927351 # Ar
792 792 1 0.0 480.38167426421256 696.9303129443975 1209.834467939803 # Ar
793 793 1 0.0 252.3664963976116 618.4831537119823 831.4004645781521 # Ar
794 794 1 0.0 1.103414738355877 804.3572381391293 675.751616971432 # Ar
795 795 1 0.0 886.0271833070548 250.43873398306812 1147.9510932427202 # Ar
796 796 1 0.0 453.1253551808687 1064.8169673684079 974.1537280880717 # Ar
797 797 1 0.0 1125.7901951457097 128.78491411289374 184.36961237149953 # Ar
798 798 1 0.0 338.5393313142367 702.1334112864382 689.0336170500493 # Ar
799 799 1 0.0 184.28826699665288 1240.9303759951908 684.9551942970494 # Ar
800 800 1 0.0 419.32504429115505 186.1724386952662 882.9219489750702 # Ar
801 801 1 0.0 456.590020925902 94.64112828035752 1037.0702495510623 # Ar
802 802 1 0.0 696.0646237997657 1283.6080831004112 223.21011731873065 # Ar
803 803 1 0.0 1114.2350793744304 1249.2589302468716 180.54810421828458 # Ar
804 804 1 0.0 416.38971511196 1032.336879860278 1203.6124978725077 # Ar
805 805 1 0.0 1105.313540376917 507.9200515740314 114.34445707705784 # Ar
806 806 1 0.0 884.5774406298858 373.98126634327116 602.4478889693878 # Ar
807 807 1 0.0 1221.6842072568961 480.18372215346574 186.0903834795175 # Ar
808 808 1 0.0 1086.574024565393 498.79634507957593 139.01066550034642 # Ar
809 809 1 0.0 135.12689153185931 224.85356631142622 55.097907755798396 # Ar
810 810 1 0.0 251.4494963414465 30.541955147871978 1001.254848737727 # Ar
811 811 1 0.0 680.9602129249408 20.501212171936256 657.8887024906245 # Ar
812 812 1 0.0 1214.5996517421402 393.5898785186648 48.20030176437696 # Ar
813 813 1 0.0 821.3422892549708 590.907359962521 244.4818487816694 # Ar
814 814 1 0.0 397.3569194609268 613.6049631514129 1236.3328816619176 # Ar
815 815 1 0.0 4.682218113728066 603.5059434939647 851.2532115173291 # Ar
816 816 1 0.0 436.87354109911223 1212.0909810497867 1190.0552162576132 # Ar
817 817 1 0.0 982.1276267841258 21.898240230213997 921.6729060195144 # Ar
818 818 1 0.0 175.2481915204379 322.7467509602672 1199.8392428313443 # Ar
819 819 1 0.0 872.8382347662757 981.123796930502 602.3953078694069 # Ar
820 820 1 0.0 746.7298955440617 1105.1546181436356 1237.6282212796946 # Ar
821 821 1 0.0 65.43859733731459 600.8827695495454 177.07297412304956 # Ar
822 822 1 0.0 671.4577309446187 675.7022516469475 113.66847397481742 # Ar
823 823 1 0.0 106.64313409919764 112.11316064419282 334.37659168615846 # Ar
824 824 1 0.0 771.9380150909512 95.27615654775943 686.2227090253583 # Ar
825 825 1 0.0 567.5261810794275 1026.550957614747 1263.0194900017464 # Ar
826 826 1 0.0 480.4872272316468 290.189498883442 602.5406806427724 # Ar
827 827 1 0.0 1101.2507753206587 885.6991801063008 577.0007037532978 # Ar
828 828 1 0.0 304.7703844732983 1138.6326194247595 750.5182655405667 # Ar
829 829 1 0.0 454.66457499623914 481.1995705469981 1279.4834730252064 # Ar
830 830 1 0.0 1198.988923008181 312.99505243696035 390.57938581764046 # Ar
831 831 1 0.0 1287.8116723885773 327.4801254223203 552.7101560851896 # Ar
832 832 1 0.0 460.19279040714 987.1015322094654 811.1057740751293 # Ar
833 833 1 0.0 1129.1032548638648 847.147243682347 1292.708211342112 # Ar
834 834 1 0.0 302.4932328557805 798.6063699521377 1218.2295141705893 # Ar
835 835 1 0.0 1029.4119652493762 808.3936888693013 636.702329651706 # Ar
836 836 1 0.0 541.4031498766476 1237.689623199454 886.3566878058932 # Ar
837 837 1 0.0 1097.5173288797575 1097.640705626135 1156.9132248447697 # Ar
838 838 1 0.0 517.7982603598027 193.55237261796375 559.7263380095244 # Ar
839 839 1 0.0 216.72899285511548 654.5882193446529 792.4380640002992 # Ar
840 840 1 0.0 1203.1217726955224 589.1104278066268 606.9741295062041 # Ar
841 841 1 0.0 655.3983868478589 505.55757429372795 437.9452871201051 # Ar
842 842 1 0.0 1135.6693369310528 210.64912552352104 526.6159148320424 # Ar
843 843 1 0.0 758.8037233677261 1065.192823413576 340.6989847116916 # Ar
844 844 1 0.0 1038.6344536682318 288.3465191730112 486.86146598026244 # Ar
845 845 1 0.0 620.8961221964227 394.37287903349454 1019.562551265678 # Ar
846 846 1 0.0 159.10265005950242 771.4759928805114 442.0557200782797 # Ar
847 847 1 0.0 443.13736451929185 633.2747343450837 1281.5102949220284 # Ar
848 848 1 0.0 245.82172636516967 1026.5355214529393 334.6957628951209 # Ar
849 849 1 0.0 1224.0178776238151 621.92563860748 819.6472754044688 # Ar
850 850 1 0.0 771.5732381724491 906.4225133778692 1046.2291545029577 # Ar
851 851 1 0.0 381.74331848518517 836.3056134404294 1197.0724991356396 # Ar
852 852 1 0.0 113.46231674131357 228.28075157146327 460.0381774933478 # Ar
853 853 1 0.0 515.795665062935 640.3736838533229 544.6739392570723 # Ar
854 854 1 0.0 1263.2616485569274 67.75096864431394 1252.1144467300464 # Ar
855 855 1 0.0 1257.9067811671403 1188.6402061162587 541.2214223351946 # Ar
856 856 1 0.0 692.356550806878 711.8219127956654 914.4907214348995 # Ar
857 857 1 0.0 925.6931025306129 1092.4170975157217 142.19184374362555 # Ar
858 858 1 0.0 99.89429879080788 663.6710317136256 1119.7891489467124 # Ar
859 859 1 0.0 1070.7956340765472 849.804064907774 119.62874824159901 # Ar
860 860 1 0.0 1269.6775115660937 1155.3975906593828 1232.3782680458298 # Ar
861 861 1 0.0 1137.540958918387 1147.7957397040545 622.9406782266304 # Ar
862 862 1 0.0 783.9434745455052 950.9812529416328 499.08307155828874 # Ar
863 863 1 0.0 915.9154856437167 1072.928745209769 928.5507766983814 # Ar
864 864 1 0.0 875.2616581293624 414.9363028669344 503.39544852696906 # Ar
865 865 1 0.0 123.77202557443819 104.54618411711002 490.6713737550436 # Ar
866 866 1 0.0 1144.8820751368496 576.8198519164353 721.9478552212377 # Ar
867 867 1 0.0 1119.8609253971174 1009.991255111078 816.6565322765424 # Ar
868 868 1 0.0 1280.7618433744196 1133.4396115249447 157.1360628255107 # Ar
869 869 1 0.0 1115.3779068872961 811.8895176690552 479.9094513637311 # Ar
870 870 1 0.0 1170.8705372912293 45.77505574701903 486.9568378893201 # Ar
871 871 1 0.0 467.5521115142417 788.0094641273392 119.69572691309163 # Ar
872 872 1 0.0 1165.228730727833 698.3633847310595 329.55739152903186 # Ar
873 873 1 0.0 81.40968699813942 1122.3877913481058 316.7876374337434 # Ar
874 874 1 0.0 235.3316714721833 628.4560001522838 875.8861190937326 # Ar
875 875 1 0.0 968.6556679180659 359.61556355541325 557.7240554961265 # Ar
876 876 1 0.0 750.0835992733715 925.3517266560555 474.97909172729754 # Ar
877 877 1 0.0 1102.1615107717998 1078.5164491908845 314.84443161188716 # Ar
878 878 1 0.0 395.8566189532019 1254.763473161017 663.2104431387479 # Ar
879 879 1 0.0 78.20770486770108 1181.414882549357 885.5925345499202 # Ar
880 880 1 0.0 1251.2511644402664 433.490031334232 1246.402134850131 # Ar
881 881 1 0.0 1143.894930262133 917.3820447604515 185.74675186460496 # Ar
882 882 1 0.0 741.763977659306 769.8569277219477 818.4834878393194 # Ar
883 883 1 0.0 359.2196647337245 322.1140774769638 1015.4092692745519 # Ar
884 884 1 0.0 664.717496111871 514.5778739001125 465.19306138817035 # Ar
885 885 1 0.0 975.6985398454827 867.1775576955793 472.2832336887804 # Ar
886 886 1 0.0 404.6132279013775 1083.6046105797302 261.70587902922114 # Ar
887 887 1 0.0 37.105726623192794 246.7283916787783 222.96340169606697 # Ar
888 888 1 0.0 600.990767690337 887.4273339297005 771.7382207955752 # Ar
889 889 1 0.0 330.25826099731154 625.8097987413405 11.871720095061502 # Ar
890 890 1 0.0 261.58272543472896 297.1399451815346 921.6706097348866 # Ar
891 891 1 0.0 762.9824462386242 37.64305887557856 995.0571957727292 # Ar
892 892 1 0.0 1198.1981107724432 135.94019644322395 346.2069382872203 # Ar
893 893 1 0.0 888.2146276249642 480.8033539769236 746.191804525811 # Ar
894 894 1 0.0 629.0716840378526 162.39832301532206 378.89708063323206 # Ar
895 895 1 0.0 504.61402001855436 353.3802089348093 61.92177166511885 # Ar
896 896 1 0.0 138.0413838619378 75.38706902017323 702.049663346593 # Ar
897 897 1 0.0 813.2122149619414 1097.9995018209618 1287.1644316948136 # Ar
898 898 1 0.0 445.72589479812444 597.0227222289162 412.1414586753472 # Ar
899 899 1 0.0 517.000838637565 236.5516070094343 151.3545211763395 # Ar
900 900 1 0.0 261.55140210043 39.041458467310285 1194.80952634974 # Ar
901 901 1 0.0 829.1287074040404 824.9174568899422 954.2493955642711 # Ar
902 902 1 0.0 737.7164688865768 1241.0401354043534 6.275630214632384 # Ar
903 903 1 0.0 811.531103423256 482.3011590357497 864.2651066150698 # Ar
904 904 1 0.0 208.78498733402247 635.1231126439287 1191.3541157228547 # Ar
905 905 1 0.0 1223.6956189744546 515.3668649641595 1283.9666993492656 # Ar
906 906 1 0.0 533.6188635480161 579.6825288597 836.1804698072235 # Ar
907 907 1 0.0 95.96774967113879 920.7107538160551 959.4474489527537 # Ar
908 908 1 0.0 903.1729376879479 526.3375178288803 630.0351012766192 # Ar
909 909 1 0.0 683.0828810804948 1253.970431501979 933.2826500910694 # Ar
910 910 1 0.0 1053.6047119716611 79.86135002520393 376.2289896785943 # Ar
911 911 1 0.0 392.55909338491284 178.4798550792831 1009.8048784954719 # Ar
912 912 1 0.0 446.8352988208913 1279.2577920255744 1075.34945297938 # Ar
913 913 1 0.0 391.6336946899472 232.8339323961922 413.5430861791352 # Ar
914 914 1 0.0 884.4463786452961 884.4028156905208 1049.430211346017 # Ar
915 915 1 0.0 936.9519074825033 1083.740302109942 677.3282614445873 # Ar
916 916 1 0.0 911.9755181417032 369.3404964563384 172.76548834461053 # Ar
917 917 1 0.0 993.4226008996944 354.8394954252555 895.2578613456908 # Ar
918 918 1 0.0 742.3445731581224 956.0388042310016 343.51759235384895 # Ar
919 919 1 0.0 184.69123160017537 254.14556842918986 561.9246158194569 # Ar
920 920 1 0.0 1133.7967654959737 277.97572912872107 839.1618658635842 # Ar
921 921 1 0.0 180.9626603489329 310.25472576738935 11.913166106382079 # Ar
922 922 1 0.0 829.3484553762986 845.7273462263711 703.5061236661445 # Ar
923 923 1 0.0 537.3785025359535 154.70024765193088 362.52300498005764 # Ar
924 924 1 0.0 596.7054046664327 794.0987270743805 1295.5026788295434 # Ar
925 925 1 0.0 1133.0646267127338 395.0057924284858 151.65757617790237 # Ar
926 926 1 0.0 840.0293409840905 932.3348237616609 774.9302099989585 # Ar
927 927 1 0.0 1166.27868569667 894.1791432759615 961.0835233820984 # Ar
928 928 1 0.0 1140.5412794925558 996.5456791540857 482.0877152907066 # Ar
929 929 1 0.0 464.51605267660045 751.5288995024513 1214.2913571582146 # Ar
930 930 1 0.0 698.4154829662536 810.5347490819399 889.374903184142 # Ar
931 931 1 0.0 1198.9278796615913 1179.3294935970616 1187.2031804589901 # Ar
932 932 1 0.0 314.97338509607533 671.4508880791059 247.47915069775058 # Ar
933 933 1 0.0 813.2601657589761 208.27001146868795 850.1149312271298 # Ar
934 934 1 0.0 853.120333143787 901.5717444378441 155.4161894121804 # Ar
935 935 1 0.0 255.42171326055043 106.25430222258693 1251.6130634034291 # Ar
936 936 1 0.0 695.2030759840683 1255.5225364727623 1109.395015535524 # Ar
937 937 1 0.0 844.1709253544345 1235.5594217248915 144.09274324906056 # Ar
938 938 1 0.0 1212.667292198336 222.01851273550733 1092.4736799459533 # Ar
939 939 1 0.0 562.661378363879 468.3488961935648 832.8488746872615 # Ar
940 940 1 0.0 71.94817350897314 68.23268464916508 735.5415460906227 # Ar
941 941 1 0.0 423.42389882639594 260.58691183246333 643.2280337605629 # Ar
942 942 1 0.0 539.911183063479 1286.9471166577418 908.5487236440791 # Ar
943 943 1 0.0 982.3108328935964 776.1505585826018 773.795322420626 # Ar
944 944 1 0.0 1156.3584514307531 198.61893632090528 339.5115395383691 # Ar
945 945 1 0.0 279.00073954077715 1232.6543689074726 304.1919839240664 # Ar
946 946 1 0.0 336.7622779656284 0.5851259457743393 47.437904450038246 # Ar
947 947 1 0.0 431.0844999110316 471.69415181247365 1169.6408159496846 # Ar
948 948 1 0.0 640.7945370356395 952.9053529825983 53.423886079608536 # Ar
949 949 1 0.0 718.231958455377 372.2741632664986 979.7268784095137 # Ar
950 950 1 0.0 1275.500107446145 94.93938774968501 158.35412109432568 # Ar
951 951 1 0.0 95.97348013845905 547.848264008217 311.4864852158958 # Ar
952 952 1 0.0 931.0427684482573 946.3957924832866 397.8744388457273 # Ar
953 953 1 0.0 243.0121064904105 606.0019001745507 397.0550107712009 # Ar
954 954 1 0.0 1005.7650246075393 611.82926091749 996.7614343011759 # Ar
955 955 1 0.0 83.9378894901085 310.6162801437554 912.5580831402171 # Ar
956 956 1 0.0 1000.5481041492826 762.0800254931428 844.0408259526581 # Ar
957 957 1 0.0 1001.8835395759905 886.7824690185948 626.8100890104246 # Ar
958 958 1 0.0 592.7140440009745 720.2110601089443 857.0697268550467 # Ar
959 959 1 0.0 784.8389273509479 839.9429466004517 1118.6745279290644 # Ar
960 960 1 0.0 1103.7056752535955 163.08284284125827 917.5106565648706 # Ar
961 961 1 0.0 332.1621091573925 873.5816250691425 480.0463217139427 # Ar
962 962 1 0.0 514.3866885503267 648.7554590886464 1038.0723617635415 # Ar
963 963 1 0.0 896.112652855886 664.9322417375888 583.5023820432064 # Ar
964 964 1 0.0 764.0312758543611 264.8554256169607 799.6720909031105 # Ar
965 965 1 0.0 865.9138958125872 225.35201473760497 1262.1349877223197 # Ar
966 966 1 0.0 678.3402960637487 327.4715490338637 158.18417491184906 # Ar
967 967 1 0.0 899.2495657379877 682.232816653116 595.9959940941916 # Ar
968 968 1 0.0 345.3511357509511 307.21995709812575 729.6378250515211 # Ar
969 969 1 0.0 130.4465966493169 344.1539142194229 1055.6328986364222 # Ar
970 970 1 0.0 875.9969740498082 1064.6807291834243 982.2970082715383 # Ar
971 971 1 0.0 904.2910005627616 914.6551351902259 248.11653418034615 # Ar
972 972 1 0.0 1144.7817406792283 573.5976802153302 612.0333147265452 # Ar
973 973 1 0.0 191.85623277399736 260.05876806318855 698.4314805707754 # Ar
974 974 1 0.0 101.52106043432721 1186.2924666879258 645.2130060899012 # Ar
975 975 1 0.0 830.1896322695725 1049.166060372268 865.7206654755789 # Ar
976 976 1 0.0 617.0176327031288 1222.9735530219957 1182.876626764524 # Ar
977 977 1 0.0 1105.1148775440492 282.4631672742273 798.7027888917639 # Ar
978 978 1 0.0 110.45396165662818 295.8418806125718 1111.1569937420122 # Ar
979 979 1 0.0 985.1005993234035 1230.9149757271368 397.19655274759384 # Ar
980 980 1 0.0 391.0353881214739 1028.9950578119651 1203.2725102107156 # Ar
981 981 1 0.0 313.8549286502966 607.3491705801014 407.4312398370083 # Ar
982 982 1 0.0 708.304795007767 381.8541434682214 422.8862270179926 # Ar
983 983 1 0.0 55.22457795918369 314.6684968876628 252.9398210930105 # Ar
984 984 1 0.0 1143.0561782894176 148.51518994999103 184.3670719163008 # Ar
985 985 1 0.0 1047.5034668911535 664.4476013659064 103.53560548525455 # Ar
986 986 1 0.0 449.52121643391735 705.8911207771954 68.91666402987688 # Ar
987 987 1 0.0 507.14408329318417 851.8190067520904 486.3948865799473 # Ar
988 988 1 0.0 76.55286800396789 319.99803421554486 334.69666622004365 # Ar
989 989 1 0.0 105.90732990722725 25.857517412978382 3.93956426823723 # Ar
990 990 1 0.0 1089.7544614342628 514.6173392822238 60.29959818900627 # Ar
991 991 1 0.0 1139.6457693693685 598.9065958315224 295.08472506390007 # Ar
992 992 1 0.0 629.8506189952352 968.0264641599773 1045.5219229750803 # Ar
993 993 1 0.0 991.6964686952773 1264.7753315210994 1190.8532660584508 # Ar
994 994 1 0.0 1068.7441978847628 976.8245978310924 227.54296866478072 # Ar
995 995 1 0.0 11.212028708200263 105.75637916820529 1097.63954388769 # Ar
996 996 1 0.0 103.01284968189003 213.14621889944627 432.20820278002833 # Ar
997 997 1 0.0 886.6059742806312 434.72754253038426 944.5718670262711 # Ar
998 998 1 0.0 659.4395463689084 595.4781888155206 146.07833936909563 # Ar
999 999 1 0.0 866.7898634582884 910.1546093761324 172.943089871295 # Ar
1000 1000 1 0.0 545.2419451740135 1211.0479286969908 984.4910226855061 # Ar
1001 1001 1 0.0 407.7237173724361 1191.014807156565 161.56411336252015 # Ar
1002 1002 1 0.0 746.1346585447135 175.61131519897958 537.1586107108255 # Ar
1003 1003 1 0.0 632.5200149221447 799.2840426847545 1085.4300330005076 # Ar
1004 1004 1 0.0 1098.6384725949713 556.5779575575655 596.6315994155397 # Ar
1005 1005 1 0.0 261.3197081599694 706.0490715184433 522.1578904618282 # Ar
1006 1006 1 0.0 879.1526111566382 786.2636190169302 866.9806038250786 # Ar
1007 1007 1 0.0 2.465825790421451 537.5528187217566 201.284995082038 # Ar
1008 1008 1 0.0 894.626951680319 539.772611500584 1187.4540971908195 # Ar
1009 1009 1 0.0 380.9240352289505 600.7227592913281 103.62563183349711 # Ar
1010 1010 1 0.0 789.4379197124437 713.4368963500486 106.60412712925277 # Ar
1011 1011 1 0.0 756.720302813847 22.243089118612446 579.1179717181898 # Ar
1012 1012 1 0.0 159.36374839677345 252.1444809981334 540.5553174516192 # Ar
1013 1013 1 0.0 968.2851613748923 916.3744426614712 916.838938055262 # Ar
1014 1014 1 0.0 74.4007977229069 760.2035962762079 1277.1456458357652 # Ar
1015 1015 1 0.0 108.40489562785758 277.70282949474336 986.5463386999453 # Ar
1016 1016 1 0.0 242.52252602774448 581.6968035125886 947.2209993322946 # Ar
1017 1017 1 0.0 138.46303394404836 1155.0527505666762 628.20219314488 # Ar
1018 1018 1 0.0 567.5329530330814 117.50344067655989 1249.4884304990014 # Ar
1019 1019 1 0.0 467.7895347526507 715.5455867367928 955.0437311854923 # Ar
1020 1020 1 0.0 170.88152411046298 532.391513884242 745.8695293586451 # Ar
1021 1021 1 0.0 287.78853673740826 890.6759484794702 20.152303876821026 # Ar
1022 1022 1 0.0 303.0298166192904 592.4874398437971 642.7868091605444 # Ar
1023 1023 1 0.0 220.6703575893693 369.8778180011766 1136.8553510733932 # Ar
1024 1024 1 0.0 1134.8136722505924 279.27565833478565 116.19616884991397 # Ar
1025 1025 1 0.0 740.4493942693834 906.4104362189097 1210.640753170806 # Ar
1026 1026 1 0.0 642.5597557918123 293.02168241826627 56.33073611006511 # Ar
1027 1027 1 0.0 379.3129273707449 113.960962733968 930.6661073825741 # Ar
1028 1028 1 0.0 1040.0331714215788 1057.3941108137828 107.18988702336738 # Ar
1029 1029 1 0.0 530.7886314317984 492.0534163168844 120.91793010287141 # Ar
1030 1030 1 0.0 999.7076905895283 103.33609303663366 793.6324978669958 # Ar
1031 1031 1 0.0 800.2371532375369 527.7248886781084 1167.1569443596513 # Ar
1032 1032 1 0.0 1225.4890052102912 894.0026751567915 935.3585907275452 # Ar
1033 1033 1 0.0 73.34067433849103 1216.4288744140256 302.352761585052 # Ar
1034 1034 1 0.0 775.89950783483 650.164321165798 1193.4447802909435 # Ar
1035 1035 1 0.0 999.3995071756244 287.08538700175546 1206.6030182414756 # Ar
1036 1036 1 0.0 911.8546108968426 1102.7003485242906 955.0507601069688 # Ar
1037 1037 1 0.0 66.19711947022716 377.12271826095025 581.1729598055214 # Ar
1038 1038 1 0.0 250.8118825436574 352.02636761260027 1083.2339807369567 # Ar
1039 1039 1 0.0 1220.259808480384 848.5153846784095 3.5978917533933705 # Ar
1040 1040 1 0.0 264.7392222038176 85.66459107630182 628.0180737977583 # Ar
1041 1041 1 0.0 325.1908636083709 403.029769069915 118.74564472274328 # Ar
1042 1042 1 0.0 372.0011332642076 1142.7646436475975 1027.2714978517272 # Ar
1043 1043 1 0.0 159.759862526592 343.7820931058688 67.91507859915274 # Ar
1044 1044 1 0.0 160.52963859237684 225.48186749577894 1013.6966006646542 # Ar
1045 1045 1 0.0 1239.6693818833096 843.9317327666463 247.3513114716878 # Ar
1046 1046 1 0.0 488.2347038827224 877.8009820468646 994.6061333838263 # Ar
1047 1047 1 0.0 1081.2595333912836 1118.3288078746784 785.8856864794714 # Ar
1048 1048 1 0.0 1283.8304135907083 1155.3942579017375 1087.2673168901051 # Ar
1049 1049 1 0.0 24.785731538083613 246.9067094937564 1060.40942231348 # Ar
1050 1050 1 0.0 1262.687859138874 731.5261187360326 220.69241174252994 # Ar
1051 1051 1 0.0 576.5684759073495 1071.1303687503505 895.5205766473326 # Ar
1052 1052 1 0.0 760.0028213926535 1137.8128116663581 429.54443423479125 # Ar
1053 1053 1 0.0 1097.5822071919933 446.4172328740132 1023.1126989245959 # Ar
1054 1054 1 0.0 1228.610670413536 395.6098865891217 55.296823927432165 # Ar
1055 1055 1 0.0 621.2466215285951 671.8211880701293 865.7137227237828 # Ar
1056 1056 1 0.0 700.3548905186987 870.1576771115239 586.2075223815493 # Ar
1057 1057 1 0.0 145.63907545527485 1086.0437660137616 961.6513106454805 # Ar
1058 1058 1 0.0 1279.9186791041266 1159.2595611236773 1138.919396767614 # Ar
1059 1059 1 0.0 1020.08060575768 647.4998997708083 331.3885870537186 # Ar
1060 1060 1 0.0 1003.222491045552 110.18601275017812 1041.411222123254 # Ar
1061 1061 1 0.0 11.257927537912828 432.7217481626886 900.2422954135417 # Ar
1062 1062 1 0.0 913.2148770134448 290.9015048870221 951.4229607820912 # Ar
1063 1063 1 0.0 892.7880093552453 60.431207090685504 1128.6415646332441 # Ar
1064 1064 1 0.0 56.40269959851403 317.04696783384435 968.279651568015 # Ar
1065 1065 1 0.0 11.13514259123223 412.91792938319173 118.04037632282399 # Ar
1066 1066 1 0.0 1240.8242492308032 219.9258615533065 726.4022904420211 # Ar
1067 1067 1 0.0 1161.8714737678629 440.01372173087196 222.444037808954 # Ar
1068 1068 1 0.0 1186.1338582382893 361.5690186109028 56.395940280795536 # Ar
1069 1069 1 0.0 1000.1110392143205 359.9520770871282 595.8881911650934 # Ar
1070 1070 1 0.0 983.4973574071477 321.35264313161326 143.591469094642 # Ar
1071 1071 1 0.0 886.7125600003764 442.34103671846685 898.0795634762209 # Ar
1072 1072 1 0.0 965.8801824630698 685.13261688386 537.6633278287196 # Ar
1073 1073 1 0.0 1020.7272227911603 581.792499285299 1196.3520801864495 # Ar
1074 1074 1 0.0 110.89677002721187 429.40602500075363 258.11227560835954 # Ar
1075 1075 1 0.0 868.7528559095364 787.8765705466931 722.9439879799246 # Ar
1076 1076 1 0.0 190.81573438502494 263.0877530310076 699.1533886594112 # Ar
1077 1077 1 0.0 255.26708743910214 1052.4291111379935 856.9521180823033 # Ar
1078 1078 1 0.0 1242.885176343374 1162.682966379073 968.1571850529627 # Ar
1079 1079 1 0.0 1249.0754077077613 1030.0048226415859 1207.9264579712606 # Ar
1080 1080 1 0.0 301.01306187000876 1128.6333839781469 817.9225466786714 # Ar
1081 1081 1 0.0 651.9941878617825 307.57925663984463 898.2339534514651 # Ar
1082 1082 1 0.0 513.9120150190988 766.8690059984468 1145.376979673203 # Ar
1083 1083 1 0.0 234.31292170609785 688.2810743664542 27.291248922686798 # Ar
1084 1084 1 0.0 84.56672198608568 140.37349653763818 320.85485255837096 # Ar
1085 1085 1 0.0 983.6520576633061 31.179476034399087 52.43717494868082 # Ar
1086 1086 1 0.0 356.2305979873904 399.997702127992 467.7667241828863 # Ar
1087 1087 1 0.0 1193.7776097485307 313.8484858568338 354.49130971242255 # Ar
1088 1088 1 0.0 452.6461632617143 137.0184809766365 104.51591976388414 # Ar
1089 1089 1 0.0 678.5683779301299 53.88402901635072 895.9040445569125 # Ar
1090 1090 1 0.0 23.871806852445598 1095.0963104477814 648.9768827576112 # Ar
1091 1091 1 0.0 1266.8688014504892 462.7951142485896 37.312863566121116 # Ar
1092 1092 1 0.0 984.1561225586871 1012.8864012203994 672.5305321123086 # Ar
1093 1093 1 0.0 415.69967520310524 1262.6574542495946 238.41166852679862 # Ar
1094 1094 1 0.0 824.0938742083148 1192.3080944008839 594.1605762896714 # Ar
1095 1095 1 0.0 285.32821665020623 202.0140777722957 1184.326823775584 # Ar
1096 1096 1 0.0 162.47175324702616 356.7537153058538 299.34030349524556 # Ar
1097 1097 1 0.0 1284.0315858943886 1253.5035802333116 1076.1516773722858 # Ar
1098 1098 1 0.0 222.07461389303865 700.6468396818697 516.6848884375161 # Ar
1099 1099 1 0.0 465.41634741561865 647.9168706022026 76.6486129802237 # Ar
1100 1100 1 0.0 1270.0189937422033 238.19621837141102 105.51789207140655 # Ar
1101 1101 1 0.0 63.321628246753704 283.702974823257 782.085262103064 # Ar
1102 1102 1 0.0 435.9500462989867 252.07926553188952 1148.0809143714787 # Ar
1103 1103 1 0.0 593.7478765894454 565.6221950931667 1115.967474910028 # Ar
1104 1104 1 0.0 33.77635259718831 478.4680394445001 1227.1002809236177 # Ar
1105 1105 1 0.0 672.5926454951771 1189.0279071128807 399.1517549946997 # Ar
1106 1106 1 0.0 364.81130768808686 584.8589778405118 487.26542768950225 # Ar
1107 1107 1 0.0 247.50850876258195 18.41740323484892 1277.519678542013 # Ar
1108 1108 1 0.0 643.8662163147304 694.3675596007014 508.0964961587702 # Ar
1109 1109 1 0.0 552.7716222957938 118.2831959323867 1007.0579825636747 # Ar
1110 1110 1 0.0 1050.1958124144658 803.3885638536883 242.0789256257018 # Ar
1111 1111 1 0.0 316.57935678971364 1204.3361284063567 1047.4958540727177 # Ar
1112 1112 1 0.0 820.4098488738135 488.37651549791946 251.08908785504693 # Ar
1113 1113 1 0.0 262.536279999484 99.48688281955828 316.6763993792633 # Ar
1114 1114 1 0.0 283.00530314997854 623.53845269444 866.5470432872446 # Ar
1115 1115 1 0.0 200.63487805790527 289.3022624350897 124.8765431097965 # Ar
1116 1116 1 0.0 1146.4719742869095 616.7640906787473 5.522900693940118 # Ar
1117 1117 1 0.0 1136.2045888561195 1113.5136271217486 574.2669715409761 # Ar
1118 1118 1 0.0 55.9635854034889 1265.4750572541989 271.4416346499749 # Ar
1119 1119 1 0.0 7.801053987836924 346.02764200134806 226.39723372075767 # Ar
1120 1120 1 0.0 142.20448952219215 1151.4684628852879 611.8784906528732 # Ar
1121 1121 1 0.0 648.486202109764 56.351593168044516 377.37936522445864 # Ar
1122 1122 1 0.0 1018.6104470998486 601.358819591748 629.7686123989944 # Ar
1123 1123 1 0.0 408.30680450511875 896.2941552208159 424.75591622693787 # Ar
1124 1124 1 0.0 1039.7679034076918 556.6615756056797 828.9919036173217 # Ar
1125 1125 1 0.0 514.0197395505745 1178.6520667636532 797.9334266780212 # Ar
1126 1126 1 0.0 899.597110227336 644.8654203018751 260.33734504034015 # Ar
1127 1127 1 0.0 933.1049934146837 683.6644900879146 912.5892107666396 # Ar
1128 1128 1 0.0 434.7592366639398 674.2528241966276 903.2040651060238 # Ar
1129 1129 1 0.0 493.96337589941857 323.2473729010141 921.8751315331984 # Ar
1130 1130 1 0.0 98.72937028673024 954.9555707584618 975.8462585265704 # Ar
1131 1131 1 0.0 287.37585698320913 804.3213422068051 293.588067322293 # Ar
1132 1132 1 0.0 474.51251904836414 167.35865674062237 1173.7682811457923 # Ar
1133 1133 1 0.0 716.0395168886439 742.2462209187769 1004.6138222673627 # Ar
1134 1134 1 0.0 401.2975359720928 660.1622835921709 1257.2792269295956 # Ar
1135 1135 1 0.0 64.6607805175499 459.7550787900379 130.15963937296368 # Ar
1136 1136 1 0.0 573.0514328468458 864.5743501464954 941.6429153516835 # Ar
1137 1137 1 0.0 1062.5277510469293 130.3548836214233 725.3717921929585 # Ar
1138 1138 1 0.0 585.6704560211695 1260.174750292834 291.9272926445492 # Ar
1139 1139 1 0.0 26.20251286889472 698.4038091613801 516.1742128722781 # Ar
1140 1140 1 0.0 913.0824393752707 685.2912554503583 1082.039803716793 # Ar
1141 1141 1 0.0 549.7253931729781 62.11638705894268 983.9889981520776 # Ar
1142 1142 1 0.0 151.86834536974374 85.28669634623314 52.826152469723105 # Ar
1143 1143 1 0.0 301.57436525828933 622.0755999200187 1226.3759608543216 # Ar
1144 1144 1 0.0 408.74062092941233 540.2300027143182 906.3095040080235 # Ar
1145 1145 1 0.0 546.9257753544997 18.671982508262154 409.4415800237789 # Ar
1146 1146 1 0.0 229.89895411635345 135.42830780257475 64.03188872379664 # Ar
1147 1147 1 0.0 102.32537155637262 504.5241231718284 53.800355848271934 # Ar
1148 1148 1 0.0 453.906386427754 877.6189989420515 468.1794445497436 # Ar
1149 1149 1 0.0 1105.7920059158853 343.64714414361 196.8906176222037 # Ar
1150 1150 1 0.0 877.7278545952054 1257.3431708428893 751.8913164093489 # Ar
1151 1151 1 0.0 1169.3667941293947 1061.2776131197897 1007.1068427082312 # Ar
1152 1152 1 0.0 1130.67670995252 1131.5592781600851 791.6224214865332 # Ar
1153 1153 1 0.0 1177.525538029206 1034.47737665269 1083.301795498277 # Ar
1154 1154 1 0.0 1159.9605969905117 718.2136693576488 850.2113046725374 # Ar
1155 1155 1 0.0 581.9036351813619 1120.0558140005353 279.3910852997764 # Ar
1156 1156 1 0.0 1283.5908808988784 804.2849965777071 500.53571571977034 # Ar
1157 1157 1 0.0 1264.1243705524853 1108.7528390339412 338.21491718584986 # Ar
1158 1158 1 0.0 129.5975612702254 815.1122970086824 614.2021207031071 # Ar
1159 1159 1 0.0 1232.686025678873 880.1016623635144 489.0019698044466 # Ar
1160 1160 1 0.0 918.4411784882161 345.279569350667 0.11634689648376935 # Ar
1161 1161 1 0.0 937.2184829770019 1003.0721685648333 1031.516228423996 # Ar
1162 1162 1 0.0 644.6767182852833 970.9573372935868 363.97204995616363 # Ar
1163 1163 1 0.0 531.2167498234755 1042.5126110765837 897.2868397466293 # Ar
1164 1164 1 0.0 1234.4559799353922 76.12856740190745 1129.7532006519164 # Ar
1165 1165 1 0.0 430.8326239683716 64.63133355294858 970.3560700378312 # Ar
1166 1166 1 0.0 1005.5781633135434 876.9868974206573 72.50134569616979 # Ar
1167 1167 1 0.0 368.51171049400864 56.431516578564874 320.069512185635 # Ar
1168 1168 1 0.0 803.3002757835724 617.5756411157976 859.2210290271198 # Ar
1169 1169 1 0.0 1092.170219970103 898.0722966398049 748.4919261582108 # Ar
1170 1170 1 0.0 1005.3395769130414 1253.6650254327276 184.74028617233395 # Ar
1171 1171 1 0.0 710.3004913341836 1065.9849831226627 82.15888338121181 # Ar
1172 1172 1 0.0 1063.3985917354655 1294.7320458365502 691.8275751024577 # Ar
1173 1173 1 0.0 296.70257891008936 1096.5872344900088 960.3832282141618 # Ar
1174 1174 1 0.0 872.3592264747173 348.9739050654459 766.1661161468784 # Ar
1175 1175 1 0.0 170.71798477060287 804.6992297438259 122.52235840556536 # Ar
1176 1176 1 0.0 485.33403892198055 957.4820152123998 2.407252051638515 # Ar
1177 1177 1 0.0 1105.5185912796849 345.5373615185345 248.37766732585072 # Ar
1178 1178 1 0.0 977.0970415428254 1126.735012213602 229.74962762391738 # Ar
1179 1179 1 0.0 1295.169018849316 868.9157481010358 45.17600666264651 # Ar
1180 1180 1 0.0 1281.6701960440978 211.57373234515853 402.2481840590238 # Ar
1181 1181 1 0.0 1296.1797386235785 515.8521283761753 646.6058371491563 # Ar
1182 1182 1 0.0 851.98098101968 684.6997584275272 868.4463482969248 # Ar
1183 1183 1 0.0 1277.580253210836 1088.8589670206156 765.9699409873613 # Ar
1184 1184 1 0.0 413.775825856447 607.3551233736532 1155.826687516601 # Ar
1185 1185 1 0.0 383.45173609592257 1264.0361059978527 1078.3915216622954 # Ar
1186 1186 1 0.0 829.8668165251046 1270.9969033218058 976.9202949264778 # Ar
1187 1187 1 0.0 147.38489772553214 454.21254516201583 279.74373712367367 # Ar
1188 1188 1 0.0 1280.1644723894542 1028.173996890598 454.5334083117849 # Ar
1189 1189 1 0.0 58.32549525010687 757.0522618963564 259.5191717767847 # Ar
1190 1190 1 0.0 31.66107940616817 79.05553159644246 37.14512147647547 # Ar
1191 1191 1 0.0 892.6833675283838 810.5832358268055 710.09236417779 # Ar
1192 1192 1 0.0 408.1198691785063 899.2951167562794 544.6972881910553 # Ar
1193 1193 1 0.0 681.9896904856313 1192.096971645611 569.1074003739795 # Ar
1194 1194 1 0.0 691.9494241198546 335.51252770969637 439.9507443073777 # Ar
1195 1195 1 0.0 1071.2799608445964 342.87005216549284 1194.4894374606297 # Ar
1196 1196 1 0.0 546.2838315782593 1085.7795249305286 1007.3783862186788 # Ar
1197 1197 1 0.0 670.8969876664808 995.0588381435284 1274.8924577616935 # Ar
1198 1198 1 0.0 904.7661376351839 60.630195715605254 1234.8454417204098 # Ar
1199 1199 1 0.0 1203.937116469148 508.6820153937143 366.97542855639296 # Ar
1200 1200 1 0.0 1130.0821549115499 204.411632374333 821.7968592381725 # Ar
1201 1201 1 0.0 963.8145349917993 1280.066513237497 260.0347017861698 # Ar
1202 1202 1 0.0 702.7432919731259 32.11600222586912 66.46525549674563 # Ar
1203 1203 1 0.0 834.2928037227271 1020.3643291144618 1156.6491489472753 # Ar
1204 1204 1 0.0 354.09242514165805 685.0410045396703 1260.841838619644 # Ar
1205 1205 1 0.0 1047.7367717842044 352.5342934934001 643.4665117926398 # Ar
1206 1206 1 0.0 759.9221347176101 524.3367245746944 193.68157636644935 # Ar
1207 1207 1 0.0 745.4837238428165 155.40223741352358 441.9476959938278 # Ar
1208 1208 1 0.0 348.1712196545859 1181.5724360841866 790.6250908618101 # Ar
1209 1209 1 0.0 167.64019752443284 619.493066241161 1147.9183931709747 # Ar
1210 1210 1 0.0 343.19697951885166 163.3039293817941 578.8323065942702 # Ar
1211 1211 1 0.0 951.8586747067096 12.166879272897049 1151.1000352732487 # Ar
1212 1212 1 0.0 1073.1306289048805 1162.1239388619272 1065.4736557266042 # Ar
1213 1213 1 0.0 1065.1640264740831 355.0828280562969 718.0654451872479 # Ar
1214 1214 1 0.0 584.1890029095705 0.8448613027552752 118.70842658337641 # Ar
1215 1215 1 0.0 289.23562790761264 506.46481296889766 221.14307378084754 # Ar
1216 1216 1 0.0 816.7290724739732 1120.7499403200168 1123.2121669031344 # Ar
1217 1217 1 0.0 426.3268036799492 474.01082073584644 1180.021398490344 # Ar
1218 1218 1 0.0 838.8135347934468 747.7113983387226 607.02720189907 # Ar
1219 1219 1 0.0 408.0097339114706 145.36693434611368 9.847508612971179 # Ar
1220 1220 1 0.0 1118.51164793675 718.8741538364185 1213.992130209606 # Ar
1221 1221 1 0.0 360.2113159774952 959.0154882098194 979.2273483696256 # Ar
1222 1222 1 0.0 388.52032674913653 616.0347485320982 641.3798126284183 # Ar
1223 1223 1 0.0 213.27196189278519 1167.1056859063226 890.3517630710185 # Ar
1224 1224 1 0.0 429.3384348271213 275.04917351279886 728.0476836725954 # Ar
1225 1225 1 0.0 422.61032816978565 3.1784517415370095 1285.2219160368054 # Ar
1226 1226 1 0.0 193.14072059330383 841.0984156548229 1118.2631370318577 # Ar
1227 1227 1 0.0 1257.9532087117211 396.1343949690623 958.7510825603046 # Ar
1228 1228 1 0.0 653.455044788847 119.45658917993713 410.64860712950315 # Ar
1229 1229 1 0.0 279.61696136328885 156.91662492508812 779.0553880134222 # Ar
1230 1230 1 0.0 847.8836824446605 22.268174730578117 141.32826675275834 # Ar
1231 1231 1 0.0 214.23087433281498 775.1149493135962 1063.222001050073 # Ar
1232 1232 1 0.0 514.8931074559077 470.63203441668065 1067.675883329148 # Ar
1233 1233 1 0.0 475.9652508793216 600.8002582549556 441.1161834597219 # Ar
1234 1234 1 0.0 765.9181750360854 185.48877803323705 920.3463780082307 # Ar
1235 1235 1 0.0 581.1509622927035 919.1512555258763 898.3540191361589 # Ar
1236 1236 1 0.0 406.1418876183976 1036.3731433375426 93.93843965446376 # Ar
1237 1237 1 0.0 768.3856380978561 417.2004250271248 841.8092080051794 # Ar
1238 1238 1 0.0 51.140672820394364 601.1838784555268 1187.383254294849 # Ar
1239 1239 1 0.0 425.2021590397817 1012.8399954449835 1207.7213813281526 # Ar
1240 1240 1 0.0 517.9327037927438 1185.852363162475 206.2726229355114 # Ar
1241 1241 1 0.0 283.9862123669761 177.67810501346318 251.52323389297763 # Ar
1242 1242 1 0.0 696.6538233273536 404.6725948311963 1057.1332449246324 # Ar
1243 1243 1 0.0 874.9479611634655 49.657502106208945 667.7581598854891 # Ar
1244 1244 1 0.0 941.496374820951 997.8535246907547 848.0525245298517 # Ar
1245 1245 1 0.0 196.5655838284641 97.36743597639756 333.85256156973713 # Ar
1246 1246 1 0.0 415.50719273711246 131.89977047367393 780.8413821123897 # Ar
1247 1247 1 0.0 227.8277801753892 601.4244102035179 967.1504530953214 # Ar
1248 1248 1 0.0 631.7288742694182 618.5821554857816 109.70169686262619 # Ar
1249 1249 1 0.0 1064.4534259681425 1116.0303728012489 701.8842635394074 # Ar
1250 1250 1 0.0 463.04211382512386 847.7807297502269 422.8002683113843 # Ar
1251 1251 1 0.0 1068.2016949876404 87.48052393550397 942.537180782211 # Ar
1252 1252 1 0.0 28.591748228948777 794.8717827958719 31.059396283516243 # Ar
1253 1253 1 0.0 1001.8099567639174 198.15361239380314 1020.1306251022858 # Ar
1254 1254 1 0.0 424.6250785588447 278.12089508243713 420.60686511287366 # Ar
1255 1255 1 0.0 1161.7902629740604 345.47294174778636 735.1433025662996 # Ar
1256 1256 1 0.0 371.3682384515299 430.8978753737723 877.7258651570831 # Ar
1257 1257 1 0.0 44.22185638213793 1216.6956371625495 324.67486434429674 # Ar
1258 1258 1 0.0 428.68230248072075 269.60560372628925 1258.2050266602514 # Ar
1259 1259 1 0.0 596.9541961561229 968.0660546601143 704.059140530027 # Ar
1260 1260 1 0.0 430.39780573081646 847.6738208222216 1069.5499040340626 # Ar
1261 1261 1 0.0 123.03986934710579 726.0240072746863 950.7306573255443 # Ar
1262 1262 1 0.0 804.8119519945794 1141.4445185789705 406.17134505838493 # Ar
1263 1263 1 0.0 12.988239629087307 158.6605966648295 1170.868741746643 # Ar
1264 1264 1 0.0 1263.1735880817246 660.9727943501409 373.1268665763572 # Ar
1265 1265 1 0.0 461.58861046001203 500.19736862568345 843.6733027847099 # Ar
1266 1266 1 0.0 661.3576192853751 764.9178258294062 1139.4793343950637 # Ar
1267 1267 1 0.0 902.8410686404034 752.9005377642375 1181.0737572305102 # Ar
1268 1268 1 0.0 1236.709789999495 797.8799709426232 1019.9604432809087 # Ar
1269 1269 1 0.0 77.60612317176457 528.4505378659242 37.85443222508977 # Ar
1270 1270 1 0.0 1081.6530073747927 1181.2480500946306 1073.6840284623547 # Ar
1271 1271 1 0.0 931.9150196714413 122.76365445354291 411.82852265423384 # Ar
1272 1272 1 0.0 660.4298005760546 115.15398661813555 780.7128623950429 # Ar
1273 1273 1 0.0 205.9695198375087 495.95844834554106 400.4068310924848 # Ar
1274 1274 1 0.0 54.49550386134839 784.3834795391924 850.9366114833905 # Ar
1275 1275 1 0.0 438.27464250015106 528.3288234457334 336.0192573537988 # Ar
1276 1276 1 0.0 36.823034188492514 489.19612536603904 68.4545118683308 # Ar
1277 1277 1 0.0 294.29425400444853 7.196371888478548 615.8096338817601 # Ar
1278 1278 1 0.0 314.00246262768303 12.327740881542164 876.8457307354768 # Ar
1279 1279 1 0.0 116.74056302711921 70.17232382901486 418.2567960495353 # Ar
1280 1280 1 0.0 1076.212719046278 1075.3191439278767 810.4923937175552 # Ar
1281 1281 1 0.0 224.01793211567588 654.8374588398754 26.657332688755993 # Ar
1282 1282 1 0.0 751.7727608647223 470.7886588714966 1141.2746608015518 # Ar
1283 1283 1 0.0 316.75144183351665 461.92265608010405 737.1079359795914 # Ar
1284 1284 1 0.0 1166.917475711402 703.9408623372965 926.3930175196355 # Ar
1285 1285 1 0.0 146.8969645915798 1127.7935118682747 436.1071786606806 # Ar
1286 1286 1 0.0 1080.2841383277662 39.677633158099795 348.28366909769824 # Ar
1287 1287 1 0.0 978.3442192320667 1083.0846573563445 771.0349177350414 # Ar
1288 1288 1 0.0 1141.0937888320786 490.35209122510196 539.3269904364577 # Ar
1289 1289 1 0.0 380.21819256522883 531.6811027764438 977.8204059771591 # Ar
1290 1290 1 0.0 942.5852326519944 137.02437209374457 1265.6960725347728 # Ar
1291 1291 1 0.0 703.5653206596979 886.5537263478523 1072.8620476854533 # Ar
1292 1292 1 0.0 576.5594287891732 898.4543655007092 523.8173928749035 # Ar
1293 1293 1 0.0 86.8857815939659 469.50889977769344 781.4438827764732 # Ar
1294 1294 1 0.0 979.9762776209373 1217.854829324227 281.0672960573252 # Ar
1295 1295 1 0.0 246.61813594883455 629.454398615555 1035.1675816775316 # Ar
1296 1296 1 0.0 217.18151564116155 651.9086175799684 1073.7066453984512 # Ar
1297 1297 1 0.0 1291.3684432921814 271.2094242943618 170.53993517607523 # Ar
1298 1298 1 0.0 5.990651760835413 1290.0143783007195 168.93013721347566 # Ar
1299 1299 1 0.0 1102.0584655810017 1013.7383300415033 180.73774699246627 # Ar
1300 1300 1 0.0 314.5256309623335 929.6598876009232 707.03626540336 # Ar
1301 1301 1 0.0 60.304893202281505 348.84275557537245 567.745478250992 # Ar
1302 1302 1 0.0 1125.2837348474063 754.10734976513 93.57969684897206 # Ar
1303 1303 1 0.0 832.4781017978606 452.613151849166 270.1633478956495 # Ar
1304 1304 1 0.0 880.3161743420925 853.9284345847159 899.9401922963092 # Ar
1305 1305 1 0.0 468.69321945871684 993.940824898231 882.053385083553 # Ar
1306 1306 1 0.0 612.7208174626487 511.8481350767537 949.8682870472986 # Ar
1307 1307 1 0.0 843.9998481372604 315.6578243519773 118.21871120361047 # Ar
1308 1308 1 0.0 970.3563988956535 324.81434674240677 0.14182178834740644 # Ar
1309 1309 1 0.0 671.9109587183785 653.7893847118715 733.6496312690778 # Ar
1310 1310 1 0.0 276.99338274054406 1125.7055448254278 1147.2545860459009 # Ar
1311 1311 1 0.0 119.91614872744148 104.20711234359328 518.6826257093365 # Ar
1312 1312 1 0.0 8.47218444085415 790.2032483195602 148.1722887687406 # Ar
1313 1313 1 0.0 666.7316874485273 429.7036241422469 1150.024433782206 # Ar
1314 1314 1 0.0 1246.9660551065754 609.5340332200905 975.2310272540994 # Ar
1315 1315 1 0.0 1132.9371716670407 788.4341930180718 86.45502192179474 # Ar
1316 1316 1 0.0 1218.4024564562133 743.6782972167622 1086.2898821351619 # Ar
1317 1317 1 0.0 918.3879007703221 1175.6325587104684 35.236049054500825 # Ar
1318 1318 1 0.0 119.00222648952473 546.8365416858348 227.51805677518036 # Ar
1319 1319 1 0.0 269.1495384192036 1210.758008058581 45.58335935722247 # Ar
1320 1320 1 0.0 356.34705944691984 196.79108981109874 694.1771980512889 # Ar
1321 1321 1 0.0 1044.0778484493069 498.77095292471506 1246.0056455543584 # Ar
1322 1322 1 0.0 357.3980100649421 1066.4339168193972 452.0730349219412 # Ar
1323 1323 1 0.0 920.8319209391473 1118.1094902589116 758.3658772632717 # Ar
1324 1324 1 0.0 775.3356581655901 1094.5130231819417 362.68254669478915 # Ar
1325 1325 1 0.0 108.31857708070015 735.641321299626 98.48088946260062 # Ar
1326 1326 1 0.0 291.5132270222828 271.64253880096095 164.29648669788915 # Ar
1327 1327 1 0.0 1088.6716312425629 1151.5884938748811 1104.0346398957217 # Ar
1328 1328 1 0.0 323.3683047102987 1250.3086407915232 927.0385155805509 # Ar
1329 1329 1 0.0 801.7851981118604 898.7964937966005 1277.757700203254 # Ar
1330 1330 1 0.0 1226.9769594382747 776.8847148862117 735.5135459944656 # Ar
1331 1331 1 0.0 197.07085155420168 798.804798950922 1204.0812457732288 # Ar
1332 1332 1 0.0 666.9674963012209 479.09637331279157 1066.6118791484212 # Ar
1333 1333 1 0.0 958.2575507689921 153.3326768277576 484.989071366744 # Ar
1334 1334 1 0.0 39.273461441134074 985.9230712042094 1207.3907444928927 # Ar
1335 1335 1 0.0 467.59875367827004 356.6534805375739 1271.5076096919388 # Ar
1336 1336 1 0.0 784.7665481213448 858.1193681027452 921.3594272134677 # Ar
1337 1337 1 0.0 853.771635165898 872.5969079725153 351.30094705455673 # Ar
1338 1338 1 0.0 1054.4910376824066 1003.2138237543737 332.0583033561366 # Ar
1339 1339 1 0.0 359.03096301685815 1282.8983048964726 817.1335288569044 # Ar
1340 1340 1 0.0 245.68470148047896 873.5632081600438 1249.6841522908012 # Ar
1341 1341 1 0.0 408.39333415930196 1258.1918797631706 939.0030786824238 # Ar
1342 1342 1 0.0 530.9563455566233 89.95248020379874 1040.9028750921236 # Ar
1343 1343 1 0.0 680.8286421036988 596.7529391634951 465.622914789754 # Ar
1344 1344 1 0.0 887.3548152023624 524.0858895972088 858.3028881629846 # Ar
1345 1345 1 0.0 613.3899171283905 766.7054073410162 1198.7153080670323 # Ar
1346 1346 1 0.0 365.49681424170933 237.3429071300207 597.0450310390147 # Ar
1347 1347 1 0.0 1117.388668338082 745.6633386946193 1159.0790834989382 # Ar
1348 1348 1 0.0 1096.212153589298 1209.3930091524924 871.0385260480599 # Ar
1349 1349 1 0.0 518.8300976729608 654.9839493773586 1158.6202641777627 # Ar
1350 1350 1 0.0 856.3946682509121 240.6455007376729 954.3989268697993 # Ar
1351 1351 1 0.0 867.9438068702938 869.188437924598 793.6909971413357 # Ar
1352 1352 1 0.0 458.1009152932703 116.62013432017103 885.2318212134999 # Ar
1353 1353 1 0.0 523.7949166559893 774.891372340504 1133.9882616369648 # Ar
1354 1354 1 0.0 586.5911904584973 268.67894803668247 104.57645714890012 # Ar
1355 1355 1 0.0 36.00195392582157 491.08605258171826 212.28371714309733 # Ar
1356 1356 1 0.0 1027.6692383387367 211.1788072011017 1094.5243441167347 # Ar
1357 1357 1 0.0 308.8870026622517 502.5312662799174 955.5260193396485 # Ar
1358 1358 1 0.0 1003.497944381919 594.9874904447414 1283.9252282054956 # Ar
1359 1359 1 0.0 862.8918128902678 678.8602814915405 488.93858213634604 # Ar
1360 1360 1 0.0 1253.6727183247492 245.93819903126754 316.4985414164748 # Ar
1361 1361 1 0.0 1149.1322889266296 11.905264638995156 965.6244203060432 # Ar
1362 1362 1 0.0 902.1563669468701 244.08329196000068 1268.8806591501611 # Ar
1363 1363 1 0.0 933.3949218426139 110.00787778923853 529.5681611185674 # Ar
1364 1364 1 0.0 425.0547958748499 505.14039409161455 645.1861489869632 # Ar
1365 1365 1 0.0 679.3692128428581 104.62598004886244 192.00579177501058 # Ar
1366 1366 1 0.0 915.098910748515 304.9028676841349 410.43843679073876 # Ar
1367 1367 1 0.0 372.03549354568537 1208.5576893308782 805.1518864170956 # Ar
1368 1368 1 0.0 1167.1376402438668 614.5257901193442 345.67652212615934 # Ar
1369 1369 1 0.0 667.5242834945536 5.6687791063131066 1183.1261418474442 # Ar
1370 1370 1 0.0 1135.9188340863423 135.76609498007292 330.09157866915984 # Ar
1371 1371 1 0.0 191.1475848765182 344.8843595393238 604.7214767694272 # Ar
1372 1372 1 0.0 420.3185973704753 418.33729191571035 439.59271795810645 # Ar
1373 1373 1 0.0 562.1782686728919 778.9812373618541 681.3233760536862 # Ar
1374 1374 1 0.0 1201.6255729491916 532.0058304705079 789.8569325516492 # Ar
1375 1375 1 0.0 1180.9717996278932 245.64568060102272 604.8286378954552 # Ar
1376 1376 1 0.0 180.7968135292888 713.7211500473489 1273.4061602031302 # Ar
1377 1377 1 0.0 1121.1279396114344 416.40194818029346 1201.1537519245924 # Ar
1378 1378 1 0.0 327.82707547640604 914.4922761248387 1089.5231288295108 # Ar
1379 1379 1 0.0 935.0453736253914 422.6709819791422 419.0119351433693 # Ar
1380 1380 1 0.0 139.93136716225382 88.81411601022745 103.46744379452835 # Ar
1381 1381 1 0.0 1173.8029739067902 688.2610753446343 436.6375718726637 # Ar
1382 1382 1 0.0 1084.1197421716502 696.7148482220495 1243.293833947385 # Ar
1383 1383 1 0.0 1012.7053421844563 581.127905400277 579.5301620807802 # Ar
1384 1384 1 0.0 1107.5255892817704 1234.091374826228 140.33556305353108 # Ar
1385 1385 1 0.0 1281.634088870955 562.7948021751465 837.7951439007282 # Ar
1386 1386 1 0.0 694.8877157098768 337.43929368728203 332.3690547369937 # Ar
1387 1387 1 0.0 60.56124564129578 1249.9109536100827 1127.7974482709842 # Ar
1388 1388 1 0.0 1294.5616496829364 274.0037775867252 373.2196457027689 # Ar
1389 1389 1 0.0 1162.6927942731018 977.3912231860115 689.6122989808885 # Ar
1390 1390 1 0.0 862.8034167285099 1011.533664910917 759.3653032626192 # Ar
1391 1391 1 0.0 1204.3538325268944 334.8559239796181 997.8747840984275 # Ar
1392 1392 1 0.0 669.3147232058476 125.33359584325285 1064.8707373215334 # Ar
1393 1393 1 0.0 1245.7608024723133 900.6629000063393 90.64231693735539 # Ar
1394 1394 1 0.0 880.1687012024196 1072.409780216361 1197.1561143811728 # Ar
1395 1395 1 0.0 1218.7545162267331 639.5969567891798 375.96254870569174 # Ar
1396 1396 1 0.0 741.7645389118788 1150.3700609289613 207.7145162760953 # Ar
1397 1397 1 0.0 599.2982630853521 157.5569378553421 567.3983536066801 # Ar
1398 1398 1 0.0 666.366485906322 203.31758346272815 752.0929445332496 # Ar
1399 1399 1 0.0 917.2266624850295 992.0969765046505 541.1216478607834 # Ar
1400 1400 1 0.0 284.32573605210763 606.5892132050419 257.79228833806656 # Ar
1401 1401 1 0.0 663.7790595487752 1078.4360825193532 1224.9701438024385 # Ar
1402 1402 1 0.0 907.4745568728185 136.02484476419434 446.7499255990625 # Ar
1403 1403 1 0.0 1.618349604191512 502.6764188022914 677.8896007301587 # Ar
1404 1404 1 0.0 352.00208783131905 565.7975899835299 977.9499034827608 # Ar
1405 1405 1 0.0 1036.6025761582664 1228.9764976629137 404.52509754997175 # Ar
1406 1406 1 0.0 621.7886767797203 147.4340688712488 157.65697974894184 # Ar
1407 1407 1 0.0 730.546032314983 395.6473351631744 701.9548198375807 # Ar
1408 1408 1 0.0 1237.0117099731615 55.432386933584446 863.6646916640448 # Ar
1409 1409 1 0.0 835.9751562445106 796.8249146157184 107.73435013729717 # Ar
1410 1410 1 0.0 120.53758833513218 120.52034973217302 928.0987797018147 # Ar
1411 1411 1 0.0 1058.8318609234623 527.3289820558343 332.0852919691204 # Ar
1412 1412 1 0.0 915.8498049714198 282.99980003798373 822.2905155941049 # Ar
1413 1413 1 0.0 321.3019110051467 172.2605457186045 1190.7429555113417 # Ar
1414 1414 1 0.0 419.21714217563334 900.8755043788186 538.4951831682068 # Ar
1415 1415 1 0.0 809.3694310428526 741.114015705581 1028.5578425905778 # Ar
1416 1416 1 0.0 80.7189002256947 238.79906877046113 577.3453998066843 # Ar
1417 1417 1 0.0 185.77155748892977 1200.1258897877267 239.05282166710012 # Ar
1418 1418 1 0.0 1079.2253621921789 278.1678801172718 1198.060008022006 # Ar
1419 1419 1 0.0 1011.6370819479031 1266.7549728034114 64.5413990795407 # Ar
1420 1420 1 0.0 569.3152599753071 876.2153268579335 1283.078171080349 # Ar
1421 1421 1 0.0 531.2760034901258 1022.0397910427865 720.881168357682 # Ar
1422 1422 1 0.0 263.52128508661326 1189.6830059600682 163.31806912147954 # Ar
1423 1423 1 0.0 1239.26751159745 178.73151307461472 872.256435998429 # Ar
1424 1424 1 0.0 444.4124635393871 442.81717856788475 62.44802816434747 # Ar
1425 1425 1 0.0 460.49965698522703 10.84637444037569 1162.1533714977054 # Ar
1426 1426 1 0.0 665.3733647035814 315.657280373896 21.584114645679705 # Ar
1427 1427 1 0.0 681.9928442274447 273.65490044313236 478.4400067434988 # Ar
1428 1428 1 0.0 593.4277692361734 717.9491906255082 123.34612860992458 # Ar
1429 1429 1 0.0 877.1776307822788 710.4637060514799 208.78455867735747 # Ar
1430 1430 1 0.0 1047.4503486651324 121.28284967690341 987.3627342612203 # Ar
1431 1431 1 0.0 584.3977625459615 123.94483162914823 508.3863782510446 # Ar
1432 1432 1 0.0 880.3773206920861 1226.0019264787934 891.2610232565826 # Ar
1433 1433 1 0.0 1177.2578536805743 212.59917239726235 657.4914816170517 # Ar
1434 1434 1 0.0 20.923137374710763 325.09229993805667 420.9947032432302 # Ar
1435 1435 1 0.0 413.08680052069525 683.6644172165813 492.8436521729526 # Ar
1436 1436 1 0.0 272.95931172011205 1142.8595166068608 840.2863416970462 # Ar
1437 1437 1 0.0 140.20795585283517 738.6620004868568 1117.3635847237133 # Ar
1438 1438 1 0.0 309.7717953796591 804.9614281251808 1088.6642505421398 # Ar
1439 1439 1 0.0 359.3886236117566 976.2192727864837 735.4455957092872 # Ar
1440 1440 1 0.0 557.960177910045 469.9717135849329 1251.3861518448502 # Ar
1441 1441 1 0.0 1127.8169331639824 1068.2788857194057 774.1951267543028 # Ar
1442 1442 1 0.0 321.29299568005035 1197.4736964340427 544.0653841802333 # Ar
1443 1443 1 0.0 910.7965107227238 1233.2919989887105 211.83710529807527 # Ar
1444 1444 1 0.0 783.6964737612882 1255.3799536245526 1160.0799198061654 # Ar
1445 1445 1 0.0 397.1427771416664 378.6912644771009 1010.0496917648683 # Ar
1446 1446 1 0.0 476.07433545597945 770.0102441746369 187.29521022786858 # Ar
1447 1447 1 0.0 1276.0324042775026 982.9747657209513 940.0494676885879 # Ar
1448 1448 1 0.0 1219.013551680606 907.6677420913555 781.306543113858 # Ar
1449 1449 1 0.0 1278.705702119096 1001.349751822033 153.17451988736423 # Ar
1450 1450 1 0.0 387.08864334401284 678.4054872371307 274.2593749146667 # Ar
1451 1451 1 0.0 622.036198989883 1041.4624816572107 1195.2149821535354 # Ar
1452 1452 1 0.0 851.7862001197085 252.2746273974187 558.6075933666858 # Ar
1453 1453 1 0.0 769.7995610506821 1178.3798264297448 924.9819329299248 # Ar
1454 1454 1 0.0 405.1295540804585 87.73255792573346 569.0031010918592 # Ar
1455 1455 1 0.0 257.9500482218328 1056.381763129738 36.876562621149695 # Ar
1456 1456 1 0.0 1269.6606038976934 1246.6875063691311 752.6423505749542 # Ar
1457 1457 1 0.0 404.44773940253197 959.9753728935898 1270.7030127717255 # Ar
1458 1458 1 0.0 98.39327380785656 17.70789189087076 135.24230543829867 # Ar
1459 1459 1 0.0 216.17318099925575 1006.4951716738699 137.40198820262077 # Ar
1460 1460 1 0.0 12.07024378900423 296.80257542724286 268.27460033402065 # Ar
1461 1461 1 0.0 798.645977481365 1216.9906747273785 495.8862267168749 # Ar
1462 1462 1 0.0 150.39302054493575 1027.706538714492 93.50638325300861 # Ar
1463 1463 1 0.0 930.1545812803198 1068.4607834238536 740.2223713418757 # Ar
1464 1464 1 0.0 297.6619090333181 1111.7813723804534 208.1550524043615 # Ar
1465 1465 1 0.0 546.9548561468572 594.4630475336875 830.9530662629431 # Ar
1466 1466 1 0.0 921.233555182267 830.3718868193398 1168.1426483423234 # Ar
1467 1467 1 0.0 430.7930617885738 1066.4561257003318 1230.3990661753048 # Ar
1468 1468 1 0.0 817.6988583261127 819.217338315664 801.0715348726619 # Ar
1469 1469 1 0.0 779.5828025464656 346.9567251448998 705.6214937354767 # Ar
1470 1470 1 0.0 634.1102779633411 903.7712622200149 296.3775285961242 # Ar
1471 1471 1 0.0 680.9941900082 461.08728572036017 336.32131781717663 # Ar
1472 1472 1 0.0 1090.2489555185175 112.47474945764085 1290.5881088515823 # Ar
1473 1473 1 0.0 366.69276029914624 1084.2515228746936 116.16229763372209 # Ar
1474 1474 1 0.0 684.8029830037299 557.4937098184724 1082.2620478801616 # Ar
1475 1475 1 0.0 747.0111311389129 679.9237874490285 854.6252618301917 # Ar
1476 1476 1 0.0 721.6209748256173 428.11327723565097 131.4828315532106 # Ar
1477 1477 1 0.0 1261.2277119775645 1113.9083085953623 587.5757755629905 # Ar
1478 1478 1 0.0 1092.6505005374686 510.4183664935459 865.9215320875246 # Ar
1479 1479 1 0.0 309.04828707713807 1089.3779055648456 132.52028259599072 # Ar
1480 1480 1 0.0 315.1983344527074 294.5162051990424 227.0376719663522 # Ar
1481 1481 1 0.0 1175.9470939497055 1162.7259650478786 245.9861455961466 # Ar
1482 1482 1 0.0 826.369146657032 283.0266808575777 1158.4150388193407 # Ar
1483 1483 1 0.0 435.3485175575756 180.00342896823452 212.23824390574376 # Ar
1484 1484 1 0.0 977.9124363244076 61.71033812688857 786.5694443094962 # Ar
1485 1485 1 0.0 313.1164755608206 570.346312012416 1258.2703731581212 # Ar
1486 1486 1 0.0 825.8251297949464 1272.9616945465789 274.2369427376765 # Ar
1487 1487 1 0.0 785.0066790509493 63.39229156555519 192.28065861130094 # Ar
1488 1488 1 0.0 931.9658500986275 587.0457698009332 417.40610826162134 # Ar
1489 1489 1 0.0 583.1399135308875 1057.51053098571 1272.426295790416 # Ar
1490 1490 1 0.0 283.8119489772864 273.22018586408467 878.7593653926746 # Ar
1491 1491 1 0.0 904.602827500025 1276.7897279466522 323.9622623904324 # Ar
1492 1492 1 0.0 76.18174096687726 869.7760676879266 338.1186622628328 # Ar
1493 1493 1 0.0 616.0000486696904 665.4381956863238 1018.3421169411642 # Ar
1494 1494 1 0.0 840.3260710705833 1123.9519371559802 501.26391060499896 # Ar
1495 1495 1 0.0 1046.4636504322198 486.2135640291091 451.5124806072202 # Ar
1496 1496 1 0.0 1030.3798716929853 90.98162399942306 267.6003316066085 # Ar
1497 1497 1 0.0 606.6688557696418 387.92465489998676 148.32051053760998 # Ar
1498 1498 1 0.0 857.3746251100729 77.09994500316486 987.286536216326 # Ar
1499 1499 1 0.0 1218.4965766469036 119.27888712598346 99.407261053208 # Ar
1500 1500 1 0.0 1092.5109328138428 368.67520043702314 815.9131871243308 # Ar
1501 1501 1 0.0 948.8566212213414 838.8536116409385 1059.1690713782905 # Ar
1502 1502 1 0.0 348.1930356071856 518.4284963564219 496.2558701541671 # Ar
1503 1503 1 0.0 65.44362743902539 1176.9756333933083 113.65080567050771 # Ar
1504 1504 1 0.0 185.09406696805084 37.01799569010302 1138.442907648666 # Ar
1505 1505 1 0.0 804.0454083154456 358.2387845653411 265.7608966289194 # Ar
1506 1506 1 0.0 949.5305913813655 803.7278923045662 1083.4138897621744 # Ar
1507 1507 1 0.0 830.744675678239 1033.0224147843298 388.05827241168527 # Ar
1508 1508 1 0.0 901.5226236514401 324.82304633421694 1184.1064773001547 # Ar
1509 1509 1 0.0 569.3829704772439 660.9512086951856 707.1451068930419 # Ar
1510 1510 1 0.0 1246.2365295112586 369.81084991986376 375.0427237601564 # Ar
1511 1511 1 0.0 634.4988935022392 535.9381504386954 1210.7549332493234 # Ar
1512 1512 1 0.0 904.4727654803625 586.6794956069258 940.9591921254187 # Ar
1513 1513 1 0.0 280.981828073558 518.4637277456264 942.6351756857823 # Ar
1514 1514 1 0.0 70.22170101245436 1079.3493515448229 1011.1926057674868 # Ar
1515 1515 1 0.0 848.6458337406667 57.72680547047991 1035.5701366579792 # Ar
1516 1516 1 0.0 425.99534265311627 464.0192493454485 1252.868916020043 # Ar
1517 1517 1 0.0 774.252802353135 542.5716615678042 668.632632061342 # Ar
1518 1518 1 0.0 1253.9473318692626 1255.7602695192625 1048.0599033753533 # Ar
1519 1519 1 0.0 1145.2836203401744 205.14556708601205 161.80852198894004 # Ar
1520 1520 1 0.0 736.1513722104932 754.760287173159 917.1929114249288 # Ar
1521 1521 1 0.0 128.71584173055604 896.2586170035918 503.2915536789035 # Ar
1522 1522 1 0.0 1060.587553579882 1195.0032087424443 792.1751211992936 # Ar
1523 1523 1 0.0 690.8232885594082 308.2617481925704 1091.515455030128 # Ar
1524 1524 1 0.0 336.10080092781965 374.8330307730881 275.8804682439712 # Ar
1525 1525 1 0.0 590.2244639917575 1098.1880905102066 138.15330469449665 # Ar
1526 1526 1 0.0 1026.3842759330455 213.50775626704686 362.1902316974995 # Ar
1527 1527 1 0.0 181.48285846671456 979.1483125522213 49.57627252982532 # Ar
1528 1528 1 0.0 106.08489684815987 1284.8815609405585 567.7428291878629 # Ar
1529 1529 1 0.0 879.400784440595 930.1804554960639 510.435961036111 # Ar
1530 1530 1 0.0 1086.282730016349 813.9182528760942 505.81123964833364 # Ar
1531 1531 1 0.0 475.35919289879195 923.3917275584403 923.0571084724389 # Ar
1532 1532 1 0.0 749.721428509546 254.87138317899834 222.63652979430555 # Ar
1533 1533 1 0.0 217.42306937739144 972.6543318056522 852.3472100388536 # Ar
1534 1534 1 0.0 570.4625690389811 773.1611142190104 849.3897631689572 # Ar
1535 1535 1 0.0 1245.5051819481885 280.40061383573743 574.1621936008142 # Ar
1536 1536 1 0.0 434.8945359117775 1077.1503536803732 1177.1068391618944 # Ar
1537 1537 1 0.0 830.5200368225701 136.4092577116439 804.1978888860107 # Ar
1538 1538 1 0.0 417.1664950763928 978.5722336769593 45.18696579512659 # Ar
1539 1539 1 0.0 68.53905842677699 1156.7229965860067 432.2568007574332 # Ar
1540 1540 1 0.0 488.1651790537546 1271.2450671878337 362.1479313390697 # Ar
1541 1541 1 0.0 499.3228120947746 1282.5744450048173 1008.7132516332812 # Ar
1542 1542 1 0.0 909.6079534955306 939.6762731716378 114.90988772533264 # Ar
1543 1543 1 0.0 32.35857085691724 724.6114594702707 9.943484637456269 # Ar
1544 1544 1 0.0 604.9151159985132 241.58294997535165 983.4648736128676 # Ar
1545 1545 1 0.0 853.4187509777936 247.96491130465608 1216.4790355441728 # Ar
1546 1546 1 0.0 164.712648188853 561.7588729733183 87.28616944386148 # Ar
1547 1547 1 0.0 1146.6691241305437 273.8489670557489 801.2653115637802 # Ar
1548 1548 1 0.0 1131.320866496269 421.1083589450364 929.363977573726 # Ar
1549 1549 1 0.0 920.8126047278139 80.53603310156254 1.2758267609235543 # Ar
1550 1550 1 0.0 18.441870248735107 712.0410644110601 924.1060022229923 # Ar
1551 1551 1 0.0 959.7387657429061 588.9370559122654 1000.7694208178597 # Ar
1552 1552 1 0.0 983.0680074175715 538.1772318629796 361.1283883107156 # Ar
1553 1553 1 0.0 493.59482206838476 771.2424200953408 1069.2374002017684 # Ar
1554 1554 1 0.0 743.1891479883996 1094.2262405632553 1184.6445828441692 # Ar
1555 1555 1 0.0 1282.1784104237563 1034.323052575759 863.4020721255067 # Ar
1556 1556 1 0.0 149.3143028767273 1094.1962079915213 953.9670446317953 # Ar
1557 1557 1 0.0 897.2783024907142 1253.14522111037 267.7118741570543 # Ar
1558 1558 1 0.0 1248.8938809811275 587.6679104038826 32.51018452937218 # Ar
1559 1559 1 0.0 378.2440327753923 841.4199278886811 192.386078197124 # Ar
1560 1560 1 0.0 1044.175105115263 19.728681021223178 1216.6835940024923 # Ar
1561 1561 1 0.0 265.75520113893964 677.2734219192974 111.88884696840344 # Ar
1562 1562 1 0.0 953.6836822763261 163.59196702063215 469.551173163802 # Ar
1563 1563 1 0.0 596.0434264749784 913.264015948859 997.752967104384 # Ar
1564 1564 1 0.0 373.01345811330225 1170.7492720564464 510.9147001600398 # Ar
1565 1565 1 0.0 975.6352688192388 822.7947389652091 998.9884663944829 # Ar
1566 1566 1 0.0 206.16460972089604 603.1350539653866 357.2322665561131 # Ar
1567 1567 1 0.0 178.7090276435198 738.060023340155 1261.5490932439297 # Ar
1568 1568 1 0.0 1147.2238262760466 1208.732104538577 787.7558759966578 # Ar
1569 1569 1 0.0 1148.6049902477155 964.0026264031421 1067.241768703726 # Ar
1570 1570 1 0.0 1261.842924214692 84.21695890621174 198.10906822453586 # Ar
1571 1571 1 0.0 683.9006770816094 635.3759012056643 476.8959277127527 # Ar
1572 1572 1 0.0 980.9281584680052 657.3815430948662 18.002015673045623 # Ar
1573 1573 1 0.0 694.9337893285535 1063.8225836510924 914.350533057966 # Ar
1574 1574 1 0.0 1073.51136333896 205.68858429310325 246.19062136460607 # Ar
1575 1575 1 0.0 182.74308814425524 349.6679792276257 760.4157128314719 # Ar
1576 1576 1 0.0 1133.1250000829616 109.95709158305712 1173.3808181233885 # Ar
1577 1577 1 0.0 780.7295328055111 1204.7114112996949 24.901737794592098 # Ar
1578 1578 1 0.0 3.026874356364798 877.6363666662598 683.3821224683365 # Ar
1579 1579 1 0.0 1287.587120412385 59.88419073117372 353.54616590160236 # Ar
1580 1580 1 0.0 693.7806840648698 249.75304613850264 903.4743393112192 # Ar
1581 1581 1 0.0 226.78908163294585 200.63127338724152 1050.6248646416018 # Ar
1582 1582 1 0.0 94.61295548449922 519.8889102239946 1184.143376944367 # Ar
1583 1583 1 0.0 256.87506357186544 532.7606201554437 220.76345208439236 # Ar
1584 1584 1 0.0 522.0049705231527 585.8815535980578 365.2374781761427 # Ar
1585 1585 1 0.0 553.6183100956858 183.95027017949607 665.6315688828947 # Ar
1586 1586 1 0.0 865.4379364573 828.4871490750817 112.70369334238308 # Ar
1587 1587 1 0.0 605.6852922850733 1236.3000071552729 1245.7975139797613 # Ar
1588 1588 1 0.0 549.8687046827813 104.29779443734675 85.09497909215672 # Ar
1589 1589 1 0.0 989.4922741324261 1114.275563074191 160.05357549228594 # Ar
1590 1590 1 0.0 173.47908637267477 686.7737423190339 5.185360037897533 # Ar
1591 1591 1 0.0 925.7756979953531 395.35168324460585 399.79470775893964 # Ar
1592 1592 1 0.0 1123.3625345450691 1054.0752955915646 1010.4277544314439 # Ar
1593 1593 1 0.0 570.3330372950628 560.4248153230479 527.6779053888175 # Ar
1594 1594 1 0.0 468.4077637389091 205.82941952100006 846.8645212930163 # Ar
1595 1595 1 0.0 1036.3376479214714 814.4001359502847 137.31028836913111 # Ar
1596 1596 1 0.0 60.40910821188488 841.7792886686705 1236.5958803644999 # Ar
1597 1597 1 0.0 69.3277335568027 133.01532791420632 420.28090147228863 # Ar
1598 1598 1 0.0 850.2967967390528 476.9195822237664 482.79867673596374 # Ar
1599 1599 1 0.0 174.39580351343 283.8208183761718 1063.62608134833 # Ar
1600 1600 1 0.0 969.6325228433253 434.2188190670373 1049.9862319397632 # Ar
1601 1601 1 0.0 503.26361865684436 249.18071165066058 709.5822139772215 # Ar
1602 1602 1 0.0 269.53403247146656 593.8058052209763 903.1448101727175 # Ar
1603 1603 1 0.0 702.3532734949016 1248.2966607558685 349.3387173566685 # Ar
1604 1604 1 0.0 127.69743835089932 22.18026077107351 1010.4004769688679 # Ar
1605 1605 1 0.0 99.02547609366822 225.04161481442188 641.4408241086103 # Ar
1606 1606 1 0.0 462.66747500207293 691.0265102109767 1222.5314735159598 # Ar
1607 1607 1 0.0 1244.9332556197455 927.846894505658 1041.1096226992947 # Ar
1608 1608 1 0.0 1266.1758674712871 1044.2789067864248 1012.2530309789349 # Ar
1609 1609 1 0.0 913.925967865152 1097.0491732509436 1156.6325618534236 # Ar
1610 1610 1 0.0 501.44493147726416 1170.4912543240457 834.0651059531073 # Ar
1611 1611 1 0.0 931.4623334707159 1252.3330183688079 167.60170150181116 # Ar
1612 1612 1 0.0 79.91033222963961 755.1343555906778 897.1159095275268 # Ar
1613 1613 1 0.0 1204.137625652858 161.70793280631153 298.8335785736532 # Ar
1614 1614 1 0.0 97.94422530482302 746.4536202938607 1070.353336536857 # Ar
1615 1615 1 0.0 84.72658442007553 6.085678547672181 1227.5544319463884 # Ar
1616 1616 1 0.0 795.8448627839257 740.9995542773153 770.4455375868895 # Ar
1617 1617 1 0.0 811.0567872518681 448.1750812265235 123.08430469020688 # Ar
1618 1618 1 0.0 981.9191121509851 1233.1226907825107 38.76334344893172 # Ar
1619 1619 1 0.0 1168.1688061686261 639.5346624062657 471.07822057346607 # Ar
1620 1620 1 0.0 263.2586998253427 447.12882188070796 507.4793875096918 # Ar
1621 1621 1 0.0 997.3848892437103 1088.2031270361817 1047.7021218026287 # Ar
1622 1622 1 0.0 705.6343820629804 457.5414039531596 269.27628808041277 # Ar
1623 1623 1 0.0 1212.731439879917 403.02466445970606 1112.9780688759683 # Ar
1624 1624 1 0.0 191.6189307886705 493.3380971505557 635.3136955145575 # Ar
1625 1625 1 0.0 1053.6642609354915 808.569723687314 719.5664912021897 # Ar
1626 1626 1 0.0 1281.5871542800535 553.1795631065141 235.91785603504655 # Ar
1627 1627 1 0.0 818.9674591673696 1230.1665691452947 727.8778299820434 # Ar
1628 1628 1 0.0 437.16345179565184 838.8822106628841 963.5563635254289 # Ar
1629 1629 1 0.0 585.4975097819055 637.0989222057519 334.9384379216344 # Ar
1630 1630 1 0.0 568.6016205386862 1071.2813866396075 576.2829427813565 # Ar
1631 1631 1 0.0 1057.67453010101 78.58982610427645 19.231998643591595 # Ar
1632 1632 1 0.0 200.44626694481192 44.71603910293147 1030.6038508902145 # Ar
1633 1633 1 0.0 168.0228891275446 813.7829116456028 601.9930286960689 # Ar
1634 1634 1 0.0 11.104071941599823 615.8100868308057 952.9499063240453 # Ar
1635 1635 1 0.0 105.26986040006511 282.93475660142775 226.45694863728244 # Ar
1636 1636 1 0.0 436.2775195513881 140.71584002263026 63.72946343130654 # Ar
1637 1637 1 0.0 392.1225498806165 1190.0285154075227 151.99469569366298 # Ar
1638 1638 1 0.0 413.47143171440814 208.67304309960926 672.9124504463441 # Ar
1639 1639 1 0.0 10.173099260250698 64.32887048306664 1168.4193696911595 # Ar
1640 1640 1 0.0 1267.0047360462459 269.8587943319654 438.8934980351537 # Ar
1641 1641 1 0.0 843.6528328242155 528.9425472805281 798.996670948664 # Ar
1642 1642 1 0.0 1151.4821095956795 349.8046383271005 571.192427592546 # Ar
1643 1643 1 0.0 1102.9783697378707 1028.9305074543665 1048.8076575041337 # Ar
1644 1644 1 0.0 1244.8915343865776 1189.4262046470399 845.3943847729184 # Ar
1645 1645 1 0.0 485.5436428496969 1177.9484805708535 167.70052590554192 # Ar
1646 1646 1 0.0 499.0199167296458 1013.7181497059993 421.68873499389633 # Ar
1647 1647 1 0.0 27.965432090635506 1024.0848805681226 222.90541071764417 # Ar
1648 1648 1 0.0 478.48428990640014 301.0290052900853 440.2686693209778 # Ar
1649 1649 1 0.0 619.1011480635943 183.8543582565347 365.83977445876997 # Ar
1650 1650 1 0.0 803.4656579297048 200.27289278928458 43.51673880707835 # Ar
1651 1651 1 0.0 1153.447028389113 985.6023991354454 454.3877719994556 # Ar
1652 1652 1 0.0 896.1640792303884 1254.040194555062 672.7703871316858 # Ar
1653 1653 1 0.0 1019.3216933339169 514.9726169865232 226.23057533975276 # Ar
1654 1654 1 0.0 1153.3556468083045 554.2405119532556 435.5873959523566 # Ar
1655 1655 1 0.0 1024.7559843608599 1203.7714468085494 787.738120143436 # Ar
1656 1656 1 0.0 152.64001622851578 1284.8108235774182 504.6128004575855 # Ar
1657 1657 1 0.0 653.109911636691 1056.5286540258705 126.53371811426233 # Ar
1658 1658 1 0.0 1234.8233380336146 784.2443180509662 1109.643554937088 # Ar
1659 1659 1 0.0 958.7072319639748 256.8180939134666 551.1461033246601 # Ar
1660 1660 1 0.0 954.4058352078072 983.237577100619 576.6094544983042 # Ar
1661 1661 1 0.0 902.3138920112591 453.5564537096382 912.6542806048523 # Ar
1662 1662 1 0.0 367.8716773532773 1184.8648033999339 816.7954699245465 # Ar
1663 1663 1 0.0 1078.8118862063855 945.2967325137599 1264.907048034113 # Ar
1664 1664 1 0.0 544.3036455151729 26.695189070428725 1166.6860650643998 # Ar
1665 1665 1 0.0 522.1218772588762 113.03214121827739 871.8861251318124 # Ar
1666 1666 1 0.0 658.4582637956047 1017.4320037428076 426.7300922759522 # Ar
1667 1667 1 0.0 1057.0594459644294 174.06186329436096 222.9671768099836 # Ar
1668 1668 1 0.0 285.51549303625706 524.9828485515417 466.68021144541325 # Ar
1669 1669 1 0.0 1147.2660605400777 1160.1366982947636 321.6040002239538 # Ar
1670 1670 1 0.0 767.0493192849098 589.365552227681 202.69773858618876 # Ar
1671 1671 1 0.0 800.2068107077951 772.2234858158968 786.7514419216095 # Ar
1672 1672 1 0.0 71.0491091985556 1228.65976703605 374.73365456066824 # Ar
1673 1673 1 0.0 951.4076886548078 934.9007774409557 785.0222656231591 # Ar
1674 1674 1 0.0 367.02848041396834 268.29415730665767 238.67506882182175 # Ar
1675 1675 1 0.0 176.52003729037153 241.77647168250041 224.66399111144506 # Ar
1676 1676 1 0.0 783.6012349947678 1213.1157723269528 1296.067264320729 # Ar
1677 1677 1 0.0 1281.6609630264534 522.462901851639 972.7041782704401 # Ar
1678 1678 1 0.0 881.1064384402797 898.4015358731544 162.48343970693472 # Ar
1679 1679 1 0.0 40.46763901200757 380.00476309072235 118.67534517011639 # Ar
1680 1680 1 0.0 896.8081163022639 981.5437267652668 1079.7161423158248 # Ar
1681 1681 1 0.0 45.84882910738268 1293.609084641697 827.1788965966177 # Ar
1682 1682 1 0.0 978.464520613359 263.3052753035431 130.16176414275074 # Ar
1683 1683 1 0.0 1017.2907395358902 1126.147746113615 614.0149650567296 # Ar
1684 1684 1 0.0 1179.100830719742 656.263017334574 1199.231360729121 # Ar
1685 1685 1 0.0 924.6209640848932 991.1200411175616 15.166624555441885 # Ar
1686 1686 1 0.0 887.5339617329028 824.2848985070739 958.7797291503426 # Ar
1687 1687 1 0.0 476.9778888546266 1169.931228083667 1062.6498551863401 # Ar
1688 1688 1 0.0 759.9769128298342 580.2220644138677 456.5188112333698 # Ar
1689 1689 1 0.0 531.5653075635277 436.0675566622983 397.96756762337213 # Ar
1690 1690 1 0.0 921.222741867841 500.2406821839719 447.78132061856746 # Ar
1691 1691 1 0.0 487.74884924470797 318.3653621067081 414.8941490954024 # Ar
1692 1692 1 0.0 431.2608167992434 935.0819718709116 849.4154319359341 # Ar
1693 1693 1 0.0 65.99523663552257 470.8463538964551 1012.6033827897668 # Ar
1694 1694 1 0.0 382.87637229793427 1161.5940873757254 1029.4501506871093 # Ar
1695 1695 1 0.0 460.5022106094386 987.3009471396554 1238.5925230980083 # Ar
1696 1696 1 0.0 1084.6070690755548 524.5831260070113 554.7805279679388 # Ar
1697 1697 1 0.0 781.4657447141175 883.2772976539605 1016.284147122906 # Ar
1698 1698 1 0.0 533.858347378964 1221.646786968953 572.4380521251509 # Ar
1699 1699 1 0.0 278.4049696698564 498.0763330708865 177.2055392628617 # Ar
1700 1700 1 0.0 155.8146414850704 944.7178429571428 1288.091894394674 # Ar
1701 1701 1 0.0 1141.4130700073224 62.38661332796433 1035.7739561802596 # Ar
1702 1702 1 0.0 551.2123177217527 126.05407998732814 756.4581965898988 # Ar
1703 1703 1 0.0 57.7204239892589 49.963370402635256 589.7444984434854 # Ar
1704 1704 1 0.0 536.369355471476 880.0721349593706 202.05271622539448 # Ar
1705 1705 1 0.0 189.73310624871016 201.4163126473807 390.2896505028444 # Ar
1706 1706 1 0.0 610.0761347693418 491.36814954669444 707.5728837829483 # Ar
1707 1707 1 0.0 615.6116743638885 472.075470507224 934.5356821693151 # Ar
1708 1708 1 0.0 1210.523953911511 34.65966388031569 838.1793653943495 # Ar
1709 1709 1 0.0 865.739088832695 294.05897567490604 619.8473698438421 # Ar
1710 1710 1 0.0 535.1739257050956 1295.7761784891582 862.7620550743285 # Ar
1711 1711 1 0.0 244.50861054555878 1201.6670163093336 827.3317196644346 # Ar
1712 1712 1 0.0 55.1405960313476 322.4596138703249 624.5402269145567 # Ar
1713 1713 1 0.0 1206.073989299925 500.95187062256485 331.0435167659648 # Ar
1714 1714 1 0.0 2.108372940594021 992.6086466524881 1052.387707940772 # Ar
1715 1715 1 0.0 1012.696468140833 1075.3340981714953 376.46195361900845 # Ar
1716 1716 1 0.0 1172.1696416207988 435.3431131127738 327.0808525010071 # Ar
1717 1717 1 0.0 1071.0664000829972 1125.415326977593 448.2411390827287 # Ar
1718 1718 1 0.0 325.556211438463 487.806183347103 278.83568707506515 # Ar
1719 1719 1 0.0 670.6781018647011 992.6450432332667 235.1722567790337 # Ar
1720 1720 1 0.0 1043.5936515189055 920.4044314010324 929.8978302459843 # Ar
1721 1721 1 0.0 1174.5007179635627 218.81376279192293 1243.1651548400303 # Ar
1722 1722 1 0.0 5.546129773417435 225.13589721066114 101.79163829351471 # Ar
1723 1723 1 0.0 34.61752333492827 1011.6483448877864 506.74025152089854 # Ar
1724 1724 1 0.0 840.0491886990181 1187.3678804050146 597.8533603940618 # Ar
1725 1725 1 0.0 774.3407860890815 765.1085302716123 502.7604213570847 # Ar
1726 1726 1 0.0 219.7285781751285 896.5570362879615 1286.3386300600469 # Ar
1727 1727 1 0.0 385.9632304937937 1137.8921010325041 198.44715263726428 # Ar
1728 1728 1 0.0 775.1403137611342 67.06444685171454 340.18640773520616 # Ar
1729 1729 1 0.0 856.0084970727561 754.1462631084495 688.6714101729887 # Ar
1730 1730 1 0.0 1103.9382240812522 261.20622861935874 931.6602977575717 # Ar
1731 1731 1 0.0 733.358460337064 80.43472743106845 506.4110172479458 # Ar
1732 1732 1 0.0 1039.0227463977426 726.2566264050068 297.320345270677 # Ar
1733 1733 1 0.0 959.3474756463423 1234.0567624348816 257.1899462436513 # Ar
1734 1734 1 0.0 697.9989935267552 477.32186664842646 450.708290029188 # Ar
1735 1735 1 0.0 1190.9497887465839 45.048588473694686 995.8743913671726 # Ar
1736 1736 1 0.0 443.8609694709924 963.4635186797435 196.72419894669153 # Ar
1737 1737 1 0.0 989.7575186429399 1215.140691416826 1.1938717166646682 # Ar
1738 1738 1 0.0 1232.7615838973459 55.25680905089985 230.48482641971128 # Ar
1739 1739 1 0.0 327.4478466900792 962.5861866845648 1086.7023435288304 # Ar
1740 1740 1 0.0 400.82840998929134 290.31474562263423 1090.4306886676072 # Ar
1741 1741 1 0.0 196.70741491940532 895.3707193469982 390.0048632916231 # Ar
1742 1742 1 0.0 1031.9042430661968 1029.3329941347697 180.45965337783528 # Ar
1743 1743 1 0.0 120.53502448063712 253.43352376072514 1023.5101643602595 # Ar
1744 1744 1 0.0 1256.5719341413765 1105.8238957393066 1193.0494229084238 # Ar
1745 1745 1 0.0 575.1638146680247 254.65070151609746 440.36544894557426 # Ar
1746 1746 1 0.0 1152.7250644092912 227.57065540893845 238.66906952429503 # Ar
1747 1747 1 0.0 342.2334714637644 437.8152225920818 1244.887941464315 # Ar
1748 1748 1 0.0 1134.394575517869 594.0375763168696 434.143728205425 # Ar
1749 1749 1 0.0 1267.726430299082 1117.9646000610128 351.21621250860926 # Ar
1750 1750 1 0.0 775.4274027138534 379.6188141217098 688.8900023638795 # Ar
1751 1751 1 0.0 913.7962291593993 980.2003877775699 641.6738255123163 # Ar
1752 1752 1 0.0 743.9433581002465 651.8909819910216 914.5606808530807 # Ar
1753 1753 1 0.0 949.1767214971358 1185.504153039793 572.8156457516915 # Ar
1754 1754 1 0.0 205.1021033096011 1132.3481023911706 890.0715880298912 # Ar
1755 1755 1 0.0 813.1770302499586 83.19527082654488 698.8880690704698 # Ar
1756 1756 1 0.0 473.90936852026186 1256.2403338453657 293.68557692751824 # Ar
1757 1757 1 0.0 1121.4017698752534 881.0853419394368 130.20028206702196 # Ar
1758 1758 1 0.0 656.4649651593132 355.6181934082994 875.9094757523324 # Ar
1759 1759 1 0.0 918.050781921323 1292.591461916812 677.2595099901307 # Ar
1760 1760 1 0.0 830.3305789006345 863.717307875992 1175.1561743215752 # Ar
1761 1761 1 0.0 9.114331708849404 834.3761142648248 602.7954164885427 # Ar
1762 1762 1 0.0 186.04083217735484 1280.0071693364612 682.6337116102062 # Ar
1763 1763 1 0.0 799.0558183380795 543.4615754852375 1178.164267387982 # Ar
1764 1764 1 0.0 75.74035839798564 761.7624430363564 1252.8318739163963 # Ar
1765 1765 1 0.0 11.433712586649506 557.4582301313678 434.78735912397093 # Ar
1766 1766 1 0.0 1218.5756127857649 59.01422249989849 758.0754009879173 # Ar
1767 1767 1 0.0 1084.28181798155 1137.7357488276425 423.8834727385461 # Ar
1768 1768 1 0.0 1212.1911472456457 1018.0582364026778 1195.9796927931993 # Ar
1769 1769 1 0.0 349.5274629267951 1065.6786056315775 725.7366208708311 # Ar
1770 1770 1 0.0 883.6802859567 193.40566917731593 676.9451536426282 # Ar
1771 1771 1 0.0 662.26026461651 948.801211881139 410.2892176727926 # Ar
1772 1772 1 0.0 904.4372200861201 1072.763952148264 377.9940381848548 # Ar
1773 1773 1 0.0 1138.0385518442472 51.54245126842409 677.0364003400708 # Ar
1774 1774 1 0.0 526.1783682752983 612.7304379941081 677.0420073730659 # Ar
1775 1775 1 0.0 82.1404512550365 218.98729303647318 212.68232543702769 # Ar
1776 1776 1 0.0 905.6060034382546 930.6587445490158 647.4344171246856 # Ar
1777 1777 1 0.0 949.2696051662615 1244.9717611988838 1072.9786107204175 # Ar
1778 1778 1 0.0 1112.5066232582183 1083.4172660249644 418.4493923065489 # Ar
1779 1779 1 0.0 1166.821138167187 100.9031855861837 135.49950721510078 # Ar
1780 1780 1 0.0 275.124153468143 934.1983717468723 214.80023892184897 # Ar
1781 1781 1 0.0 1120.6154684566511 20.369979488227848 1220.285021750087 # Ar
1782 1782 1 0.0 770.7649373820935 707.3870845095489 625.362402986997 # Ar
1783 1783 1 0.0 816.9987324892927 1155.875365545949 20.99162510625144 # Ar
1784 1784 1 0.0 1187.9505406159753 246.33354504186164 206.42507255313546 # Ar
1785 1785 1 0.0 180.49506007912805 954.3920827190441 718.6520460644529 # Ar
1786 1786 1 0.0 637.2355045917693 1014.0622556164295 854.9273195863177 # Ar
1787 1787 1 0.0 697.6370587981816 203.44228666343864 1126.4312528663743 # Ar
1788 1788 1 0.0 1049.7332523774314 802.7165920819809 598.0705341767595 # Ar
1789 1789 1 0.0 814.552764136694 148.3449230186011 887.3750740516044 # Ar
1790 1790 1 0.0 695.5195294724731 568.0600048532368 1125.9017979258192 # Ar
1791 1791 1 0.0 309.00162102550877 1048.0596249520574 45.787814359464555 # Ar
1792 1792 1 0.0 1131.4042518187164 803.6029538855431 705.1055410475918 # Ar
1793 1793 1 0.0 841.1705260012023 1123.8080565560447 988.7530331156527 # Ar
1794 1794 1 0.0 1243.8246141911993 248.29430332344768 1106.8720484397854 # Ar
1795 1795 1 0.0 793.9290290919223 1236.7243225907782 412.9652086759123 # Ar
1796 1796 1 0.0 150.23770396450752 701.651800786894 1226.6571855085344 # Ar
1797 1797 1 0.0 538.0274232605902 401.1752776047369 83.04968655577932 # Ar
1798 1798 1 0.0 347.637708392049 366.6602722890776 87.65285810135366 # Ar
1799 1799 1 0.0 422.87339405868374 930.8218278252089 787.0573093383567 # Ar
1800 1800 1 0.0 750.1738500306138 228.92855698845418 957.7004106135653 # Ar
1801 1801 1 0.0 468.7591861198604 87.247009336838 1059.6570635202584 # Ar
1802 1802 1 0.0 435.3358427378454 332.8551307879536 112.8641667314362 # Ar
1803 1803 1 0.0 231.86263429110852 156.36217593282652 371.03848279717795 # Ar
1804 1804 1 0.0 1072.9759730943197 228.68817828146135 688.1435238538014 # Ar
1805 1805 1 0.0 78.9884438160743 839.2524196112737 519.5312800865019 # Ar
1806 1806 1 0.0 894.5252175081688 105.96736389149619 427.21351551004653 # Ar
1807 1807 1 0.0 760.4205893847281 988.9459778859293 478.6369765822459 # Ar
1808 1808 1 0.0 492.26915192198436 310.23352719024865 160.6032855972228 # Ar
1809 1809 1 0.0 418.44551102089383 617.6505457922825 916.2520890829463 # Ar
1810 1810 1 0.0 1038.5654099043031 628.1531530326448 241.48692603860113 # Ar
1811 1811 1 0.0 189.33465186958 1256.044574531981 1041.4121158336345 # Ar
1812 1812 1 0.0 968.5713026945836 632.0322270264925 1024.3994459110693 # Ar
1813 1813 1 0.0 36.128895654706696 1228.572603652256 103.4272241318625 # Ar
1814 1814 1 0.0 571.7220062516413 324.4296185135659 254.9423744095518 # Ar
1815 1815 1 0.0 122.66643847911493 102.6463155212404 467.62067910785333 # Ar
1816 1816 1 0.0 53.65813886757534 54.42283025006877 884.8164841717163 # Ar
1817 1817 1 0.0 512.2325957618884 72.20938426683234 995.6340162935154 # Ar
1818 1818 1 0.0 470.72652606186796 1132.10953587078 212.24384848965744 # Ar
1819 1819 1 0.0 1008.5027726394965 580.3323021523898 338.1045707455584 # Ar
1820 1820 1 0.0 118.61535816039242 349.1100750128185 302.68120866564254 # Ar
1821 1821 1 0.0 269.25247374040475 270.56944202904754 965.7310273822129 # Ar
1822 1822 1 0.0 600.5687328954396 50.545569932266574 1280.303262238233 # Ar
1823 1823 1 0.0 1014.7878060186055 822.3009710191715 795.5569859462075 # Ar
1824 1824 1 0.0 1141.0684857363597 833.7489610135408 933.6371783990637 # Ar
1825 1825 1 0.0 580.6503799387252 191.05350904173866 1288.3724511220196 # Ar
1826 1826 1 0.0 432.81423292285416 794.2634429813468 64.73430972227283 # Ar
1827 1827 1 0.0 406.91092698514854 233.6959803813174 454.00162478638475 # Ar
1828 1828 1 0.0 953.6244070079528 1286.810086759298 1110.0609887760268 # Ar
1829 1829 1 0.0 862.4679726999451 823.4160975668011 1166.322163110415 # Ar
1830 1830 1 0.0 307.8187477280277 151.58330121542818 504.3738269012895 # Ar
1831 1831 1 0.0 805.3031194340251 695.8126099225768 1064.1833233393577 # Ar
1832 1832 1 0.0 634.9346385046993 756.4266309983079 344.3751918381779 # Ar
1833 1833 1 0.0 725.553601758132 1086.5734658769743 846.5664368439332 # Ar
1834 1834 1 0.0 648.4100044137015 898.584869574763 166.08266500705355 # Ar
1835 1835 1 0.0 1145.9085914689858 808.1005893990904 974.6527064805189 # Ar
1836 1836 1 0.0 1080.35009063249 1172.7005893964483 905.8442332878788 # Ar
1837 1837 1 0.0 457.49320420052084 1197.8009262642781 558.8200106657025 # Ar
1838 1838 1 0.0 21.019868681003004 1258.781101010442 1019.9940747142227 # Ar
1839 1839 1 0.0 399.1306936340103 46.79695243399944 1006.4448133531106 # Ar
1840 1840 1 0.0 118.47140052791576 504.36389911939347 41.963318925562916 # Ar
1841 1841 1 0.0 239.20667426049445 680.301851315461 323.76543092318235 # Ar
1842 1842 1 0.0 736.5439497727397 85.8265160192805 920.3301779331573 # Ar
1843 1843 1 0.0 642.5071975621461 639.6565773557649 1074.06626076333 # Ar
1844 1844 1 0.0 343.2492262995485 1173.3556382199642 138.35415070424497 # Ar
1845 1845 1 0.0 398.40229986571825 354.2854523856264 1076.5384481597753 # Ar
1846 1846 1 0.0 486.7530156769822 741.6149972001504 359.6055691762418 # Ar
1847 1847 1 0.0 437.6423640058277 740.6774687333774 409.33273157148074 # Ar
1848 1848 1 0.0 912.3471021709643 580.4606931830472 426.07487990508326 # Ar
1849 1849 1 0.0 510.3443837255832 826.262053629999 1004.6019073160572 # Ar
1850 1850 1 0.0 1150.4547495147885 201.92293482053216 244.94973155962703 # Ar
1851 1851 1 0.0 1063.202494080714 815.7601570778348 323.6338950283526 # Ar
1852 1852 1 0.0 259.25430588699044 460.5478404310495 1150.2114214766789 # Ar
1853 1853 1 0.0 449.18045029782763 620.2848206983223 1292.0470971623301 # Ar
1854 1854 1 0.0 147.27947402852575 809.8516300006982 1216.6901225316149 # Ar
1855 1855 1 0.0 922.6161592254048 1226.0548631719091 723.3098883733516 # Ar
1856 1856 1 0.0 743.773662634077 996.914768383615 537.0837835469778 # Ar
1857 1857 1 0.0 235.81164573128572 706.279480602375 1134.9464507224402 # Ar
1858 1858 1 0.0 463.1907279898166 961.1005110101609 297.8417385349576 # Ar
1859 1859 1 0.0 680.9772032334562 558.987385443344 241.1961103561617 # Ar
1860 1860 1 0.0 1108.7855356947946 832.5754535286171 477.79947469788823 # Ar
1861 1861 1 0.0 1014.6062928526546 682.7537829504154 995.463993874623 # Ar
1862 1862 1 0.0 859.2841146332497 466.73145895512505 690.4434418293935 # Ar
1863 1863 1 0.0 1074.1015964750472 231.29167554912027 538.5286439704261 # Ar
1864 1864 1 0.0 439.0887492098278 955.2474741775893 1107.6004180889654 # Ar
1865 1865 1 0.0 473.1983635607791 200.3436803881098 487.5156265291044 # Ar
1866 1866 1 0.0 206.27666711943007 697.8068097993183 1100.8517727099897 # Ar
1867 1867 1 0.0 715.997714910472 108.9345158464267 799.8771739008816 # Ar
1868 1868 1 0.0 825.4086958146879 860.5224867878115 962.9673940087616 # Ar
1869 1869 1 0.0 228.4989811749199 1149.3039847588623 577.9657080202945 # Ar
1870 1870 1 0.0 985.6715633365651 1019.1222192425228 909.8931342971763 # Ar
1871 1871 1 0.0 118.19172458214216 815.4106112811862 469.62087979741005 # Ar
1872 1872 1 0.0 959.4293758927754 138.15588536586918 46.525419591129975 # Ar
1873 1873 1 0.0 911.267716029019 717.5926855245127 966.1646282215373 # Ar
1874 1874 1 0.0 659.0379602800338 1013.5453249631677 1250.2964837535885 # Ar
1875 1875 1 0.0 174.60484344451888 500.2180056402012 892.819595746908 # Ar
1876 1876 1 0.0 777.6464416131204 1186.2220974854436 53.78269247773013 # Ar
1877 1877 1 0.0 1197.0418655639837 984.5465633341377 1019.6459413928551 # Ar
1878 1878 1 0.0 164.69348350680812 505.0365182829326 362.6528416681192 # Ar
1879 1879 1 0.0 795.1443036575886 1291.047542308672 303.4099329588335 # Ar
1880 1880 1 0.0 497.80000537435126 296.3297801989955 223.77660806542602 # Ar
1881 1881 1 0.0 831.3200614123517 263.25843416172387 680.3450770428738 # Ar
1882 1882 1 0.0 781.3667228848523 497.9523125770892 30.249249162434467 # Ar
1883 1883 1 0.0 1049.6217168242965 1286.5704259177628 1063.4701366630127 # Ar
1884 1884 1 0.0 592.5995509184403 1066.1192195098836 184.3900069662024 # Ar
1885 1885 1 0.0 358.15839708899847 836.6294803300169 489.0966105771167 # Ar
1886 1886 1 0.0 119.16799841529172 1287.1468283117222 281.4127818264812 # Ar
1887 1887 1 0.0 240.87737435114565 982.1366797452147 199.30210162307242 # Ar
1888 1888 1 0.0 446.0283440006338 756.7581734172352 1038.7215101590323 # Ar
1889 1889 1 0.0 11.731376438458145 537.791359522128 1167.267877530197 # Ar
1890 1890 1 0.0 363.33569186044014 846.3532461012948 62.630533630203644 # Ar
1891 1891 1 0.0 331.32036103935883 1132.103934660804 1077.5553206442248 # Ar
1892 1892 1 0.0 887.5561157379179 1129.5944441067588 240.18158397777205 # Ar
1893 1893 1 0.0 807.280635772305 885.9309315209629 855.1863401669566 # Ar
1894 1894 1 0.0 1006.1964647556399 143.02980415684885 123.55011212432582 # Ar
1895 1895 1 0.0 765.7353134987957 4.618440191201888 938.7233310705492 # Ar
1896 1896 1 0.0 311.7058070810796 46.29415837915399 96.06966919669229 # Ar
1897 1897 1 0.0 732.7593576711873 879.550907332701 1161.8128650810697 # Ar
1898 1898 1 0.0 790.2226627010344 632.6470750223785 1261.9150333088596 # Ar
1899 1899 1 0.0 218.79484712486945 1242.8680185462508 806.5059791680175 # Ar
1900 1900 1 0.0 38.773026160692446 1234.3167841750892 328.67986050794383 # Ar
1901 1901 1 0.0 86.06230798856811 715.2712129544117 1191.632484131858 # Ar
1902 1902 1 0.0 942.7346673590115 528.2224501278628 552.99564901971 # Ar
1903 1903 1 0.0 374.19364570732216 791.8559063609375 464.9276178249319 # Ar
1904 1904 1 0.0 32.59307851416762 1153.1763952822469 283.57466387642813 # Ar
1905 1905 1 0.0 350.15553578747347 658.5533147392009 125.1327495469472 # Ar
1906 1906 1 0.0 1238.0484542052727 1072.1226629911603 1269.0441052489882 # Ar
1907 1907 1 0.0 834.893774986808 1283.9864505921541 1202.7358314580003 # Ar
1908 1908 1 0.0 344.0366178176448 81.04017958864802 658.4170226409648 # Ar
1909 1909 1 0.0 592.0097845292688 358.6441525634531 633.3743584506773 # Ar
1910 1910 1 0.0 481.6327983584596 225.3659718399803 1097.9085360388488 # Ar
1911 1911 1 0.0 456.0831121289668 871.9522924791492 232.0214369674081 # Ar
1912 1912 1 0.0 717.4235476009235 122.61015758634005 887.7128151682019 # Ar
1913 1913 1 0.0 839.312286227904 432.63941530885614 628.1223799324073 # Ar
1914 1914 1 0.0 245.28885636749416 301.64823470095325 688.375186233687 # Ar
1915 1915 1 0.0 1100.933950891739 119.67151442429565 1040.547782482356 # Ar
1916 1916 1 0.0 516.0038375781494 583.8970968132543 253.83824946516995 # Ar
1917 1917 1 0.0 833.614743168923 363.07852737913265 288.22161312091845 # Ar
1918 1918 1 0.0 599.264502858803 628.0439153084459 544.5162057906884 # Ar
1919 1919 1 0.0 881.2915968343494 256.27451801890055 351.01737890760216 # Ar
1920 1920 1 0.0 111.76041662559703 560.3899245573143 1114.8997343287933 # Ar
1921 1921 1 0.0 173.65233700444116 485.52639983209457 6.781879839856137 # Ar
1922 1922 1 0.0 1061.9469048908645 1296.280720361787 831.521221893895 # Ar
1923 1923 1 0.0 1239.6263121674767 509.59215362296567 262.30616298569083 # Ar
1924 1924 1 0.0 668.9394046713705 298.93236443212095 594.1972167101245 # Ar
1925 1925 1 0.0 180.04082512200384 1012.2517443615137 1119.9344216636841 # Ar
1926 1926 1 0.0 208.30024340064068 591.5850485892504 1042.4916982710745 # Ar
1927 1927 1 0.0 597.781417433199 1008.7117406060684 251.6572126306396 # Ar
1928 1928 1 0.0 857.1291509509127 676.947960728768 725.9039425187223 # Ar
1929 1929 1 0.0 621.3340249341694 938.5455690295187 343.9826333960619 # Ar
1930 1930 1 0.0 8.453145602767332 808.0821460550904 945.8911051612403 # Ar
1931 1931 1 0.0 489.0557453867026 215.64253977326524 1098.8590151776232 # Ar
1932 1932 1 0.0 277.34782161101987 1096.5605719415043 1280.3155973465184 # Ar
1933 1933 1 0.0 125.77617588565151 140.8910460665835 16.36312689483718 # Ar
1934 1934 1 0.0 456.56950804767376 147.47819097411644 1213.2772710166387 # Ar
1935 1935 1 0.0 714.4417381112903 561.8523125937184 502.5075533321825 # Ar
1936 1936 1 0.0 217.22001560109118 430.19796573229866 214.1378741064074 # Ar
1937 1937 1 0.0 226.41950025545978 63.904349683382065 1277.764636329032 # Ar
1938 1938 1 0.0 795.0044070122443 1142.0974789700851 823.941247967083 # Ar
1939 1939 1 0.0 926.7343075235424 1034.1173408104796 638.4479859404499 # Ar
1940 1940 1 0.0 632.4530134196266 1049.4704505267214 211.98978706375306 # Ar
1941 1941 1 0.0 1104.8483396640677 1039.6074160402327 37.99414663239689 # Ar
1942 1942 1 0.0 550.9324191968872 651.156844838334 161.08113512687348 # Ar
1943 1943 1 0.0 444.67090670546656 526.4992822954515 941.7841360319308 # Ar
1944 1944 1 0.0 1285.1320744604607 363.87968533201905 633.5012666921805 # Ar
1945 1945 1 0.0 1005.417383781539 946.7602779479973 961.5495180939404 # Ar
1946 1946 1 0.0 927.6151355381769 921.0318740271664 62.720336345485244 # Ar
1947 1947 1 0.0 177.94794073225867 527.8591778824928 411.25368732338376 # Ar
1948 1948 1 0.0 42.23584600238279 247.48739140767506 931.0810466008305 # Ar
1949 1949 1 0.0 352.0498483358786 695.5775343205189 828.6642394511774 # Ar
1950 1950 1 0.0 412.2743417177356 773.4715796415727 141.2700790642905 # Ar
1951 1951 1 0.0 1116.914964607676 1232.1511936031093 247.73642116124321 # Ar
1952 1952 1 0.0 496.41309248141295 1107.3804028971606 1083.2075484378202 # Ar
1953 1953 1 0.0 14.499789986309244 134.89828478155937 1252.0349661215141 # Ar
1954 1954 1 0.0 953.2771799358248 181.71680706608606 252.78881759556262 # Ar
1955 1955 1 0.0 1174.9638840243076 266.1809872075586 704.5163788756146 # Ar
1956 1956 1 0.0 1167.5437583247053 187.3620786552663 932.8831696812491 # Ar
1957 1957 1 0.0 1275.9635810252855 1278.3712246261077 493.11055472335266 # Ar
1958 1958 1 0.0 529.7255676706475 1128.9766689094347 672.2178647052775 # Ar
1959 1959 1 0.0 340.51088396081525 631.1377768455678 1288.667885046934 # Ar
1960 1960 1 0.0 152.90114450463167 308.45944133068036 680.9281738946087 # Ar
1961 1961 1 0.0 837.6212122931375 627.0949027533862 643.4061985354837 # Ar
1962 1962 1 0.0 503.43189840890125 1088.9197737739876 946.9292253808891 # Ar
1963 1963 1 0.0 332.54035669197367 926.2612089640403 419.0202715721701 # Ar
1964 1964 1 0.0 437.37489808658336 868.194744946684 1248.3103709822592 # Ar
1965 1965 1 0.0 91.25693043014256 186.1052628477328 321.7452917927686 # Ar
1966 1966 1 0.0 279.1654249013279 695.4551000211509 1233.1967371013761 # Ar
1967 1967 1 0.0 788.1865131938399 1177.649636555007 18.34333396796033 # Ar
1968 1968 1 0.0 246.92509446437964 786.75330255963 1223.1466490560758 # Ar
1969 1969 1 0.0 1276.1950683905654 108.80295300418692 1220.5283036841497 # Ar
1970 1970 1 0.0 1173.0160540935926 420.1174598392629 373.9604933675993 # Ar
1971 1971 1 0.0 737.9359408632464 258.75173317321594 85.43217866663294 # Ar
1972 1972 1 0.0 230.63943542816958 620.912015459341 1261.553210319839 # Ar
1973 1973 1 0.0 1227.7139313158093 1227.2175091934191 868.5635853939503 # Ar
1974 1974 1 0.0 544.6590320995605 163.33740113658968 981.4016856212639 # Ar
1975 1975 1 0.0 832.3811778422042 513.6297357872609 174.46198200600034 # Ar
1976 1976 1 0.0 488.77770068848844 755.135500713266 606.493030038661 # Ar
1977 1977 1 0.0 930.2365899983677 305.1863295982449 1185.5303433044899 # Ar
1978 1978 1 0.0 39.326118727679514 759.0169358869124 181.4996546158593 # Ar
1979 1979 1 0.0 826.8466864391715 1260.1069101895941 981.0955541060281 # Ar
1980 1980 1 0.0 559.0516800474566 863.6247530368496 154.7471700445575 # Ar
1981 1981 1 0.0 186.86659863394942 768.3019636830853 861.7390924006272 # Ar
1982 1982 1 0.0 1114.5221450685908 305.8129275289388 1045.3359349717684 # Ar
1983 1983 1 0.0 910.2919415260433 202.74511574011478 736.8291839194441 # Ar
1984 1984 1 0.0 806.7300884170585 456.45897127930954 788.3225350544257 # Ar
1985 1985 1 0.0 85.24743500276657 321.7970877701746 851.4555003063139 # Ar
1986 1986 1 0.0 548.1614136419485 383.724696901162 1113.581592650568 # Ar
1987 1987 1 0.0 797.7728788384235 371.8972936074428 89.45782156549602 # Ar
1988 1988 1 0.0 395.36336778531336 152.55704643453532 906.4887025836367 # Ar
1989 1989 1 0.0 508.05510245746194 1253.1612126800183 272.54632746097457 # Ar
1990 1990 1 0.0 1295.4488918333402 480.1208240758256 877.7785156569861 # Ar
1991 1991 1 0.0 1196.026321423516 493.6601980456281 241.0892904206423 # Ar
1992 1992 1 0.0 363.22361354000964 945.6442176186672 83.61153486433501 # Ar
1993 1993 1 0.0 544.7968981432546 598.6555859027263 485.2944525723089 # Ar
1994 1994 1 0.0 480.2954607516966 959.5417662947283 856.404250101221 # Ar
1995 1995 1 0.0 213.23562113305096 529.3015970912397 1222.4765596849347 # Ar
1996 1996 1 0.0 1089.5413268162495 876.4946973664399 716.7812889242731 # Ar
1997 1997 1 0.0 913.2377917920483 983.5427902410679 1250.45182115454 # Ar
1998 1998 1 0.0 227.73204013340901 1275.6225547948825 579.5742201155413 # Ar
1999 1999 1 0.0 1243.1862622701922 141.72893328890913 1092.7661261251565 # Ar
2000 2000 1 0.0 515.2104867576046 222.84109083058672 706.2612022174812 # Ar
