LAMMPS data file -- atom_style full -- generated by chemfiles
150 atoms
0 bonds
0 angles
0 dihedrals
0 impropers
2 atom types
0 bond types
0 angle types
0 dihedral types
0 improper types
0.00000000 1169.82196 xlo xhi
0.00000000 1169.82196 ylo yhi
0.00000000 1169.82196 zlo zhi

# Pair Coeffs
# 1 Ar
# 2 Ar+

Masses

1 39.948 # Ar
2 39.948 # Ar+

Atoms # full

1 1 1 0.0 465.9353961206783 890.0411289437862 684.8739580385371 # Ar
2 2 1 0.0 556.550645409757 514.4158257948944 1163.9067859946088 # Ar
3 3 1 0.0 230.7449369005659 779.8461587785613 452.41336775478703 # Ar
4 4 1 0.0 672.7618165762077 192.46611249598786 889.3316814349174 # Ar
5 5 1 0.0 1144.9510625250039 3.383457669608794 27.86083752861952 # Ar
6 6 1 0.0 596.4146380809739 175.98541777208433 76.40343494597121 # Ar
7 7 1 0.0 534.4856292017593 308.64123576033325 1109.9982090312117 # Ar
8 8 1 0.0 798.2938920737432 661.0968625268644 741.7510598913788 # Ar
9 9 1 0.0 278.2960181548675 422.0902886121103 175.10567906744484 # Ar
10 10 1 0.0 421.23320917394676 120.01455852743155 1.9408325342000827 # Ar
11 11 1 0.0 755.7043120887955 209.0835096982633 623.3982110929726 # Ar
12 12 1 0.0 730.0651110154847 67.66642724003513 62.84522226012077 # Ar
13 13 1 0.0 911.7857455187859 79.48384204325109 667.763709603109 # Ar
14 14 1 0.0 427.0928708601122 1003.620603704348 484.7978413018353 # Ar
15 15 1 0.0 515.3650467957509 920.5902137244423 446.7792039036603 # Ar
16 16 1 0.0 270.08004292517825 83.47540134056801 947.5928644931302 # Ar
17 17 1 0.0 1083.999323481453 289.1664151203925 643.9575020666264 # Ar
18 18 1 0.0 95.30448323525154 1037.760141596645 461.6923994392222 # Ar
19 19 1 0.0 716.6156150669351 893.6218986883899 60.69175711699989 # Ar
20 20 1 0.0 700.960599942527 876.378153982372 850.3111657138596 # Ar
21 21 1 0.0 107.55906480057862 213.4266372587817 709.5452049559727 # Ar
22 22 1 0.0 707.462561997115 664.9668798052663 196.2614511196837 # Ar
23 23 1 0.0 851.7103743142316 649.0284694629538 353.86761735773445 # Ar
24 24 1 0.0 372.2363117348682 292.183082981184 1154.1147658411955 # Ar
25 25 1 0.0 42.546975604531404 849.5180171811209 372.89003805247927 # Ar
26 26 1 0.0 1122.9774839878924 126.34368220993996 523.9620509124555 # Ar
27 27 1 0.0 711.8415194340744 944.5227171313445 633.5588759612326 # Ar
28 28 1 0.0 571.1237486694777 448.3530248614702 876.9352364453748 # Ar
29 29 1 0.0 313.693817548824 757.8884828113742 858.825439171947 # Ar
30 30 1 0.0 76.00110270651132 3.1678912893217284 563.8233671956415 # Ar
31 31 1 0.0 244.51887521841567 258.1368690456724 602.6618806026547 # Ar
32 32 1 0.0 113.46027807848752 1125.206604187111 853.1608823627872 # Ar
33 33 1 0.0 789.5460946827416 442.503296343716 604.6852144467979 # Ar
34 34 1 0.0 937.5139429512972 754.8204993748653 769.0877162098067 # Ar
35 35 1 0.0 228.06626100747903 530.5886063639954 281.8746883042444 # Ar
36 36 1 0.0 1073.895909515888 399.59909105245606 1161.565340319596 # Ar
37 37 1 0.0 565.4624078972688 357.2719536540569 622.1912249954606 # Ar
38 38 1 0.0 467.5484167999193 257.4757312492468 770.8238567687638 # Ar
39 39 1 0.0 779.6533126261535 1093.002168693734 6.305290318036526 # Ar
40 40 1 0.0 808.4203184905169 914.910514499625 462.81573308255275 # Ar
41 41 1 0.0 187.66215116639088 1157.1563250905667 238.31880357408897 # Ar
42 42 1 0.0 243.94193076423554 623.2966986958097 576.024186422184 # Ar
43 43 1 0.0 356.47032952706 576.3995641283339 105.99550268889308 # Ar
44 44 1 0.0 979.9940040377952 477.6545349154779 748.4317461665939 # Ar
45 45 1 0.0 88.9364742810419 9.566465827894659 874.2588270485255 # Ar
46 46 1 0.0 449.69945164368715 92.787850802307 221.2336663978524 # Ar
47 47 1 0.0 978.515832766934 1019.2073214547659 433.8464376488034 # Ar
48 48 1 0.0 320.0717800081066 475.0378063160226 512.3568928384382 # Ar
49 49 1 0.0 103.53667478252275 603.9557289423321 314.8016196306052 # Ar
50 50 1 0.0 714.2908032724811 975.853630317529 1098.7758356143893 # Ar
51 51 1 0.0 251.63633555708105 1161.6406388576522 1046.5950071061995 # Ar
52 52 1 0.0 606.9161867226579 321.7654885548229 394.89165898571395 # Ar
53 53 1 0.0 680.8198054242989 197.62041442236932 828.4488866505307 # Ar
54 54 1 0.0 544.1811563074707 980.4894234346593 1099.84354149916 # Ar
55 55 1 0.0 1017.790139939535 442.8293892189726 1024.5281770243112 # Ar
56 56 1 0.0 6.587693316012894 30.919525433404417 97.65161639015238 # Ar
57 57 1 0.0 461.23837942939093 486.1221603897368 852.7495708287199 # Ar
58 58 1 0.0 242.5259719737193 1114.7428667815775 134.18161746094307 # Ar
59 59 1 0.0 268.6559279657711 1064.668792715324 486.24350538056075 # Ar
60 60 1 0.0 291.07586310508543 4.610451290977751 425.77611204773933 # Ar
61 61 1 0.0 936.8599323350338 175.19282985523944 1072.529275455885 # Ar
62 62 1 0.0 1112.2145875611914 828.5888681227369 650.8322435083332 # Ar
63 63 1 0.0 1122.326770417334 919.8678044206943 51.55549174390795 # Ar
64 64 1 0.0 38.7468341542961 1098.6581395079734 1157.1638702994014 # Ar
65 65 1 0.0 539.1061518787002 1048.5781333071154 741.3610464095094 # Ar
66 66 1 0.0 790.6946125715843 512.9662083079057 634.4860972632263 # Ar
67 67 1 0.0 25.4330451554783 999.833812594731 783.7939902637233 # Ar
68 68 1 0.0 593.0317056457221 955.2157925416387 859.9247757759825 # Ar
69 69 1 0.0 467.7976589455876 1139.0298145664647 429.18589331279054 # Ar
70 70 1 0.0 559.171314075074 399.21277630495194 481.4529808630583 # Ar
71 71 1 0.0 106.80520418382044 1008.3308082297928 488.2338838423183 # Ar
72 72 1 0.0 34.15735229580848 1158.3154153788525 16.125991956882267 # Ar
73 73 1 0.0 642.6392945996492 1027.3909127514517 124.6120881912689 # Ar
74 74 1 0.0 1033.848458842562 489.9817287442418 796.4016146940443 # Ar
75 75 1 0.0 624.9438214255176 757.9966023942802 402.6316878306543 # Ar
76 76 1 0.0 753.0015139088739 793.2926047862006 861.5318093804157 # Ar
77 77 1 0.0 655.2214413437716 275.2255504968967 567.1321163114844 # Ar
78 78 1 0.0 461.0042593612696 772.2843997624728 494.443325955856 # Ar
79 79 1 0.0 519.3415222614718 421.18806950667755 546.1899533114282 # Ar
80 80 1 0.0 523.0981221144156 879.0259476722733 746.9500457589772 # Ar
81 81 1 0.0 907.6817090473403 900.9786066997164 922.1401699533125 # Ar
82 82 1 0.0 19.448938455699746 419.1367624812985 809.8435012759934 # Ar
83 83 1 0.0 1107.4624418770277 510.77666356022996 489.80738901556396 # Ar
84 84 1 0.0 1120.2083495268032 1124.0289340917932 229.0943103541018 # Ar
85 85 1 0.0 386.5924091596269 560.7654188308024 733.2501500252374 # Ar
86 86 1 0.0 174.02626656450286 559.7643579500452 221.7083599609096 # Ar
87 87 2 0.0 271.7736432461368 1086.8951541761226 283.0861523150875 # Ar+
88 88 2 0.0 6.607860792555719 1117.9687355565159 501.5002751813927 # Ar+
89 89 2 0.0 797.9591396892603 262.7373917904461 828.1435532847884 # Ar+
90 90 2 0.0 285.2270694782353 970.1094136624903 178.47759434773744 # Ar+
91 91 2 0.0 552.5938580781774 679.8553053285608 15.291007000195904 # Ar+
92 92 2 0.0 507.32152490396953 1044.482595942783 58.79971195645773 # Ar+
93 93 2 0.0 51.93337343527732 489.6374545965109 570.1771871168202 # Ar+
94 94 2 0.0 899.4074941073225 322.50320622806737 304.97600757633995 # Ar+
95 95 2 0.0 177.1221941213332 277.4854106937137 127.51382331971507 # Ar+
96 96 2 0.0 225.0157284736685 738.0722373405025 646.1710092372763 # Ar+
97 97 2 0.0 59.347552248902126 443.4209361339389 848.9671492794622 # Ar+
98 98 2 0.0 533.3436503877161 1059.715525406883 725.1472283147715 # Ar+
99 99 2 0.0 941.363371892018 210.10329424152067 760.6270777284994 # Ar+
100 100 2 0.0 1028.2845910947065 1163.2429490608274 625.4842375451524 # Ar+
101 101 2 0.0 913.1179979443042 959.3569480435125 541.6046442560889 # Ar+
102 102 2 0.0 402.3568484201761 46.77069946992908 865.4988495931734 # Ar+
103 103 2 0.0 696.7423806439906 157.07681526258398 20.657293795470746 # Ar+
104 104 2 0.0 42.64422402893297 596.9713453388495 400.22840033158053 # Ar+
105 105 2 0.0 566.422777587689 830.9359482266728 241.71285577199143 # Ar+
106 106 2 0.0 287.51916636356896 829.2582284554553 455.6074315242508 # Ar+
107 107 2 0.0 1143.344577898418 634.2110344887963 283.32992487337617 # Ar+
108 108 2 0.0 474.15997039637864 282.5777255206411 825.9327971336851 # Ar+
109 109 2 0.0 567.2212910079419 34.82381174817413 924.4569938195782 # Ar+
110 110 2 0.0 417.3007141677946 871.6253757779311 1007.561725896783 # Ar+
111 111 2 0.0 59.17197180766325 35.34289620050827 360.2452165252279 # Ar+
112 112 2 0.0 949.8497798219109 725.9126680913472 81.33264390086418 # Ar+
113 113 2 0.0 62.65309508317606 962.5268825962635 721.4134884393967 # Ar+
114 114 2 0.0 582.3394906296453 1099.126902443528 730.5895598623218 # Ar+
115 115 2 0.0 307.01470611357377 921.8392780783201 939.2130804730723 # Ar+
116 116 2 0.0 913.4331097376806 1080.4264709080578 707.616964306187 # Ar+
117 117 2 0.0 821.3550520689475 1045.4228216341355 391.8512539759069 # Ar+
118 118 2 0.0 554.616330428463 596.6690143949968 617.7913233211452 # Ar+
119 119 2 0.0 270.06938913325683 979.0526240834421 342.55730447555976 # Ar+
120 120 2 0.0 377.834081340151 249.68678882646483 169.94668793616276 # Ar+
121 121 2 0.0 456.07052289282245 211.49338983077382 642.5347019083072 # Ar+
122 122 2 0.0 770.9426058730174 19.098018284790413 853.7515750850501 # Ar+
123 123 2 0.0 637.0844801089962 1057.9702783376465 316.17283508430035 # Ar+
124 124 2 0.0 883.3051714987496 818.2205541408999 99.51104440909683 # Ar+
125 125 2 0.0 99.31683405376656 240.4455119891468 689.7582879901763 # Ar+
126 126 2 0.0 1092.3042890628358 1109.8788365537373 57.63261339696571 # Ar+
127 127 2 0.0 295.41344625002307 325.75589258600496 877.4959116872395 # Ar+
128 128 2 0.0 172.35502787397783 202.94581498732995 932.5925779374028 # Ar+
129 129 2 0.0 244.04603108083558 588.0531956112789 1123.8810240685686 # Ar+
130 130 2 0.0 476.1093002412209 1059.5373100015147 443.75568328640986 # Ar+
131 131 2 0.0 344.3104044141532 909.3871610131458 37.5043301494066 # Ar+
132 132 2 0.0 750.4991207822216 1126.6118820860822 453.98075635840075 # Ar+
133 133 2 0.0 774.5033682751802 1134.7740287197441 701.6230539306292 # Ar+
134 134 2 0.0 243.0095755082145 705.9414992318967 751.0080178187196 # Ar+
135 135 2 0.0 745.6662155514992 1003.5667747458402 1031.447868916577 # Ar+
136 136 2 0.0 629.1319939895649 932.5028514563165 197.26103179401488 # Ar+
137 137 2 0.0 781.6892851137129 856.0308756258124 511.72717726188466 # Ar+
138 138 2 0.0 168.80290703443472 463.515141313082 619.0650116577766 # Ar+
139 139 2 0.0 1150.864551484404 1144.8503500078948 780.881584429967 # Ar+
140 140 2 0.0 36.00962776351589 836.3490621682196 452.6789744572844 # Ar+
141 141 2 0.0 733.067644679373 550.1837157718819 1161.8204090303261 # Ar+
142 142 2 0.0 1012.4741600121492 962.9889623214301 867.5679234875067 # Ar+
143 143 2 0.0 92.73880429911773 321.41028664218646 394.9631808299739 # Ar+
144 144 2 0.0 1160.5519832665543 430.0475275781656 384.48487840135454 # Ar+
145 145 2 0.0 889.9938154963892 284.87667398556437 735.8645806625341 # Ar+
146 146 2 0.0 851.8601763252213 175.36431988530387 251.84564443758927 # Ar+
147 147 2 0.0 350.10331052489846 613.9284509880255 817.0775286727126 # Ar+
148 148 2 0.0 453.5985029398923 861.28211539242 1156.9731110306407 # Ar+
149 149 2 0.0 36.34249296100862 217.4447162840062 1095.1456833245768 # Ar+
150 150 2 0.0 1001.2343150171332 1158.3004426095085 141.6911227873019 # Ar+
