LAMMPS data file -- atom_style full -- generated by chemfiles
2000 atoms
0 bonds
0 angles
0 dihedrals
0 impropers
1 atom types
0 bond types
0 angle types
0 dihedral types
0 improper types
0.00000000 816.849825 xlo xhi
0.00000000 816.849825 ylo yhi
0.00000000 816.849825 zlo zhi

# Pair Coeffs
# 1 Ar

Masses

1 39.948 # Ar

Atoms # full

1 1 1 0.0 76.24536293090814 107.31533068290267 70.01128498417576 # Ar
2 2 1 0.0 794.9883968188951 692.7620668074227 4.228384869688865 # Ar
3 3 1 0.0 664.1854485284293 758.0543892510332 768.1192879018952 # Ar
4 4 1 0.0 505.15326182330733 312.6092809773956 777.8362372651409 # Ar
5 5 1 0.0 707.6090335156124 475.76018053391107 291.4174219261144 # Ar
6 6 1 0.0 150.692818081469 676.9661215988029 599.7720296038515 # Ar
7 7 1 0.0 112.22085340615487 783.9949027643797 195.21968251364217 # Ar
8 8 1 0.0 566.2049838079078 217.1388402487916 552.0620629404694 # Ar
9 9 1 0.0 778.0292891063855 326.2154719933175 457.80859132717853 # Ar
10 10 1 0.0 38.01672290231432 538.4659031594945 452.50017506828755 # Ar
11 11 1 0.0 462.5649785370542 747.0429119419831 480.38585708300434 # Ar
12 12 1 0.0 446.8206970530094 399.7997024377293 137.5128313574536 # Ar
13 13 1 0.0 612.4782642168929 611.8045270651596 98.55132424837173 # Ar
14 14 1 0.0 388.607487624848 206.69358814221928 378.83531638426 # Ar
15 15 1 0.0 360.94499262838707 78.46776187778423 380.12980286318896 # Ar
16 16 1 0.0 497.9072223033597 766.2701625921989 409.401154677948 # Ar
17 17 1 0.0 776.1722971669943 35.207565786606764 506.534181031341 # Ar
18 18 1 0.0 613.7122452728725 281.4174938962375 500.76668662062673 # Ar
19 19 1 0.0 443.1409837859504 239.26032859321842 598.4503387513307 # Ar
20 20 1 0.0 466.6039830437904 690.0642032608187 443.80971859761604 # Ar
21 21 1 0.0 491.467387183979 202.99958207868605 236.36187513426006 # Ar
22 22 1 0.0 597.7259430850856 454.6069362988741 585.089435997269 # Ar
23 23 1 0.0 402.59276764784977 597.8583322963452 507.00894471242316 # Ar
24 24 1 0.0 662.9032694419275 633.6717435221653 670.1231451758695 # Ar
25 25 1 0.0 675.7626630457399 63.076068108642644 777.6470828784612 # Ar
26 26 1 0.0 791.3637482897028 175.1871210054941 76.61833874683226 # Ar
27 27 1 0.0 486.8713648862148 723.5452784348914 61.16615269559649 # Ar
28 28 1 0.0 625.1698467039623 329.4659444154041 440.9383137333118 # Ar
29 29 1 0.0 593.9177271296978 223.74982462923407 492.23749287611685 # Ar
30 30 1 0.0 549.6329325235064 413.83585777432074 127.76776848821346 # Ar
31 31 1 0.0 627.5248827108474 747.6346875158565 241.82314124704305 # Ar
32 32 1 0.0 466.2804200547423 602.2491885117587 566.7123370358429 # Ar
33 33 1 0.0 407.62850442338714 17.68937984905751 702.7683193049786 # Ar
34 34 1 0.0 810.8319993100567 356.72401790966563 793.2455774085773 # Ar
35 35 1 0.0 583.947177375558 313.70243580251184 207.80283156569328 # Ar
36 36 1 0.0 370.07504960617143 34.34066374572914 509.8307057674535 # Ar
37 37 1 0.0 814.763378077281 398.6756630670238 573.954409393995 # Ar
38 38 1 0.0 524.5528883847638 284.6592276126012 744.9552779836328 # Ar
39 39 1 0.0 61.21115248639057 163.03876194391287 773.9580027725084 # Ar
40 40 1 0.0 457.11910625035097 454.31365208931334 89.53933496726523 # Ar
41 41 1 0.0 168.84664540996897 593.2948006025329 701.7584943532235 # Ar
42 42 1 0.0 97.56482430880736 591.3371870251328 709.8251245733838 # Ar
43 43 1 0.0 278.5946569026091 127.21715862865072 217.95592650357352 # Ar
44 44 1 0.0 562.7991974767648 371.026552592476 711.9426907411591 # Ar
45 45 1 0.0 68.46126313277179 284.3345711003933 603.1035343404957 # Ar
46 46 1 0.0 642.3542340936477 394.866123100662 158.25677416126067 # Ar
47 47 1 0.0 483.99985048394353 121.01064754039945 663.0599782305158 # Ar
48 48 1 0.0 617.7026164464277 158.8832226683715 332.36630876690884 # Ar
49 49 1 0.0 241.8121536064703 253.5468797132326 415.66539222725027 # Ar
50 50 1 0.0 658.555541962194 792.7952686131009 524.3833237443431 # Ar
51 51 1 0.0 608.8616743273557 410.9654864114632 431.74942052980407 # Ar
52 52 1 0.0 762.930037521214 278.533017679157 350.42607600459246 # Ar
53 53 1 0.0 487.332871985564 235.81968519303626 129.56621787885 # Ar
54 54 1 0.0 459.20539031744335 623.4523852716853 199.44213590169397 # Ar
55 55 1 0.0 541.4708444286564 515.5339966089028 783.682570286935 # Ar
56 56 1 0.0 54.813886119152066 672.6752850767592 323.5983689313201 # Ar
57 57 1 0.0 54.23690904972684 304.08436355835823 388.0611092797563 # Ar
58 58 1 0.0 412.03253331424673 321.01401976362786 796.5705105245917 # Ar
59 59 1 0.0 362.4139506205759 771.5807665899188 700.7017750922911 # Ar
60 60 1 0.0 702.8770450718919 450.7919732896578 699.9456177184079 # Ar
61 61 1 0.0 635.0995787092537 767.1422885867704 784.1224633381405 # Ar
62 62 1 0.0 241.23970824083338 616.281840503597 651.4133700898005 # Ar
63 63 1 0.0 639.89129648716 604.2265412702483 397.01374117348 # Ar
64 64 1 0.0 255.28480407316997 724.894213190142 108.00053417013658 # Ar
65 65 1 0.0 180.62994758638055 762.1511455856346 796.328152289278 # Ar
66 66 1 0.0 284.68975483347947 241.66710294461654 507.395897339098 # Ar
67 67 1 0.0 496.1610818313297 796.0958681055083 224.7885621323838 # Ar
68 68 1 0.0 138.2964217611995 243.4566091786637 509.52395088092976 # Ar
69 69 1 0.0 432.3573376917472 104.09694129734366 327.3356446208006 # Ar
70 70 1 0.0 696.4607053343449 358.9982513788468 565.2733759455688 # Ar
71 71 1 0.0 462.91162670262287 537.9952317452749 510.6656865131929 # Ar
72 72 1 0.0 585.5093292879927 494.9887815523552 767.1437111495418 # Ar
73 73 1 0.0 144.48033947758458 370.692405799852 130.0326416228633 # Ar
74 74 1 0.0 235.110759995936 53.924592992599386 644.3951940293513 # Ar
75 75 1 0.0 127.48098923499418 758.9880457462341 85.03730979784001 # Ar
76 76 1 0.0 483.05400609369207 723.0074210263484 108.05360752079669 # Ar
77 77 1 0.0 96.94926566866336 731.977656788775 696.0067371825777 # Ar
78 78 1 0.0 597.1938883776829 293.57422085430863 222.44036418113322 # Ar
79 79 1 0.0 472.4035804591686 419.5021162691718 400.9394900814231 # Ar
80 80 1 0.0 539.3253541044618 528.6549075657489 390.0416984547002 # Ar
81 81 1 0.0 373.24488890516665 568.6679138580898 105.04686516435731 # Ar
82 82 1 0.0 155.9366678087573 405.9602718578037 109.13536632414606 # Ar
83 83 1 0.0 791.1810925028236 288.5202293171562 803.5917956029542 # Ar
84 84 1 0.0 164.67837547620826 589.8047421198054 231.0936296956655 # Ar
85 85 1 0.0 588.7123469602351 753.4032802045461 721.7674672859753 # Ar
86 86 1 0.0 764.0552781537006 415.7617383440782 34.98913352274676 # Ar
87 87 1 0.0 479.51739706324327 519.3886113873209 502.18573481077595 # Ar
88 88 1 0.0 634.6273789668543 201.6745351587017 808.1165848413003 # Ar
89 89 1 0.0 676.8918930516169 416.45274184595183 327.0444886991913 # Ar
90 90 1 0.0 734.6900718692201 629.6317056630674 660.7389526244746 # Ar
91 91 1 0.0 618.637234731832 325.40136091274627 771.7787831846208 # Ar
92 92 1 0.0 732.3318822970454 425.12942148392034 425.21445588425803 # Ar
93 93 1 0.0 330.617954001931 776.2126251463569 707.6415720159603 # Ar
94 94 1 0.0 632.5804922840382 455.7577142406748 287.5647326211626 # Ar
95 95 1 0.0 151.76625462531752 492.27810925232956 298.18965484097885 # Ar
96 96 1 0.0 289.44919512586904 234.90168633622562 622.1395732514031 # Ar
97 97 1 0.0 777.6697819980192 567.0327953710604 706.8780178810209 # Ar
98 98 1 0.0 718.4611054612242 24.130065275303416 66.09299302955705 # Ar
99 99 1 0.0 333.1524126210508 216.08352312737705 557.5389320967602 # Ar
100 100 1 0.0 628.5874222318099 697.4408040087992 55.383625200905776 # Ar
101 101 1 0.0 815.9889536325916 510.70828840239875 700.4711753227087 # Ar
102 102 1 0.0 583.7716219540987 634.9083590741163 156.4221390780169 # Ar
103 103 1 0.0 319.1837053894374 90.04696169981845 484.03063441040706 # Ar
104 104 1 0.0 40.83318244606594 367.95116580907023 721.8905180734854 # Ar
105 105 1 0.0 768.6487422194888 809.8421658844893 270.295795251005 # Ar
106 106 1 0.0 807.3490221799352 439.88685405908006 71.76005486587906 # Ar
107 107 1 0.0 490.9143675445745 127.55091994636639 704.071941716918 # Ar
108 108 1 0.0 256.3805018495392 275.43167299052874 29.220592082264258 # Ar
109 109 1 0.0 778.4478319149425 184.62469425398956 247.1092148503273 # Ar
110 110 1 0.0 389.5579201490476 192.8592506806163 114.28141875315197 # Ar
111 111 1 0.0 434.0582777072964 283.02552320008624 79.7594593030119 # Ar
112 112 1 0.0 44.46088941744065 627.6267778380661 341.8785523727512 # Ar
113 113 1 0.0 247.49289904699904 812.9400093955621 706.8159023544384 # Ar
114 114 1 0.0 748.0842633382402 575.6193583826704 779.9677396427144 # Ar
115 115 1 0.0 206.8864678694892 33.701281188168466 739.7791327484993 # Ar
116 116 1 0.0 737.0805968758588 640.5524810546653 172.6729572612168 # Ar
117 117 1 0.0 798.8171270298193 777.0576549072597 21.730659872661523 # Ar
118 118 1 0.0 447.4232282370071 447.1081903732412 759.5872830966902 # Ar
119 119 1 0.0 620.1141344534643 669.0540517169854 112.74060727224648 # Ar
120 120 1 0.0 539.3514801723578 647.5561801890848 455.1939961938043 # Ar
121 121 1 0.0 762.5574005474377 415.81950852164266 200.36770535044135 # Ar
122 122 1 0.0 488.7087934935416 103.66408074877778 300.8993839730024 # Ar
123 123 1 0.0 213.7685642509033 333.01664978667134 770.3128900753534 # Ar
124 124 1 0.0 354.50652810648165 667.6071563573593 450.48958784590656 # Ar
125 125 1 0.0 357.298909079118 170.5029883592426 267.9022556409354 # Ar
126 126 1 0.0 192.7265252495218 164.52472902782122 191.48150734631596 # Ar
127 127 1 0.0 561.203170462183 3.654496359658756 218.45756828205674 # Ar
128 128 1 0.0 575.2182616341225 140.43188140529202 768.9949215050269 # Ar
129 129 1 0.0 127.62680609184571 802.9138271083335 137.01416356078607 # Ar
130 130 1 0.0 320.43895078233896 227.6609303395518 268.08287894008527 # Ar
131 131 1 0.0 336.41016929774133 545.2249794309465 683.6319968950033 # Ar
132 132 1 0.0 385.9451418445369 533.194953290383 139.99128643451047 # Ar
133 133 1 0.0 469.3109286271575 369.6028577300096 763.9867996890705 # Ar
134 134 1 0.0 556.5976600964485 201.26342573820622 445.53055059093003 # Ar
135 135 1 0.0 672.6799275784136 481.9350617318809 185.67343608607786 # Ar
136 136 1 0.0 145.457857189981 531.7817206678264 292.64068185958416 # Ar
137 137 1 0.0 298.4459373837918 147.97239068130807 602.5135029974952 # Ar
138 138 1 0.0 25.017352034529186 445.29648949013045 255.70780441482705 # Ar
139 139 1 0.0 668.5489108283355 139.81061732395548 680.2978946711771 # Ar
140 140 1 0.0 589.6944659836281 429.37290730133975 417.06598039832943 # Ar
141 141 1 0.0 374.07726976325375 312.3749832443254 583.9779019805485 # Ar
142 142 1 0.0 351.9427452963694 400.59088356570186 530.8188848354422 # Ar
143 143 1 0.0 573.0437490745852 427.06138508143323 555.6445195879545 # Ar
144 144 1 0.0 370.2192148019646 383.4283927978728 643.0930852993846 # Ar
145 145 1 0.0 181.88316042394158 638.2366798706075 462.8690238348407 # Ar
146 146 1 0.0 339.61083694897286 532.8903327656375 317.8703871669986 # Ar
147 147 1 0.0 96.16980061118137 614.048487549685 212.04453772922446 # Ar
148 148 1 0.0 562.9293796193156 423.4728280937629 204.85629880278955 # Ar
149 149 1 0.0 426.1620107477743 258.648294304754 758.703564764799 # Ar
150 150 1 0.0 7.078870907565541 454.70499089699547 132.6625253609432 # Ar
151 151 1 0.0 483.9691219658171 423.99614469198616 336.4817597509307 # Ar
152 152 1 0.0 433.96038749195867 527.639327130454 284.7045264088941 # Ar
153 153 1 0.0 679.5448208787672 61.789977931325765 376.2526008660313 # Ar
154 154 1 0.0 437.8651364000203 6.111618902925221 108.91885782303743 # Ar
155 155 1 0.0 778.4327820252428 601.1704629424503 808.6778675810101 # Ar
156 156 1 0.0 24.240366899612614 20.60853424183705 62.012390992585296 # Ar
157 157 1 0.0 814.1702913586339 291.4147302900654 48.84826667355457 # Ar
158 158 1 0.0 138.32640032475055 408.6107696312339 309.8091126370295 # Ar
159 159 1 0.0 733.2627511953423 340.9574086031963 499.80850803624855 # Ar
160 160 1 0.0 75.52371836460016 119.66944795882935 812.4673905766454 # Ar
161 161 1 0.0 140.14624201679516 597.96425560666 545.3337856518845 # Ar
162 162 1 0.0 594.757808194344 37.08865298481133 176.84226059011257 # Ar
163 163 1 0.0 768.4873064267678 414.9312690822942 54.14974554282968 # Ar
164 164 1 0.0 256.5612444653251 517.037545803574 262.0244005458123 # Ar
165 165 1 0.0 621.580970528361 148.67583785632945 698.6181307492408 # Ar
166 166 1 0.0 699.9757519688263 439.3374147122475 77.94818999488008 # Ar
167 167 1 0.0 420.48304658835104 363.2404127682555 457.253157061413 # Ar
168 168 1 0.0 642.9926895229387 231.96816605840505 13.643497662160932 # Ar
169 169 1 0.0 239.31901306442737 33.9645725920115 141.30922799846746 # Ar
170 170 1 0.0 766.7960103575379 507.8477229798884 91.4498298728506 # Ar
171 171 1 0.0 56.3347886774903 368.2773339422773 773.4731208421774 # Ar
172 172 1 0.0 71.75887161073014 144.02078612896668 410.1956582046068 # Ar
173 173 1 0.0 461.60754850630457 600.700722080017 233.6963599809398 # Ar
174 174 1 0.0 642.9443248778967 331.0828723243028 46.77535958541125 # Ar
175 175 1 0.0 671.8912960501152 56.728273973001045 100.12684366180375 # Ar
176 176 1 0.0 673.0477605439758 196.27248195369063 63.13385385118798 # Ar
177 177 1 0.0 787.3487712968104 67.73136105558808 396.20928620751397 # Ar
178 178 1 0.0 171.90817755746596 85.5523106475263 375.3398666135196 # Ar
179 179 1 0.0 533.351928384273 549.6317680426215 643.7839420907438 # Ar
180 180 1 0.0 324.5397258953803 321.00846381657294 47.39181257957189 # Ar
181 181 1 0.0 659.6885408968905 123.55165318454978 789.7999999760891 # Ar
182 182 1 0.0 129.58961546319432 218.76654240631171 669.2373750831072 # Ar
183 183 1 0.0 631.5692111807796 123.14603115162618 236.20975597440554 # Ar
184 184 1 0.0 615.0735817621776 725.1860131827027 395.06880892904127 # Ar
185 185 1 0.0 692.055738790749 680.6754384644502 293.14064622522744 # Ar
186 186 1 0.0 237.82278996920343 746.8790721617281 11.598162101620302 # Ar
187 187 1 0.0 644.4237819249538 671.93931219747 93.21781721924135 # Ar
188 188 1 0.0 48.81351552581843 587.3864616894849 531.4957445299243 # Ar
189 189 1 0.0 32.38872814596337 416.22396033126046 597.8284497058467 # Ar
190 190 1 0.0 730.8838826331582 394.98466309060177 35.32927396122564 # Ar
191 191 1 0.0 660.6672667101365 719.1178123567039 64.41961591469988 # Ar
192 192 1 0.0 159.80981390312417 705.4997145749297 152.49500250538023 # Ar
193 193 1 0.0 703.4820677622401 210.39557139760925 811.8817191902194 # Ar
194 194 1 0.0 420.26711745998006 253.8176026235168 811.4512081689694 # Ar
195 195 1 0.0 141.66100738099615 631.0254962010687 245.15402557608977 # Ar
196 196 1 0.0 29.324995754986134 191.58110851845137 267.74575110021084 # Ar
197 197 1 0.0 779.1154499023116 37.202046984949675 240.32981111886087 # Ar
198 198 1 0.0 758.2280297012093 672.8366715808072 127.29739855147294 # Ar
199 199 1 0.0 322.473879152677 809.0160598311398 327.52564380969545 # Ar
200 200 1 0.0 553.5290928382199 638.3001677924545 251.56748894581472 # Ar
201 201 1 0.0 776.3155209241592 121.13325143788973 558.1696801947071 # Ar
202 202 1 0.0 490.51526425705487 789.1098515755596 568.9649878390136 # Ar
203 203 1 0.0 107.21616364685762 17.294902823996427 364.5425503954108 # Ar
204 204 1 0.0 439.20046533902297 99.14224412674763 712.4039143694896 # Ar
205 205 1 0.0 638.324906540089 643.9247065000354 154.7984278039212 # Ar
206 206 1 0.0 664.2628896961432 659.9018111133059 163.87733266810216 # Ar
207 207 1 0.0 295.4350401467523 89.57260796749514 505.4314184295251 # Ar
208 208 1 0.0 660.2102700723103 212.6270993494034 462.5458736680382 # Ar
209 209 1 0.0 780.2003757416667 403.30078337032324 552.6939858849529 # Ar
210 210 1 0.0 412.9312176788297 800.510971732561 447.1554688059894 # Ar
211 211 1 0.0 274.35318811930983 101.49244027703567 688.922273679529 # Ar
212 212 1 0.0 455.1886616023322 33.30098108544759 579.7820710133246 # Ar
213 213 1 0.0 799.6543237441085 643.658988573698 230.13468952532645 # Ar
214 214 1 0.0 732.5132621344611 200.40527065099076 350.7518203301248 # Ar
215 215 1 0.0 629.232720699751 217.12809006930996 114.66469030074687 # Ar
216 216 1 0.0 735.3364222325112 499.23023409919716 431.6378155885392 # Ar
217 217 1 0.0 657.7951900585343 204.66891788350188 560.91546479813 # Ar
218 218 1 0.0 787.1149856889683 357.7497112247854 441.30682316990857 # Ar
219 219 1 0.0 412.188843246788 604.3039799392297 672.1101258147703 # Ar
220 220 1 0.0 308.7546041761601 198.04797232209938 363.3647415853431 # Ar
221 221 1 0.0 275.27358339878947 89.34967773479629 726.8852986977444 # Ar
222 222 1 0.0 73.46147938503505 452.97745165408554 447.74853971941593 # Ar
223 223 1 0.0 595.6672269709467 16.48876520747597 299.03686340690183 # Ar
224 224 1 0.0 555.0364166656532 713.2612439750919 38.78491497189037 # Ar
225 225 1 0.0 816.4195314612344 263.9506244704356 660.5378179749392 # Ar
226 226 1 0.0 202.71900109290755 703.8606490838121 267.8240570492516 # Ar
227 227 1 0.0 745.813007523065 537.4128392766303 12.167486856973731 # Ar
228 228 1 0.0 75.59596065799114 122.60071858160345 118.44342681916034 # Ar
229 229 1 0.0 361.8348573163617 142.76824039643253 720.5845623118903 # Ar
230 230 1 0.0 731.6501075017485 603.20578033777 135.17568701540262 # Ar
231 231 1 0.0 46.55323070073439 602.6513866001412 260.83863331940313 # Ar
232 232 1 0.0 401.34857627067174 248.42006035836857 786.4518473420534 # Ar
233 233 1 0.0 39.45503790649292 716.8503091584886 305.13004664942457 # Ar
234 234 1 0.0 206.20454324306158 109.12491413977017 126.06925090850615 # Ar
235 235 1 0.0 688.2310070596883 313.3311359124011 375.0253417098024 # Ar
236 236 1 0.0 37.09356079067503 689.2642976868632 426.55178635035355 # Ar
237 237 1 0.0 315.3227879182858 479.3268363377486 223.10459276717924 # Ar
238 238 1 0.0 579.9918838375091 62.52517203911188 637.3484641779486 # Ar
239 239 1 0.0 357.57266876494776 577.0826729699169 149.88444057460248 # Ar
240 240 1 0.0 10.233170712124597 109.44462652331927 134.18146739346884 # Ar
241 241 1 0.0 94.89413022326377 742.2426367668801 305.7085531958113 # Ar
242 242 1 0.0 400.1319829624998 664.5345834333233 640.1664810421904 # Ar
243 243 1 0.0 57.06219304549782 391.012819627373 470.80380035244775 # Ar
244 244 1 0.0 610.8852344709709 352.478260842915 814.0206732188636 # Ar
245 245 1 0.0 417.64145382663196 743.2988361422177 538.4239313792848 # Ar
246 246 1 0.0 565.8893725776577 481.2100465942153 432.53916453635816 # Ar
247 247 1 0.0 248.5734710118888 11.421937402287005 49.46454624881118 # Ar
248 248 1 0.0 320.14036673717885 187.75774465249202 320.5683752644124 # Ar
249 249 1 0.0 133.16953819965107 145.93265636852806 250.8013310885077 # Ar
250 250 1 0.0 741.503637093857 73.28925713213405 490.3612618322314 # Ar
251 251 1 0.0 394.19371009668305 736.6479392458994 167.89960383034037 # Ar
252 252 1 0.0 37.46743044746516 697.1415656141594 152.97439304915167 # Ar
253 253 1 0.0 319.04149139000845 674.9124577273835 140.60975011850732 # Ar
254 254 1 0.0 217.02223791393033 723.4193163429268 175.94831365394055 # Ar
255 255 1 0.0 126.96070220377088 516.4379650971971 254.89979196345413 # Ar
256 256 1 0.0 52.31939664684323 512.8353648948394 583.3101315189135 # Ar
257 257 1 0.0 814.0846127038986 320.8652133918958 263.3508570702089 # Ar
258 258 1 0.0 102.85079282052492 461.60775475679264 224.82016332048 # Ar
259 259 1 0.0 228.77266839963025 425.14264559763984 637.3408447814797 # Ar
260 260 1 0.0 483.039951752822 395.41871164647097 339.4377213756378 # Ar
261 261 1 0.0 68.41542770336244 70.14984850671252 483.236722485983 # Ar
262 262 1 0.0 416.9350979411847 265.10083833611486 445.62716248108995 # Ar
263 263 1 0.0 604.5795228400094 775.620867207989 720.1974529941494 # Ar
264 264 1 0.0 169.93664819557262 433.7508171753962 471.2628548109896 # Ar
265 265 1 0.0 427.1372195885886 428.6561106211585 580.8662423311171 # Ar
266 266 1 0.0 802.380432151567 734.1812800963663 681.2622460414935 # Ar
267 267 1 0.0 532.9037520233254 93.04102451308547 751.9242721693975 # Ar
268 268 1 0.0 390.82841247360204 423.38437728567624 788.5799292512306 # Ar
269 269 1 0.0 365.86473715268903 676.7964452789407 122.67639205357337 # Ar
270 270 1 0.0 734.9815434520178 538.0802038630385 799.7580279078517 # Ar
271 271 1 0.0 331.7132054244124 502.97196395938784 501.2066443568161 # Ar
272 272 1 0.0 293.4068793555897 625.3552430962774 648.6920995713832 # Ar
273 273 1 0.0 491.3704582800397 421.8286728334658 518.4983962630005 # Ar
274 274 1 0.0 752.3652119931537 471.2158038599517 305.59173744108443 # Ar
275 275 1 0.0 488.489257032183 699.9254066019063 277.4106161203398 # Ar
276 276 1 0.0 105.13052417285907 443.3677104552728 96.83826472172103 # Ar
277 277 1 0.0 288.99629274917413 321.8886436424711 612.7932334460122 # Ar
278 278 1 0.0 326.5863876104669 328.43833831387013 113.52602973542835 # Ar
279 279 1 0.0 34.02165364533084 13.974211174543656 777.1214884355277 # Ar
280 280 1 0.0 111.85916260068905 685.7677498575035 183.39047615091394 # Ar
281 281 1 0.0 223.8238268691935 244.1625385183645 715.214807455067 # Ar
282 282 1 0.0 80.95083838389752 673.0781113060418 387.79669570788815 # Ar
283 283 1 0.0 245.7379555018415 294.82457004701337 206.90265554416854 # Ar
284 284 1 0.0 88.22838623841275 139.92083996173554 414.01519631013684 # Ar
285 285 1 0.0 510.09651564388 641.249549698538 338.82344449647377 # Ar
286 286 1 0.0 43.49639410573425 419.58493087542337 145.6927041931774 # Ar
287 287 1 0.0 236.55865234929112 109.13494496828459 729.504622603554 # Ar
288 288 1 0.0 249.9462310529816 378.24789757191604 318.9224443332054 # Ar
289 289 1 0.0 386.65597642935194 464.5748414703282 777.4601391603279 # Ar
290 290 1 0.0 128.39349182612796 278.11277898031597 31.878818951032272 # Ar
291 291 1 0.0 801.5473708063232 149.19950326139653 330.42220343579197 # Ar
292 292 1 0.0 469.02398422321176 640.4794414373707 788.968329528175 # Ar
293 293 1 0.0 228.03996882865263 322.0239693136017 471.2505574193427 # Ar
294 294 1 0.0 133.3649858476359 440.87945028461763 151.1369595161514 # Ar
295 295 1 0.0 298.6370506017764 41.83130550734703 514.9187070836024 # Ar
296 296 1 0.0 334.8076966778581 187.5479657443198 403.9216080961571 # Ar
297 297 1 0.0 27.567735191866234 219.36745886417765 578.9705649878667 # Ar
298 298 1 0.0 542.2914487156098 689.0010482457993 103.9888502969797 # Ar
299 299 1 0.0 460.1488740348288 618.9363843916524 575.8836198462479 # Ar
300 300 1 0.0 120.3153519167219 103.20272344412562 64.99724042876734 # Ar
301 301 1 0.0 807.1694013706018 49.06746079593525 319.4058214953437 # Ar
302 302 1 0.0 204.30666275825254 45.45746190123988 282.47894532293935 # Ar
303 303 1 0.0 402.9363910731925 714.4901038743146 127.44432678977161 # Ar
304 304 1 0.0 710.186809517557 129.76940116011772 212.5536259008022 # Ar
305 305 1 0.0 420.64579492884627 757.9989385316524 202.69873515940105 # Ar
306 306 1 0.0 331.75533662679277 567.1824131002159 339.9763769989081 # Ar
307 307 1 0.0 709.154438016146 421.31412997434506 811.329614629253 # Ar
308 308 1 0.0 414.4921197840455 113.97893263198445 626.1033400919733 # Ar
309 309 1 0.0 74.12309545888453 534.3407468602443 734.8633269554529 # Ar
310 310 1 0.0 414.29019752082957 323.7370209150228 487.705487937067 # Ar
311 311 1 0.0 465.693478007747 751.7447528297286 604.4103186519651 # Ar
312 312 1 0.0 120.22360201088708 128.46130380705094 373.8629596334522 # Ar
313 313 1 0.0 360.2060290986799 355.2753311301889 142.8119271484276 # Ar
314 314 1 0.0 253.32689614302478 562.6687604920443 716.7083527109157 # Ar
315 315 1 0.0 25.922757467286164 271.65128109660156 333.13856297106554 # Ar
316 316 1 0.0 644.780113020415 45.15041101467354 275.02749558037425 # Ar
317 317 1 0.0 520.7280065924209 43.979130850647216 369.5267944442381 # Ar
318 318 1 0.0 660.6862937177664 437.5132873843497 630.7606293323788 # Ar
319 319 1 0.0 721.7632013662062 104.50629045662859 191.81431385802267 # Ar
320 320 1 0.0 29.076449382364515 684.7078198163788 169.2484510305601 # Ar
321 321 1 0.0 322.9061751503047 639.3130544477706 654.1094034576751 # Ar
322 322 1 0.0 810.5055922544946 586.9830724039673 192.028473610235 # Ar
323 323 1 0.0 141.30419855074663 129.11233382619815 299.8679939544055 # Ar
324 324 1 0.0 251.88414901970904 580.0264493909265 267.1530646155957 # Ar
325 325 1 0.0 241.39552775273845 460.35908838099925 533.5000625635184 # Ar
326 326 1 0.0 4.645911953570447 106.63847252155993 784.10828403381 # Ar
327 327 1 0.0 83.50180721866177 59.9744556135217 349.9403975875016 # Ar
328 328 1 0.0 386.7821387493178 334.2120611963903 697.496329285259 # Ar
329 329 1 0.0 408.9515761077393 510.91638665456003 631.8449864586618 # Ar
330 330 1 0.0 330.36970558549746 108.28582166574931 150.25771139511718 # Ar
331 331 1 0.0 341.369546289598 168.36508418127252 268.4126699724271 # Ar
332 332 1 0.0 178.11110688698363 597.4172837229827 457.73878152348306 # Ar
333 333 1 0.0 540.1850833243834 11.96582831001541 315.1360784465287 # Ar
334 334 1 0.0 183.50152554735405 449.4105307089021 814.7380226660613 # Ar
335 335 1 0.0 474.57909122318654 687.0670145073044 442.43655443639665 # Ar
336 336 1 0.0 755.2778757419471 799.5672513101327 426.0548305075782 # Ar
337 337 1 0.0 205.11087887412756 157.2183381957831 498.57796433330304 # Ar
338 338 1 0.0 53.290867188985104 174.24674971432083 622.098492042491 # Ar
339 339 1 0.0 548.321755468894 358.939874534411 146.1213510276426 # Ar
340 340 1 0.0 764.390867831845 16.39566757705321 37.2845445567572 # Ar
341 341 1 0.0 15.689739348535612 480.9115425535751 296.8192834170724 # Ar
342 342 1 0.0 572.5423242319065 428.1456044904861 498.8912961239156 # Ar
343 343 1 0.0 816.6147105470308 613.5738790990746 32.85083523551483 # Ar
344 344 1 0.0 256.86618781117994 23.589972228924765 495.69605368434617 # Ar
345 345 1 0.0 720.410024472288 1.6762679469980375 138.5735366262013 # Ar
346 346 1 0.0 275.94861187510026 614.871263654067 96.55749684214113 # Ar
347 347 1 0.0 487.3649023829538 84.13036305469981 81.81177518206066 # Ar
348 348 1 0.0 40.71155641980369 34.71317301543004 470.177359858653 # Ar
349 349 1 0.0 787.8402086254588 245.16186532200777 667.3009786173718 # Ar
350 350 1 0.0 736.6485472230167 765.7364121960578 482.896309241237 # Ar
351 351 1 0.0 523.7229419000556 798.0227522300106 90.78261918779472 # Ar
352 352 1 0.0 98.55239212126926 617.4503684301119 302.9014914058193 # Ar
353 353 1 0.0 695.5608950014608 790.1768275378149 555.9313405601305 # Ar
354 354 1 0.0 17.04897003768888 643.5811980622115 15.547778040591437 # Ar
355 355 1 0.0 173.66848677062407 472.03650771002407 637.6647289890199 # Ar
356 356 1 0.0 336.5095111558754 498.9111498250314 545.874587098078 # Ar
357 357 1 0.0 813.0462734250445 433.94692716936135 433.25276823948553 # Ar
358 358 1 0.0 567.5355602617213 324.3212536408639 739.445099621396 # Ar
359 359 1 0.0 577.4126385339341 781.8568678484128 81.85083416761917 # Ar
360 360 1 0.0 236.2264931827619 422.40328023759685 324.7834966376576 # Ar
361 361 1 0.0 467.0719068950591 719.9601358459295 47.115646470912466 # Ar
362 362 1 0.0 307.4828151867351 520.9758097099145 598.9070514760853 # Ar
363 363 1 0.0 32.56122528377686 569.0859902712468 402.81072088328017 # Ar
364 364 1 0.0 357.77981652894175 292.8070032385383 249.655284068827 # Ar
365 365 1 0.0 62.92923023252775 178.36350257140597 607.4962298252036 # Ar
366 366 1 0.0 74.73433105743463 150.84609868811492 260.7035046996367 # Ar
367 367 1 0.0 10.094374601434055 419.33871810153187 22.559484805340926 # Ar
368 368 1 0.0 226.90874693608666 620.0881725610578 108.26396845852497 # Ar
369 369 1 0.0 87.88730978909756 205.51381774010662 283.1679688370037 # Ar
370 370 1 0.0 642.7400076051597 268.2339196711721 231.0303087329091 # Ar
371 371 1 0.0 707.3943113605973 359.3815290495756 388.48909468187264 # Ar
372 372 1 0.0 346.54100624893766 69.11048434127198 811.8344447704845 # Ar
373 373 1 0.0 535.7433509865471 351.4831731373573 224.65444522578352 # Ar
374 374 1 0.0 627.8396976018788 589.6197110732821 36.47520773861414 # Ar
375 375 1 0.0 806.3763078641579 99.4899544927687 524.4447252821369 # Ar
376 376 1 0.0 761.9759317689371 748.003533337508 701.5304245081942 # Ar
377 377 1 0.0 809.731821334213 734.4686400282352 700.1757363891297 # Ar
378 378 1 0.0 362.23193175028973 32.32071591062376 294.04255956988794 # Ar
379 379 1 0.0 646.0418917506014 311.60128121151075 580.4548032830412 # Ar
380 380 1 0.0 523.7454014792037 634.0757974555324 489.0530120684605 # Ar
381 381 1 0.0 701.8799667939647 26.764686115389864 50.042166942676516 # Ar
382 382 1 0.0 731.0479456462654 248.24825903447257 317.9479943888033 # Ar
383 383 1 0.0 409.73436792298116 567.0561363005447 47.330401122552765 # Ar
384 384 1 0.0 789.5164855374783 631.7256829982825 342.5700423333827 # Ar
385 385 1 0.0 716.3098604624415 113.09895259859282 377.05494472812677 # Ar
386 386 1 0.0 316.2101969668518 491.12542811751797 547.8749866442688 # Ar
387 387 1 0.0 352.615517900724 39.965005845599606 94.54909638971488 # Ar
388 388 1 0.0 805.1830925816935 738.77043642684 433.66145897877294 # Ar
389 389 1 0.0 204.5050704194537 167.99103225095473 132.74453154898129 # Ar
390 390 1 0.0 529.0798130302787 642.2666615478388 316.45137927610443 # Ar
391 391 1 0.0 712.0358916457202 245.02097660979945 162.0263524820108 # Ar
392 392 1 0.0 494.0681919786566 714.5520844539965 423.51167473206186 # Ar
393 393 1 0.0 626.1728070281894 133.41744024606544 64.92831507288027 # Ar
394 394 1 0.0 112.3566433382006 560.7790920357794 77.04230629485363 # Ar
395 395 1 0.0 321.5181347792618 493.59340675156693 441.8398269664673 # Ar
396 396 1 0.0 297.503427322272 735.3976936229351 384.29098049968013 # Ar
397 397 1 0.0 629.0684061169247 21.45718530075431 214.30360867597312 # Ar
398 398 1 0.0 34.90961723045643 513.2890195057157 724.5746174924099 # Ar
399 399 1 0.0 571.764100231024 42.221426758742 202.24430925590067 # Ar
400 400 1 0.0 736.8115848151083 533.2735673323173 213.24451545903094 # Ar
401 401 1 0.0 277.6337676824261 340.99955358467344 630.0099076893454 # Ar
402 402 1 0.0 662.3174325009703 770.3346894412645 495.6511508727899 # Ar
403 403 1 0.0 762.5078144793516 420.6118137323473 546.7561693854259 # Ar
404 404 1 0.0 596.77877208127 661.5866866776194 45.473841496386626 # Ar
405 405 1 0.0 640.5730150768513 710.6795226785547 330.5357113662201 # Ar
406 406 1 0.0 813.5406413896992 117.93233943266165 802.1922382150772 # Ar
407 407 1 0.0 388.67835791802133 389.9942473823498 270.88989806721656 # Ar
408 408 1 0.0 619.9135650504478 542.7846245120976 338.6128750699248 # Ar
409 409 1 0.0 487.1403731402044 484.0707449869123 82.30215472412114 # Ar
410 410 1 0.0 161.74271984105917 252.0954756513069 569.3242534384692 # Ar
411 411 1 0.0 161.74117398641155 714.6511068814273 655.122364196208 # Ar
412 412 1 0.0 54.434825156772085 553.145272321173 22.00445937602531 # Ar
413 413 1 0.0 410.61066243832846 816.7260739312908 707.7269918357638 # Ar
414 414 1 0.0 459.75738048139914 292.30603712178186 784.995161564357 # Ar
415 415 1 0.0 537.8167620103482 713.2054066987765 755.6202489986383 # Ar
416 416 1 0.0 677.4240613357277 270.7029932198986 660.5478480505445 # Ar
417 417 1 0.0 158.76914544522333 115.02408127380488 398.84607708863626 # Ar
418 418 1 0.0 566.9859109142793 483.9451254346235 772.1004404449454 # Ar
419 419 1 0.0 520.5652895512394 226.89642692192348 83.18595312395195 # Ar
420 420 1 0.0 560.7230655381376 128.0768304310091 483.73136663852256 # Ar
421 421 1 0.0 589.3252207782514 93.39640655700978 810.7629914802897 # Ar
422 422 1 0.0 279.63597757147784 561.7153361592955 440.25670449150596 # Ar
423 423 1 0.0 464.45075756230636 716.4651465586855 399.46355178499454 # Ar
424 424 1 0.0 358.0077713917231 490.2884227975377 790.1834296706404 # Ar
425 425 1 0.0 489.59398132311384 429.84417342728307 656.8815259391979 # Ar
426 426 1 0.0 378.8983010643481 404.91592492437746 510.42588916367174 # Ar
427 427 1 0.0 285.7576083328192 815.4738838659288 147.14465286135467 # Ar
428 428 1 0.0 158.98954668141926 620.6986783676178 366.23394212107416 # Ar
429 429 1 0.0 272.17694968354033 143.24750725784327 561.8284471073039 # Ar
430 430 1 0.0 462.79818179464024 390.6087194195582 622.6003664644767 # Ar
431 431 1 0.0 82.85986371650299 165.5015666669629 724.6024575615792 # Ar
432 432 1 0.0 328.4181904793202 365.49927449751357 227.81214684320577 # Ar
433 433 1 0.0 709.1852334758906 659.5177874092748 274.87249254070076 # Ar
434 434 1 0.0 123.82064986508686 339.4557462322112 657.2722234827539 # Ar
435 435 1 0.0 264.39348916501655 102.34173699901174 415.8487250538761 # Ar
436 436 1 0.0 356.24185591217264 357.6403581502059 181.58373269533712 # Ar
437 437 1 0.0 67.67985501289496 551.9338978237622 284.6828036352319 # Ar
438 438 1 0.0 536.5515909532019 318.18559122744415 92.85212684081823 # Ar
439 439 1 0.0 658.8032806820764 783.0314639073354 222.88933959044672 # Ar
440 440 1 0.0 390.93509710304943 423.1769171632568 769.3549966293449 # Ar
441 441 1 0.0 224.43485338501634 182.67533721538638 462.7484959416033 # Ar
442 442 1 0.0 481.0260214095053 776.6727639708586 782.1503080013911 # Ar
443 443 1 0.0 412.67073202505395 161.99557391854876 197.97598118971385 # Ar
444 444 1 0.0 39.62095909788341 626.6337179050828 429.2089129408603 # Ar
445 445 1 0.0 376.23815297483577 260.16968386157185 45.40662356875738 # Ar
446 446 1 0.0 573.8497871990534 264.2953498992996 798.1917336983901 # Ar
447 447 1 0.0 203.84636930811862 811.2155082551683 122.89027213486838 # Ar
448 448 1 0.0 628.5071014708716 261.3943481706799 174.69952227907143 # Ar
449 449 1 0.0 559.1658645928006 7.270531203640242 131.38978336438848 # Ar
450 450 1 0.0 635.212672691758 211.3802393984286 525.7236217268118 # Ar
451 451 1 0.0 226.72912610684534 592.4511764383743 605.3445056455864 # Ar
452 452 1 0.0 737.9202304215742 495.4898185674578 251.3439383859446 # Ar
453 453 1 0.0 475.37852672643555 33.41826342587299 231.34370474361702 # Ar
454 454 1 0.0 97.04160207125959 73.7775526593511 597.8718449720641 # Ar
455 455 1 0.0 290.66708209586193 501.2342035241975 437.3361286500441 # Ar
456 456 1 0.0 368.7061166200381 781.4652296242097 575.4312045941045 # Ar
457 457 1 0.0 739.4781603966519 654.9988180578013 317.23505860841294 # Ar
458 458 1 0.0 678.2679319896546 206.7604985056576 183.91957997271123 # Ar
459 459 1 0.0 653.2064904923002 494.3123822226177 94.12281213073446 # Ar
460 460 1 0.0 272.6677730036927 165.0777159228083 657.207362511889 # Ar
461 461 1 0.0 210.15781965749068 602.0397691360655 587.635141454549 # Ar
462 462 1 0.0 397.5862269488712 683.1571973045296 328.2614400155754 # Ar
463 463 1 0.0 788.5394842494836 563.0735000754444 206.71663675103727 # Ar
464 464 1 0.0 786.0958305319217 662.612163951037 412.9589170323086 # Ar
465 465 1 0.0 687.1556677321822 302.2912300991616 483.41625933296297 # Ar
466 466 1 0.0 263.1791273533303 394.769747439042 185.15386667932665 # Ar
467 467 1 0.0 504.699687836357 268.02989473308253 796.4698826830302 # Ar
468 468 1 0.0 378.0233394642864 678.5309543652351 118.79107726598723 # Ar
469 469 1 0.0 127.28121631406225 433.8620085202268 667.603345208429 # Ar
470 470 1 0.0 380.662461275515 165.85290347335385 785.5642860378766 # Ar
471 471 1 0.0 256.42653656234177 456.4620290271116 273.5006362264864 # Ar
472 472 1 0.0 17.537886781579115 0.2916728772108666 182.18132729993997 # Ar
473 473 1 0.0 4.641084921669543 449.155752553509 687.8328188061956 # Ar
474 474 1 0.0 263.83687146540706 551.2892225712881 227.45398474989153 # Ar
475 475 1 0.0 166.8649241045299 128.396656399785 162.6411235193333 # Ar
476 476 1 0.0 465.50380704380296 100.45300209265241 784.0376695035387 # Ar
477 477 1 0.0 142.73518823241812 477.47134722468473 333.23017133258645 # Ar
478 478 1 0.0 474.1608142240109 293.27695727302546 453.5689672763575 # Ar
479 479 1 0.0 92.20104818708377 110.95288112600703 782.0242094745818 # Ar
480 480 1 0.0 589.8491964610458 634.5029643554485 210.04368071875183 # Ar
481 481 1 0.0 718.834548622826 321.1967717158384 801.738242509603 # Ar
482 482 1 0.0 636.944955335603 586.2748883615075 796.2928751274351 # Ar
483 483 1 0.0 362.274708236366 215.8351895693559 11.121913794283167 # Ar
484 484 1 0.0 363.5231492179571 78.49229858837691 330.59541451317676 # Ar
485 485 1 0.0 226.55020067558564 754.7857870385008 576.84058293248 # Ar
486 486 1 0.0 321.6559528098539 716.5711597380496 226.8997157422246 # Ar
487 487 1 0.0 788.669045388463 576.9460673403634 125.50867070508215 # Ar
488 488 1 0.0 348.4353537699171 442.8115222495054 142.19646417411943 # Ar
489 489 1 0.0 442.69288859407266 559.4857885519987 89.53916900307007 # Ar
490 490 1 0.0 515.4624015822499 700.8265885840428 340.404281209639 # Ar
491 491 1 0.0 474.5092326439694 48.451272425740555 17.949836170395585 # Ar
492 492 1 0.0 569.57749091314 295.6310137553371 697.4557090026527 # Ar
493 493 1 0.0 336.0924495717561 262.4027988736899 142.87507710619818 # Ar
494 494 1 0.0 281.04539024605464 322.86065636172174 635.7744795324099 # Ar
495 495 1 0.0 46.9561596506771 306.10105970191717 249.48971833427677 # Ar
496 496 1 0.0 514.19545368319 391.6450474192388 31.111444172061226 # Ar
497 497 1 0.0 358.8684004872612 375.95806751909925 422.6499542205393 # Ar
498 498 1 0.0 642.8860921726025 245.12431490002973 718.5474424224639 # Ar
499 499 1 0.0 287.6740747421111 428.34291823939634 33.238681319006716 # Ar
500 500 1 0.0 42.01298326715852 506.1482910945438 0.989818128170862 # Ar
501 501 1 0.0 63.89815761717872 176.38160325743524 729.1091240267292 # Ar
502 502 1 0.0 772.0928623451373 587.0505499439838 598.7429559714673 # Ar
503 503 1 0.0 452.9499415300418 754.2906954327026 303.4696847431789 # Ar
504 504 1 0.0 378.45025736463896 509.91201482642015 680.9911729948703 # Ar
505 505 1 0.0 408.0469852305024 367.7863224088211 333.934497775472 # Ar
506 506 1 0.0 398.9946997963847 775.8528189602664 45.338246838476174 # Ar
507 507 1 0.0 44.78344412409199 439.0087062475114 513.583240034857 # Ar
508 508 1 0.0 178.52594207259202 590.2545383277505 284.3628703954613 # Ar
509 509 1 0.0 324.3531089878496 66.13959093073491 32.15526399306034 # Ar
510 510 1 0.0 736.1092906317592 200.89972706961044 169.96390759636463 # Ar
511 511 1 0.0 508.29598359588687 777.5433458479217 233.11416103666403 # Ar
512 512 1 0.0 449.39298575874994 106.03748344086627 201.83121251892243 # Ar
513 513 1 0.0 541.8392437273301 26.483562138045624 43.79824548755809 # Ar
514 514 1 0.0 75.15660030431431 128.95092788175427 99.65681085005102 # Ar
515 515 1 0.0 469.57279378798177 112.54340185352015 784.4091269617157 # Ar
516 516 1 0.0 649.2538279244311 201.6120535667511 308.9561775180969 # Ar
517 517 1 0.0 718.7846192717884 425.9712659303293 764.4436670371468 # Ar
518 518 1 0.0 275.17598939051567 616.2818478766313 317.69724551477975 # Ar
519 519 1 0.0 798.2866848827668 640.447037627034 0.9154592988863277 # Ar
520 520 1 0.0 747.8854911990782 12.350567042508334 456.43418346227287 # Ar
521 521 1 0.0 5.553457499059231 790.8122297957497 58.84536804011337 # Ar
522 522 1 0.0 325.901702030999 723.2800793136286 686.6888278710727 # Ar
523 523 1 0.0 331.5074856061771 253.35715986302887 283.68985207031767 # Ar
524 524 1 0.0 281.41389494818003 504.50420472803603 204.43787076033104 # Ar
525 525 1 0.0 790.7018733944717 129.20504202909925 70.90157596333205 # Ar
526 526 1 0.0 66.02771723958104 660.8411110165642 598.7579335981442 # Ar
527 527 1 0.0 752.9125877196229 213.381337813529 97.14402402309695 # Ar
528 528 1 0.0 167.02001409778438 456.62701005626025 599.8247582900846 # Ar
529 529 1 0.0 36.200803389683074 623.3541716763591 533.6805108189386 # Ar
530 530 1 0.0 754.9024677900256 325.03262463453257 193.5078018687296 # Ar
531 531 1 0.0 143.28169554578446 439.54548374208923 92.46198201561691 # Ar
532 532 1 0.0 757.9753066356091 751.909687644285 63.471160838304904 # Ar
533 533 1 0.0 158.5489299025148 337.96759997697364 445.2840654603841 # Ar
534 534 1 0.0 208.01797512606998 628.6234129857189 654.1007717709381 # Ar
535 535 1 0.0 480.1524667608111 182.7248932039761 154.0764464040322 # Ar
536 536 1 0.0 29.755944839235664 23.610153243315573 258.79584167769696 # Ar
537 537 1 0.0 236.81300100618594 447.2917688295681 692.8893688261323 # Ar
538 538 1 0.0 467.19221732803186 474.45703166605904 60.600873502918105 # Ar
539 539 1 0.0 694.2996708630548 808.7667051092185 642.8059912389323 # Ar
540 540 1 0.0 691.9574728695446 369.84513004091576 134.33142718647565 # Ar
541 541 1 0.0 700.6261347835016 216.8414273173975 249.13594747790765 # Ar
542 542 1 0.0 146.66749830555898 289.0198568066609 567.9224861840488 # Ar
543 543 1 0.0 765.8344131317974 731.2213121958515 459.4011710132579 # Ar
544 544 1 0.0 490.5945458023712 398.96932181493565 683.2368557664512 # Ar
545 545 1 0.0 182.99359789179996 43.973280951236816 697.1849049681039 # Ar
546 546 1 0.0 174.71652560015897 189.15386558476655 342.07297568997564 # Ar
547 547 1 0.0 804.0395355583297 605.3861527601238 637.9099844543202 # Ar
548 548 1 0.0 206.82015917769561 691.5642461353823 384.60509369326985 # Ar
549 549 1 0.0 725.758566054951 685.1108227958612 638.2245925989396 # Ar
550 550 1 0.0 276.63159062286684 116.1676288941442 795.8224683021992 # Ar
551 551 1 0.0 11.252786493420427 741.1040607205707 501.3317547447879 # Ar
552 552 1 0.0 278.19005496223167 579.3897194855472 328.23397300442434 # Ar
553 553 1 0.0 778.3551246129144 331.1966948546547 603.2501171219055 # Ar
554 554 1 0.0 732.670394206844 703.6980386556443 234.15161375212352 # Ar
555 555 1 0.0 707.5489994608823 768.8166177699707 784.6692880283518 # Ar
556 556 1 0.0 404.59409130424433 457.09073966885387 766.8097672462883 # Ar
557 557 1 0.0 57.13812224645945 81.48208833908562 401.2118995183127 # Ar
558 558 1 0.0 132.6653109375404 812.0768663650732 24.56196333112774 # Ar
559 559 1 0.0 795.0369443986713 407.2745344956454 416.87882299665574 # Ar
560 560 1 0.0 615.9623451023855 381.1890113981753 430.41730040685405 # Ar
561 561 1 0.0 369.0341354289652 575.7563882772117 696.5990316911215 # Ar
562 562 1 0.0 590.841573205803 309.848779501405 334.68048835604304 # Ar
563 563 1 0.0 128.85044264841326 458.05829340867814 639.1286849569499 # Ar
564 564 1 0.0 310.53185671038926 226.37136148723437 51.36539382240224 # Ar
565 565 1 0.0 270.52654686444424 694.8100979780505 590.8736603594758 # Ar
566 566 1 0.0 263.0309777996526 379.40865137536116 424.1371161795298 # Ar
567 567 1 0.0 276.15509762609054 737.6716509654185 560.3829411904553 # Ar
568 568 1 0.0 146.14614233603461 392.6582510640752 651.5653552852067 # Ar
569 569 1 0.0 55.05993469558029 632.4056864870546 640.5725973827539 # Ar
570 570 1 0.0 285.5885729076814 347.13246626646065 340.9637663591027 # Ar
571 571 1 0.0 637.7777845783593 175.74123672986985 141.26142336008584 # Ar
572 572 1 0.0 811.2403017939291 317.461376158704 451.2652674997029 # Ar
573 573 1 0.0 397.9611087638848 705.8121772538315 497.67609294026107 # Ar
574 574 1 0.0 684.3763696683228 131.8148015197824 700.0635410337767 # Ar
575 575 1 0.0 272.70030653016767 419.5918551020301 193.15421931418174 # Ar
576 576 1 0.0 335.93071405253465 715.8257204815757 792.3880314886482 # Ar
577 577 1 0.0 77.66267035740078 608.1555538514617 350.6670184776258 # Ar
578 578 1 0.0 345.1633765619316 264.7064478644136 4.4483042344782024 # Ar
579 579 1 0.0 317.6066245928109 362.1469129089827 86.83023143372623 # Ar
580 580 1 0.0 529.9028641305147 309.76012125794506 414.4688177853382 # Ar
581 581 1 0.0 22.287619171633498 572.5762656820455 185.59815347340339 # Ar
582 582 1 0.0 718.1685959331378 723.1577994887599 379.8138396868737 # Ar
583 583 1 0.0 524.1325922876439 642.8014041129629 532.577486621118 # Ar
584 584 1 0.0 263.9348076796459 661.5703266637194 305.2876549123643 # Ar
585 585 1 0.0 253.90489386767476 597.0062625844197 89.72290707876228 # Ar
586 586 1 0.0 606.1593611475013 240.10482585143734 385.0370117045642 # Ar
587 587 1 0.0 809.2970606437699 662.0737635581637 22.202775135623874 # Ar
588 588 1 0.0 306.57691466498136 409.54844236165707 150.52043537456296 # Ar
589 589 1 0.0 800.9508882983934 549.431194809417 99.11243805191079 # Ar
590 590 1 0.0 209.7518334926928 93.83865569700701 777.5588106723983 # Ar
591 591 1 0.0 678.6511928623859 710.9271019873952 648.2092591509427 # Ar
592 592 1 0.0 31.946337312261903 202.19138882142875 42.424669119616304 # Ar
593 593 1 0.0 144.6057776903302 298.7482395525936 87.33111239493651 # Ar
594 594 1 0.0 20.341614498861055 448.9929544004937 737.0808989929777 # Ar
595 595 1 0.0 749.3552782379091 630.1979132594837 91.270294543715 # Ar
596 596 1 0.0 674.2001101440997 460.0980554716141 766.525829245919 # Ar
597 597 1 0.0 91.6230433404877 76.2919853746637 487.57348691160485 # Ar
598 598 1 0.0 615.5530231093954 715.9966815572418 442.3081665922082 # Ar
599 599 1 0.0 409.6035881381849 364.55901078039255 607.4128457802099 # Ar
600 600 1 0.0 757.2662619326605 801.0850705441644 779.4113266551659 # Ar
601 601 1 0.0 370.7636687415538 567.8108257638406 26.995886044468364 # Ar
602 602 1 0.0 604.7992144062534 807.0623298531141 509.02968437431207 # Ar
603 603 1 0.0 363.7071663998688 240.71718651542074 815.288739694355 # Ar
604 604 1 0.0 466.18190759073354 574.3221125660673 245.5951750339532 # Ar
605 605 1 0.0 467.853110674046 320.29536946735874 158.3933873029644 # Ar
606 606 1 0.0 461.08610626997125 279.29372539052105 462.73268429888617 # Ar
607 607 1 0.0 57.327724825225324 397.7018072076542 685.7061391735255 # Ar
608 608 1 0.0 286.66345620747006 686.1666886905743 82.97791825599714 # Ar
609 609 1 0.0 316.0800415905605 511.29786489068414 689.8004705662988 # Ar
610 610 1 0.0 710.793341923892 224.3129029863781 468.0460887054963 # Ar
611 611 1 0.0 329.7012000389024 670.4148414322559 563.0465548426868 # Ar
612 612 1 0.0 91.71020813188467 711.2360511742681 307.69402824519943 # Ar
613 613 1 0.0 308.9674877709017 91.33375715727422 280.70446551735074 # Ar
614 614 1 0.0 484.26224066484485 408.8914694717666 189.88258705694372 # Ar
615 615 1 0.0 559.3774043688376 583.9730162081048 30.120339010839825 # Ar
616 616 1 0.0 512.3867856192159 367.5675030043889 120.10619392565047 # Ar
617 617 1 0.0 779.5883195061172 790.1302060383806 505.52270199806327 # Ar
618 618 1 0.0 212.1954722647635 690.3377407432064 440.39833597929123 # Ar
619 619 1 0.0 408.0106382968726 75.823667610896 784.788444886924 # Ar
620 620 1 0.0 739.9667013003277 255.33417028139948 492.0080208397365 # Ar
621 621 1 0.0 782.6893525189778 695.8461758551609 468.3960574493903 # Ar
622 622 1 0.0 230.13971907061443 70.93115056639648 546.1209444288133 # Ar
623 623 1 0.0 213.4166765838009 303.32404432471077 149.5926600065988 # Ar
624 624 1 0.0 245.9376545635765 406.6248607169182 485.23113261477835 # Ar
625 625 1 0.0 808.7677625656254 757.6337809348063 654.3780194050612 # Ar
626 626 1 0.0 1.6590722615138478 651.2763638923811 476.4472046197543 # Ar
627 627 1 0.0 583.7495700844148 59.07077516856834 382.95189435420593 # Ar
628 628 1 0.0 172.02809891102424 447.6341682441852 518.4458319397507 # Ar
629 629 1 0.0 597.4698405052296 405.62175984726525 95.89156905643459 # Ar
630 630 1 0.0 218.7532450210983 163.50086952994104 339.6268205340399 # Ar
631 631 1 0.0 458.2601280373615 790.7432241513986 495.33499398612116 # Ar
632 632 1 0.0 451.1346653767536 328.0355337893763 653.5759404185243 # Ar
633 633 1 0.0 307.50346104772933 492.9287555395008 37.570544664191054 # Ar
634 634 1 0.0 646.092010247047 233.90767909908936 6.709320617688014 # Ar
635 635 1 0.0 229.4001640025859 104.73902417198349 704.3781475496671 # Ar
636 636 1 0.0 109.14111047186202 805.3453567726377 467.23873810900506 # Ar
637 637 1 0.0 202.2100662420712 171.83160599383868 225.23253186235414 # Ar
638 638 1 0.0 325.5428525701692 183.9162951428455 13.508636429377582 # Ar
639 639 1 0.0 56.24693617536686 138.37279983539645 535.4343581602053 # Ar
640 640 1 0.0 324.27702445694644 238.98480010388693 229.44253353002736 # Ar
641 641 1 0.0 463.03546650502375 525.5502059373165 572.6301864593577 # Ar
642 642 1 0.0 12.984261807036287 696.7392221916846 365.4137149561722 # Ar
643 643 1 0.0 540.1730738695412 481.136419192153 423.37855207070146 # Ar
644 644 1 0.0 753.7852976287402 101.4686677967372 431.6201442860627 # Ar
645 645 1 0.0 440.13866542119104 707.6634216641928 93.27495299277429 # Ar
646 646 1 0.0 117.39325449237974 535.837885794768 233.30825234012158 # Ar
647 647 1 0.0 261.77526602897257 590.4495414813719 277.58420684751513 # Ar
648 648 1 0.0 250.16889847082834 702.3120202787424 608.1296243242266 # Ar
649 649 1 0.0 470.9186536913868 637.5082892966201 761.9428788089854 # Ar
650 650 1 0.0 697.1394978446538 721.2801124273512 601.2673283481487 # Ar
651 651 1 0.0 486.04250587853204 500.040929513377 427.53246683796414 # Ar
652 652 1 0.0 220.45712360358766 379.0333757637994 170.17756560065894 # Ar
653 653 1 0.0 340.8486769736336 240.13308569785335 306.8268243825647 # Ar
654 654 1 0.0 437.62361722501623 617.7201588854333 257.87701432281557 # Ar
655 655 1 0.0 272.03466262597897 778.4321074594848 450.47131460610126 # Ar
656 656 1 0.0 400.49411122320066 31.18021113762059 650.0315990475109 # Ar
657 657 1 0.0 117.07070606295692 315.1468350101812 248.98527058206918 # Ar
658 658 1 0.0 559.1014962910502 62.905654751970374 185.02688996161123 # Ar
659 659 1 0.0 113.96574003334219 615.790264524654 578.790179001948 # Ar
660 660 1 0.0 805.2511061585949 580.6628520602162 217.86631113957955 # Ar
661 661 1 0.0 272.1489436045439 487.2062928471362 395.6132103043235 # Ar
662 662 1 0.0 379.81914173883456 668.186562639523 435.5948523592996 # Ar
663 663 1 0.0 434.3098461673532 324.1859291975525 235.28827962451697 # Ar
664 664 1 0.0 260.4613482474044 112.1385935753442 29.091976971933647 # Ar
665 665 1 0.0 303.7537194260046 291.93099151950514 745.07700160808 # Ar
666 666 1 0.0 560.5567107410874 179.10223230219756 46.44832911369923 # Ar
667 667 1 0.0 417.80065641172826 80.21714656455227 479.38875315388043 # Ar
668 668 1 0.0 308.28626354905356 625.3879010737761 485.7699586872922 # Ar
669 669 1 0.0 669.4061479177926 308.13985017701515 474.98247707149886 # Ar
670 670 1 0.0 724.8767849409627 377.95655574236076 422.36721120345413 # Ar
671 671 1 0.0 772.5613134758601 149.89211973199977 244.55568444663558 # Ar
672 672 1 0.0 682.3419179055496 169.34622773494766 568.080642990515 # Ar
673 673 1 0.0 599.0576391963814 624.8700352497463 202.19236011039695 # Ar
674 674 1 0.0 210.82423929970093 265.92497436446354 3.4492916715047137 # Ar
675 675 1 0.0 722.8861208115238 220.92771323495685 243.3375000688755 # Ar
676 676 1 0.0 645.927147726066 277.010313645993 637.425390974356 # Ar
677 677 1 0.0 257.585406290675 145.4200825442645 257.060349056513 # Ar
678 678 1 0.0 530.9026643098384 407.59357823793874 78.66509101162099 # Ar
679 679 1 0.0 590.6343193080723 713.7447128359496 398.2011620544671 # Ar
680 680 1 0.0 297.2829150024431 616.9095688415243 274.3335483170083 # Ar
681 681 1 0.0 126.93708696712477 624.7885044837248 804.7246233653029 # Ar
682 682 1 0.0 87.50483291483324 794.4915980781536 639.316658665167 # Ar
683 683 1 0.0 84.88284311554307 423.50229302144527 37.46233019044037 # Ar
684 684 1 0.0 66.27141146383357 196.186529531811 257.8592025082111 # Ar
685 685 1 0.0 292.4807465999696 522.8960801011339 33.11570642273658 # Ar
686 686 1 0.0 635.1281785474247 488.43551356988013 132.59510057536997 # Ar
687 687 1 0.0 368.70357152925965 631.1520077709947 133.0000212447066 # Ar
688 688 1 0.0 649.0577543300277 273.72748186739324 743.6943345012658 # Ar
689 689 1 0.0 141.34775652066938 125.32177500188479 370.9803330017503 # Ar
690 690 1 0.0 79.95964797216978 717.636499269991 805.9983362258588 # Ar
691 691 1 0.0 728.4728910067981 646.0962175106415 442.6328153300614 # Ar
692 692 1 0.0 133.8029058087847 697.2399040169078 673.9615042936066 # Ar
693 693 1 0.0 130.0583851965359 774.6263689549631 750.2562161016224 # Ar
694 694 1 0.0 532.3157635766863 724.1278536766673 559.6426437629905 # Ar
695 695 1 0.0 84.31810076012506 776.3324610291414 717.4696342458842 # Ar
696 696 1 0.0 261.2819754479919 758.7628525361032 90.92792422377859 # Ar
697 697 1 0.0 563.9768669273677 677.7264508100161 71.43857438726268 # Ar
698 698 1 0.0 506.23922306560337 586.0089880606424 328.2994914161159 # Ar
699 699 1 0.0 43.479735532687236 138.0157291748996 78.29747263032644 # Ar
700 700 1 0.0 155.3671718320772 65.44280946080345 146.030671136803 # Ar
701 701 1 0.0 56.33011311418403 516.5129414309383 584.4645680882817 # Ar
702 702 1 0.0 504.9665503745961 729.8304425697196 178.62945971614977 # Ar
703 703 1 0.0 558.2752670068994 597.9334006257385 724.9300265693394 # Ar
704 704 1 0.0 188.5548151322995 511.2663186362936 816.592591739225 # Ar
705 705 1 0.0 781.7062237207687 780.5431683393874 59.603500028227664 # Ar
706 706 1 0.0 163.03884225452583 417.8868706029034 786.3164261898244 # Ar
707 707 1 0.0 753.0942188364437 615.9644578945199 305.16606563224934 # Ar
708 708 1 0.0 596.5430383292666 77.26780777011285 474.59134691798886 # Ar
709 709 1 0.0 228.3634832540167 530.490010495447 654.1561140142825 # Ar
710 710 1 0.0 94.06921065866744 178.45946871123897 238.08775165931485 # Ar
711 711 1 0.0 510.6735545600249 503.7595427591483 604.6459377333409 # Ar
712 712 1 0.0 78.2660698117632 705.7746863562843 345.84216086366183 # Ar
713 713 1 0.0 366.56018290304763 483.0658192378917 658.6920898016933 # Ar
714 714 1 0.0 17.989317212086878 150.85142591055364 807.2354788381459 # Ar
715 715 1 0.0 64.8113274578582 478.84428497847307 419.47940942018323 # Ar
716 716 1 0.0 786.337260343401 10.035389935081446 310.8731746281803 # Ar
717 717 1 0.0 710.9076846478223 388.26400523040144 671.7146711065112 # Ar
718 718 1 0.0 173.47221179726344 302.1171575584183 34.36356157968461 # Ar
719 719 1 0.0 519.1302793567381 291.39568369446596 650.4305834613641 # Ar
720 720 1 0.0 471.208939309915 44.82401594419637 529.950819131321 # Ar
721 721 1 0.0 799.824513484185 221.5005116907673 205.1296244121066 # Ar
722 722 1 0.0 615.3941625899093 39.864368544017594 31.795220044944955 # Ar
723 723 1 0.0 47.35309502142116 541.452727480851 620.1107324244483 # Ar
724 724 1 0.0 20.651756885860664 9.448422890639971 7.589058722575528 # Ar
725 725 1 0.0 295.81319960362805 420.077293749322 486.81238372861174 # Ar
726 726 1 0.0 271.6840667570293 799.2181794465339 454.03413162666845 # Ar
727 727 1 0.0 341.78746739633044 426.1970289718916 591.0064534157179 # Ar
728 728 1 0.0 495.58647461630227 345.05719510629274 653.9534194244707 # Ar
729 729 1 0.0 809.08066535651 65.5025486045931 335.67061308696 # Ar
730 730 1 0.0 64.2344662640978 362.1564310443061 254.6304898084942 # Ar
731 731 1 0.0 580.2466756821694 121.9028016120807 604.0417911827981 # Ar
732 732 1 0.0 289.5794889516311 389.54950025398233 73.820285537185 # Ar
733 733 1 0.0 112.7669789110782 580.1914409997919 230.11201046004254 # Ar
734 734 1 0.0 689.161425560012 413.0467724228304 774.6095827575691 # Ar
735 735 1 0.0 98.21711392139798 365.073651788789 411.8792557022698 # Ar
736 736 1 0.0 212.0495631935735 567.0219882558589 573.5827223037472 # Ar
737 737 1 0.0 488.8659975101588 587.0694844612191 20.69066235687212 # Ar
738 738 1 0.0 498.66385746593124 105.31184388809768 723.7331185687043 # Ar
739 739 1 0.0 322.5884679783828 517.8237751447701 485.5863731933953 # Ar
740 740 1 0.0 598.8141148839807 568.3834423210862 413.01488919592265 # Ar
741 741 1 0.0 770.5617514407413 92.17271015060228 484.54791798074024 # Ar
742 742 1 0.0 332.80621223740184 510.2850445747877 773.3605542446604 # Ar
743 743 1 0.0 756.5345879848759 693.8573374206491 634.1463644146818 # Ar
744 744 1 0.0 517.6472765894604 347.79644203961794 590.5566521532072 # Ar
745 745 1 0.0 498.65820210772296 155.5051427925208 384.305626076774 # Ar
746 746 1 0.0 177.35192636676675 423.0777864484565 493.1066159203353 # Ar
747 747 1 0.0 710.4673093526548 408.102910350695 646.3074344203079 # Ar
748 748 1 0.0 700.3029081436259 208.10780679018254 207.8433786306712 # Ar
749 749 1 0.0 374.08670526379666 335.667316020044 260.62747196259073 # Ar
750 750 1 0.0 448.44796387000565 109.79175528154788 191.16232519844849 # Ar
751 751 1 0.0 495.3299357399444 246.52814233869063 539.3176757977436 # Ar
752 752 1 0.0 395.94226103029996 799.2369242443107 67.20586910251215 # Ar
753 753 1 0.0 340.0713880481687 372.6674261127091 252.98982406080927 # Ar
754 754 1 0.0 274.73634860408686 135.11065171159927 351.5457224519632 # Ar
755 755 1 0.0 354.9557062634546 297.2145653851771 183.13961271376502 # Ar
756 756 1 0.0 252.24518212727736 429.2786559949876 567.4881403670755 # Ar
757 757 1 0.0 595.4340729318277 411.36645698507994 456.78446377934665 # Ar
758 758 1 0.0 132.120916853879 91.87522475594358 479.11825359556735 # Ar
759 759 1 0.0 511.8973188381755 809.5677644524438 503.3210021172279 # Ar
760 760 1 0.0 266.68455430783507 749.7330396099836 591.0463779053008 # Ar
761 761 1 0.0 585.7420365852562 385.8929764281684 586.6588170779618 # Ar
762 762 1 0.0 525.6903456644187 570.6364034443898 312.0089963225948 # Ar
763 763 1 0.0 718.1361647250194 214.65817753037206 155.30992714892665 # Ar
764 764 1 0.0 813.9962319454783 748.7331150966828 235.0902657524046 # Ar
765 765 1 0.0 153.05407654777082 163.73634121266903 810.3621818039028 # Ar
766 766 1 0.0 203.8945221499333 90.09639099939734 285.744393430455 # Ar
767 767 1 0.0 581.3845027336007 29.785363924177105 523.2362088128376 # Ar
768 768 1 0.0 191.82811323198015 461.0237382930899 18.40210783881341 # Ar
769 769 1 0.0 593.9093412502426 309.8412533130854 477.18457900979644 # Ar
770 770 1 0.0 635.5640569365577 715.3255178705148 414.8267245088485 # Ar
771 771 1 0.0 122.5255957153932 473.7425037491522 227.6968698424902 # Ar
772 772 1 0.0 57.28772317031956 432.8241538758066 29.225617068297492 # Ar
773 773 1 0.0 629.4820284391875 698.0239144643535 506.5825456499068 # Ar
774 774 1 0.0 618.8669430237015 92.11171118839516 525.1696317486037 # Ar
775 775 1 0.0 735.1954523377422 146.77696209572477 174.4940529770907 # Ar
776 776 1 0.0 414.76384046420503 84.65687587267277 719.5535306163986 # Ar
777 777 1 0.0 745.8806912085681 309.51915133909864 669.4760085823169 # Ar
778 778 1 0.0 723.2492475722677 734.4235550657567 64.74696624456789 # Ar
779 779 1 0.0 510.36162897847896 232.4523064305026 362.50076504281446 # Ar
780 780 1 0.0 22.032852711547502 233.34423925701108 711.489305946358 # Ar
781 781 1 0.0 458.7146295843262 428.81604708206845 740.2282878234023 # Ar
782 782 1 0.0 259.3408823942928 371.09389730521497 425.503920198952 # Ar
783 783 1 0.0 222.22200239331292 521.0586208725582 776.8842274080582 # Ar
784 784 1 0.0 487.8232035052603 678.1468598559198 95.03314543567514 # Ar
785 785 1 0.0 428.29974415703936 33.372615382965606 213.33938605846276 # Ar
786 786 1 0.0 207.151419240742 486.41668864572733 68.56776984099211 # Ar
787 787 1 0.0 744.5410151909399 221.41482184772494 48.96955934706871 # Ar
788 788 1 0.0 31.56647022510864 547.377824482983 333.66046543474073 # Ar
789 789 1 0.0 438.8501916709615 20.347420768306204 777.5823906167224 # Ar
790 790 1 0.0 229.4381527662917 298.00731707925894 52.84856501352228 # Ar
791 791 1 0.0 195.200099183463 595.290826569099 799.2010774692495 # Ar
792 792 1 0.0 335.4227124789413 226.9621809154132 739.0405601473947 # Ar
793 793 1 0.0 250.31218619469612 515.1027247520105 389.6414404514159 # Ar
794 794 1 0.0 405.8241704664314 162.91703924905764 706.1793409619008 # Ar
795 795 1 0.0 290.24187030795355 587.7834800904869 325.387450736756 # Ar
796 796 1 0.0 421.51687055361083 160.13244298176087 711.3599104161775 # Ar
797 797 1 0.0 795.0202845625063 637.1153793688932 137.30897601490287 # Ar
798 798 1 0.0 150.62210415304614 748.7475237168221 64.77916498775464 # Ar
799 799 1 0.0 526.1604209927186 235.08022454728834 503.4715017820344 # Ar
800 800 1 0.0 814.7281297370679 384.8262645021636 351.3930124039402 # Ar
801 801 1 0.0 158.00886385272304 285.55792031531496 754.9426198792139 # Ar
802 802 1 0.0 754.5367190677146 47.01590681360517 325.4454125955348 # Ar
803 803 1 0.0 743.2604953816732 370.14240678014875 474.33723943710066 # Ar
804 804 1 0.0 175.75435073998747 530.6950152804604 720.4032283981243 # Ar
805 805 1 0.0 474.82481835245363 310.0350236934335 42.265580803322976 # Ar
806 806 1 0.0 403.1918661410239 272.2765457875488 227.5840614487566 # Ar
807 807 1 0.0 380.513824345498 164.8812166021841 141.89646521043605 # Ar
808 808 1 0.0 218.38196351190982 49.49344069262333 103.41868109692425 # Ar
809 809 1 0.0 94.32962652748643 153.7394485014168 663.2524424298591 # Ar
810 810 1 0.0 278.13874749923576 783.0968107091772 701.4667446926779 # Ar
811 811 1 0.0 157.67763843136575 374.1727659645649 93.88881021524378 # Ar
812 812 1 0.0 490.5817971447675 353.31165204156395 637.4086789860022 # Ar
813 813 1 0.0 378.56471172235206 440.1503705874406 483.0040076412149 # Ar
814 814 1 0.0 344.8400322715365 235.09317360258248 600.3902094075413 # Ar
815 815 1 0.0 797.8468349264849 355.8152328076861 813.8020931423737 # Ar
816 816 1 0.0 140.21048037461279 524.4887491042058 25.179645010160137 # Ar
817 817 1 0.0 84.48361220868907 810.5985776874059 305.1703183961285 # Ar
818 818 1 0.0 438.3480252174819 501.1521735811072 567.051152248964 # Ar
819 819 1 0.0 40.62352414482438 515.487961539659 83.44288097185556 # Ar
820 820 1 0.0 427.595410891333 585.4334114451137 453.0778238295923 # Ar
821 821 1 0.0 560.9385428457234 326.30317542592627 109.50604161934245 # Ar
822 822 1 0.0 382.79413763248135 356.46369771065963 172.7897454935601 # Ar
823 823 1 0.0 698.3844550644106 500.64359233619143 195.90168651650532 # Ar
824 824 1 0.0 304.60836637617297 768.073808945143 576.8061018095116 # Ar
825 825 1 0.0 115.90294481313049 620.372162933466 42.71103286592044 # Ar
826 826 1 0.0 143.04024043812254 569.3656761329019 702.0436152029037 # Ar
827 827 1 0.0 287.3280409165139 276.5921644457736 1.0964721572595386 # Ar
828 828 1 0.0 777.4142753964517 401.1927214060748 485.5102771870118 # Ar
829 829 1 0.0 175.92274226110504 232.14360303373255 715.3464314123808 # Ar
830 830 1 0.0 37.48919542702713 369.0199735459579 429.3433060642278 # Ar
831 831 1 0.0 243.8040788487834 791.5758395717716 265.48712917743717 # Ar
832 832 1 0.0 567.4482160647543 185.23920991511903 504.72479774013493 # Ar
833 833 1 0.0 221.59657248441087 696.0856792654138 219.60625212977925 # Ar
834 834 1 0.0 72.5714392466 611.2498871449549 791.3080990304202 # Ar
835 835 1 0.0 713.0180533319483 514.0121740729918 631.0079986197787 # Ar
836 836 1 0.0 703.4274318012679 279.56821031929917 522.1819118414435 # Ar
837 837 1 0.0 418.61637309941733 137.36477673722695 309.2625630477654 # Ar
838 838 1 0.0 739.2226446055195 467.76241608563964 376.36803065840087 # Ar
839 839 1 0.0 679.9235788091761 341.8002159676796 444.2738594088277 # Ar
840 840 1 0.0 497.62380115025854 803.4646802602559 695.3328478487688 # Ar
841 841 1 0.0 598.0494094243311 25.18430871881571 341.5420115311234 # Ar
842 842 1 0.0 811.8803307452663 26.327507576537684 586.6368862353951 # Ar
843 843 1 0.0 74.45942626955086 680.0001490712164 482.9927524401998 # Ar
844 844 1 0.0 648.8475431059077 110.94144435606903 789.7896265014541 # Ar
845 845 1 0.0 427.708606798421 674.5974920705783 491.8528343486582 # Ar
846 846 1 0.0 722.5661919767672 264.0846448636801 84.43972395399024 # Ar
847 847 1 0.0 379.84109622882823 339.70768760082603 778.6519509782615 # Ar
848 848 1 0.0 124.9282780627107 237.4081037868682 596.0972978148004 # Ar
849 849 1 0.0 47.38075684218104 346.8528111368472 352.2588090193373 # Ar
850 850 1 0.0 426.9394104210132 292.5774399203549 645.5273944808883 # Ar
851 851 1 0.0 286.28980418069074 302.9417465430447 583.6462143335427 # Ar
852 852 1 0.0 727.0556526634562 358.60177030559134 373.1618214872107 # Ar
853 853 1 0.0 518.2529699965228 34.32989928552305 275.14605222610487 # Ar
854 854 1 0.0 324.16132656287687 96.0041373223534 810.3653148341933 # Ar
855 855 1 0.0 668.7663512408329 514.8211632215769 503.69562664582384 # Ar
856 856 1 0.0 560.0883378721763 428.320581628871 618.4972516175285 # Ar
857 857 1 0.0 663.771003607991 336.5687994481057 707.0332852034792 # Ar
858 858 1 0.0 43.593208673065284 413.27608193241315 575.1837454870359 # Ar
859 859 1 0.0 24.120218275027995 139.26793288250488 521.9791661007354 # Ar
860 860 1 0.0 743.2147400115199 279.2946544121236 489.3615586676135 # Ar
861 861 1 0.0 602.0949682818145 122.22872150645354 458.94309412318364 # Ar
862 862 1 0.0 306.81133303684135 779.7553691094245 658.3433221348809 # Ar
863 863 1 0.0 258.6880568388497 391.1258555207496 115.75095888774757 # Ar
864 864 1 0.0 722.9582215323026 354.55416297600607 130.02314365898735 # Ar
865 865 1 0.0 113.6436048231787 785.257192141773 455.1474891928076 # Ar
866 866 1 0.0 377.2431324039246 321.96296039761984 570.802003020912 # Ar
867 867 1 0.0 459.9787184780082 188.4476857625572 506.5610069732647 # Ar
868 868 1 0.0 62.869769086711145 308.1219686141929 754.1247647939281 # Ar
869 869 1 0.0 44.51976800062964 518.4934639109656 37.72207593345123 # Ar
870 870 1 0.0 583.1330951235185 575.610383111491 417.7905972952483 # Ar
871 871 1 0.0 85.10851769238499 331.3060942412679 266.80813877430813 # Ar
872 872 1 0.0 422.7700473727304 389.14148193735485 271.9350483265965 # Ar
873 873 1 0.0 420.5759582438058 89.20490004583743 28.03608323772862 # Ar
874 874 1 0.0 765.2631261936176 122.20244526253758 51.57096452341796 # Ar
875 875 1 0.0 421.1726589227721 545.2762345619907 633.3550278509673 # Ar
876 876 1 0.0 650.4275503820948 434.7923306777969 57.10033341893718 # Ar
877 877 1 0.0 84.70388733959663 309.9820131254227 800.1215269350475 # Ar
878 878 1 0.0 212.17992523354428 40.79746678913898 471.86500645198174 # Ar
879 879 1 0.0 708.452706806793 71.59250276667952 264.0223831035923 # Ar
880 880 1 0.0 501.6067834236158 337.16390378408454 754.7700503913812 # Ar
881 881 1 0.0 512.550390609255 363.57299333164843 746.6051223357563 # Ar
882 882 1 0.0 52.889907477274335 689.6318979471926 310.6499333835105 # Ar
883 883 1 0.0 223.15117985733926 281.92589023152766 535.9432845085856 # Ar
884 884 1 0.0 48.66868487074623 252.78172677716316 537.9485737504551 # Ar
885 885 1 0.0 389.3026797630025 245.49441296913088 206.8925484662046 # Ar
886 886 1 0.0 760.3079954983261 245.66663488265908 531.4999951992111 # Ar
887 887 1 0.0 490.5572765418574 32.585685085326766 66.76869376958324 # Ar
888 888 1 0.0 83.21282828183199 342.07810680508607 454.47230296630516 # Ar
889 889 1 0.0 39.866611774003175 167.9542932122559 668.0815322465892 # Ar
890 890 1 0.0 71.55091842420809 113.23760649039322 619.731370196281 # Ar
891 891 1 0.0 437.6297837296696 372.87337840283624 125.014980774259 # Ar
892 892 1 0.0 646.0861141459061 772.7404808957907 706.6417676358387 # Ar
893 893 1 0.0 242.37852011743735 495.8172265926977 363.6202615839839 # Ar
894 894 1 0.0 15.865480980291423 398.0412281093904 349.9547884656138 # Ar
895 895 1 0.0 147.16211592831266 511.4776599698167 132.3867719395825 # Ar
896 896 1 0.0 29.627374106265734 684.2518108368786 564.7840748214174 # Ar
897 897 1 0.0 342.32639681663375 300.58555714979093 696.4530797924949 # Ar
898 898 1 0.0 811.2730141383194 576.9472713522368 282.51024587035505 # Ar
899 899 1 0.0 15.475018864933448 402.97570500085413 650.7237384125508 # Ar
900 900 1 0.0 395.8544944175655 643.7451195205613 334.9247831250462 # Ar
901 901 1 0.0 70.53978704933454 40.56436035860836 609.6039977922999 # Ar
902 902 1 0.0 628.2112087391778 759.3006195770633 122.38560006046237 # Ar
903 903 1 0.0 601.9074247083385 259.0391273240087 54.73362702607346 # Ar
904 904 1 0.0 219.66163234184512 213.31088915805083 508.2412250969321 # Ar
905 905 1 0.0 625.2050878319828 151.18077954144812 522.9300755146165 # Ar
906 906 1 0.0 321.06282040863636 138.54854158431843 24.24446361135464 # Ar
907 907 1 0.0 178.254751054238 683.1696449782809 762.4711648557876 # Ar
908 908 1 0.0 753.1390046813907 69.98939266135183 742.0621445700411 # Ar
909 909 1 0.0 305.38453048951783 363.81534217135055 222.940823346042 # Ar
910 910 1 0.0 499.54921242707053 747.6835048824912 259.9061353451323 # Ar
911 911 1 0.0 65.99075154248783 74.02193990737784 1.0795909932698453 # Ar
912 912 1 0.0 363.12295235779266 766.549798517462 679.4378106307321 # Ar
913 913 1 0.0 442.6043951050838 136.34915737004815 146.83861527143335 # Ar
914 914 1 0.0 323.0151235536632 665.3438369665458 52.719086608980426 # Ar
915 915 1 0.0 739.1014584733684 202.16779195527494 780.8079056704222 # Ar
916 916 1 0.0 178.79110807509716 300.0760666575316 763.860767891002 # Ar
917 917 1 0.0 793.092843202522 484.1013191878524 23.30334330831586 # Ar
918 918 1 0.0 516.2007073782898 475.29562133161585 457.7772041552589 # Ar
919 919 1 0.0 623.2648506655709 305.720514804216 463.5087030556664 # Ar
920 920 1 0.0 89.54306270130685 179.6237746736945 140.55228562474161 # Ar
921 921 1 0.0 395.64525842807706 688.3633948102756 774.4911632723072 # Ar
922 922 1 0.0 306.9410478271049 328.98342253594564 549.159081343802 # Ar
923 923 1 0.0 608.8769626443855 38.98132177800992 336.2973675837812 # Ar
924 924 1 0.0 111.8918733538572 359.7060131161379 703.0448973115448 # Ar
925 925 1 0.0 456.84448772585955 639.8163848970423 268.6456483245279 # Ar
926 926 1 0.0 614.7410866448738 119.95928439522928 37.9770815599074 # Ar
927 927 1 0.0 530.9052096526423 574.4036582438637 3.8044487252331 # Ar
928 928 1 0.0 523.8897615792284 278.1882146567262 290.5002843871062 # Ar
929 929 1 0.0 80.18836310157245 395.68528592728353 553.3441211845427 # Ar
930 930 1 0.0 248.71419516313966 437.13115102212225 42.35939221862967 # Ar
931 931 1 0.0 581.2853595850061 675.0012514532464 210.12529285382925 # Ar
932 932 1 0.0 667.2730630147695 630.4461733949373 672.1247559108805 # Ar
933 933 1 0.0 134.6999841199097 651.1910073770043 27.922048651302603 # Ar
934 934 1 0.0 36.40884659406616 318.4138105556477 453.50337731368677 # Ar
935 935 1 0.0 725.808571008878 89.24816725377995 767.2619397847875 # Ar
936 936 1 0.0 195.05107715608037 203.75550318301393 641.4493264363309 # Ar
937 937 1 0.0 311.1825454830483 337.4462082777125 175.19162854497017 # Ar
938 938 1 0.0 519.79327600469 182.2209337798302 785.4700950694166 # Ar
939 939 1 0.0 742.3906271476951 447.5723550431886 452.78223955243584 # Ar
940 940 1 0.0 309.7497467323194 352.93448501288793 468.32841807552217 # Ar
941 941 1 0.0 498.5026829741951 703.9766137534918 791.2935151137316 # Ar
942 942 1 0.0 617.8929354442517 129.01887823184614 322.81790239313204 # Ar
943 943 1 0.0 254.45898436949633 523.1714202646134 581.8388254380455 # Ar
944 944 1 0.0 558.2048034888409 318.2344717465004 335.7211397726601 # Ar
945 945 1 0.0 786.2493249836482 617.9296694105528 269.4068640837763 # Ar
946 946 1 0.0 515.5171846206669 396.921268131484 130.73639029992648 # Ar
947 947 1 0.0 637.0714141220403 343.8411278272535 262.475402175118 # Ar
948 948 1 0.0 4.5981905237810095 253.85376282574177 737.7294641290051 # Ar
949 949 1 0.0 666.1037335649451 806.2757071602974 38.312217009854315 # Ar
950 950 1 0.0 770.7250727517281 445.69932847317233 215.15930020766388 # Ar
951 951 1 0.0 616.8604601117981 159.49371468258016 119.13197901354313 # Ar
952 952 1 0.0 174.47580783297173 97.46529124664667 130.49075573778003 # Ar
953 953 1 0.0 492.3223071748064 808.0225954618353 172.4762471240368 # Ar
954 954 1 0.0 15.12263490097967 111.03238758358943 537.0263469794753 # Ar
955 955 1 0.0 38.33899964093835 772.019357769005 154.47432297965997 # Ar
956 956 1 0.0 454.46632296996125 30.03078887388705 440.365269726087 # Ar
957 957 1 0.0 42.670401334614155 353.9873967903936 235.00611982983816 # Ar
958 958 1 0.0 5.755324890799354 668.621711872982 567.638781938375 # Ar
959 959 1 0.0 580.4130523102995 633.3927712828362 543.5235227671909 # Ar
960 960 1 0.0 802.5737250444405 581.1997388249167 154.84738714398733 # Ar
961 961 1 0.0 323.33310692478284 769.9893525826047 368.7580369660933 # Ar
962 962 1 0.0 413.91138272884433 530.1575675869982 722.1562646038635 # Ar
963 963 1 0.0 337.6302609220548 676.3306825716937 0.1218917218802613 # Ar
964 964 1 0.0 243.2305984879195 503.5951296043957 88.2917164504133 # Ar
965 965 1 0.0 59.11535249219558 250.33629409634005 811.389136539088 # Ar
966 966 1 0.0 143.64727049480578 84.67148968295176 406.631327448215 # Ar
967 967 1 0.0 520.1063167208798 351.1908772732732 313.14173667571134 # Ar
968 968 1 0.0 136.83081786362436 410.64096053974805 208.5316921427656 # Ar
969 969 1 0.0 408.95922997822356 637.0173962246164 587.7255550382532 # Ar
970 970 1 0.0 536.2077370044391 661.5867387170067 144.94004221792858 # Ar
971 971 1 0.0 278.15115362908995 242.51256978630087 29.091934031071407 # Ar
972 972 1 0.0 506.4030585721184 712.9975959813203 666.9872401166723 # Ar
973 973 1 0.0 425.5170716160428 518.9631859348339 451.43024393093873 # Ar
974 974 1 0.0 365.2542195116991 613.4087777828212 814.2989965267094 # Ar
975 975 1 0.0 655.4489197957831 344.0830070688595 538.3022840019823 # Ar
976 976 1 0.0 243.92172571718862 66.21685032421823 149.82080847923683 # Ar
977 977 1 0.0 608.7011170211664 537.8248583625465 429.993137326785 # Ar
978 978 1 0.0 720.1834368672337 99.01196993848696 223.51468253087384 # Ar
979 979 1 0.0 813.866496604819 395.62457949939454 394.9498786355781 # Ar
980 980 1 0.0 310.9529714622405 811.8159345343506 698.7908131764297 # Ar
981 981 1 0.0 505.4558997581484 816.0502550835859 71.75097871054372 # Ar
982 982 1 0.0 43.59702478914151 89.26180236650488 118.14771853016082 # Ar
983 983 1 0.0 169.93736784830028 624.448017961933 443.5437432704939 # Ar
984 984 1 0.0 711.3681964805664 521.7359459969118 228.06578924254444 # Ar
985 985 1 0.0 303.2685548644112 259.08281157465365 457.0653218161667 # Ar
986 986 1 0.0 771.6596058285597 352.6619998934528 148.6147330292533 # Ar
987 987 1 0.0 137.64058013595795 206.80002452650112 576.3628130240925 # Ar
988 988 1 0.0 639.8139777922097 257.74774330488003 153.26783451265786 # Ar
989 989 1 0.0 553.0597500335231 618.6531886986328 424.70422520693745 # Ar
990 990 1 0.0 749.9455163317283 669.7615483032027 37.47943685512353 # Ar
991 991 1 0.0 335.90544169315496 284.36083314988895 163.86532370091885 # Ar
992 992 1 0.0 322.8775418981534 356.6225407385273 64.9755540859759 # Ar
993 993 1 0.0 462.95649543909644 52.70393513874655 448.9754969287608 # Ar
994 994 1 0.0 745.9298273601169 169.24683868481472 255.769264258784 # Ar
995 995 1 0.0 674.9732125523647 778.7355216420727 287.08593678912285 # Ar
996 996 1 0.0 525.8002467319658 690.7533598439965 786.5406652029986 # Ar
997 997 1 0.0 299.6091689588718 375.05875782531444 582.2298838749197 # Ar
998 998 1 0.0 191.93202033375042 267.34990853030547 143.76530820816748 # Ar
999 999 1 0.0 644.5552658860839 176.45164213171577 361.0738614470159 # Ar
1000 1000 1 0.0 658.305179955383 616.2007156065046 379.11134950368006 # Ar
1001 1001 1 0.0 552.4003188732437 173.24267130720452 423.52549519929426 # Ar
1002 1002 1 0.0 428.13431356995875 294.5215725381682 18.835637060545135 # Ar
1003 1003 1 0.0 48.81961320825807 104.23880987777723 204.03028971726286 # Ar
1004 1004 1 0.0 171.89434091418292 130.55709159093587 614.6417131932832 # Ar
1005 1005 1 0.0 142.79581453255454 77.70852629784682 716.6636259506373 # Ar
1006 1006 1 0.0 154.69239179069845 170.5699598875712 156.2195809115969 # Ar
1007 1007 1 0.0 539.49567877767 365.7146419057823 413.3329675425707 # Ar
1008 1008 1 0.0 39.72680257222826 750.3068770657317 374.0409783741967 # Ar
1009 1009 1 0.0 168.3908905826562 726.486160770561 623.5442044673321 # Ar
1010 1010 1 0.0 270.1152010407412 437.4053918945237 768.7576001485102 # Ar
1011 1011 1 0.0 547.3241918358704 257.1258280369647 338.504506239408 # Ar
1012 1012 1 0.0 340.28917103906537 720.0575676896246 18.06645602275173 # Ar
1013 1013 1 0.0 267.3722691107638 476.73640162922686 94.53384263372976 # Ar
1014 1014 1 0.0 469.13786988159575 540.3228802566832 170.35234823286493 # Ar
1015 1015 1 0.0 562.394727186896 340.09323748379404 87.14555661768354 # Ar
1016 1016 1 0.0 468.420675412822 28.401996414990318 475.8365708260432 # Ar
1017 1017 1 0.0 230.51395227592076 622.6044832069014 364.33759320244667 # Ar
1018 1018 1 0.0 757.715877951246 638.789235508517 434.48802372066916 # Ar
1019 1019 1 0.0 372.1497339425979 245.38848313554408 807.5801457498449 # Ar
1020 1020 1 0.0 325.1146694368653 518.6798759967195 99.81932491602565 # Ar
1021 1021 1 0.0 64.3049024113104 327.860580921831 568.0993217585533 # Ar
1022 1022 1 0.0 179.1958739960876 596.8662054791367 85.75871131497246 # Ar
1023 1023 1 0.0 306.3707781163255 8.234170919364965 632.343698617674 # Ar
1024 1024 1 0.0 777.418189414639 477.0233463128084 257.7703624592352 # Ar
1025 1025 1 0.0 626.3094038390383 626.5892352555479 184.2012416181704 # Ar
1026 1026 1 0.0 757.4548299823175 140.98696341431202 442.87697024078267 # Ar
1027 1027 1 0.0 528.9025975332888 585.063092588661 525.8382907728202 # Ar
1028 1028 1 0.0 532.9398323839085 638.0149579137402 437.49132077108715 # Ar
1029 1029 1 0.0 541.2905168922111 434.5192199477423 697.1575007281126 # Ar
1030 1030 1 0.0 103.10518095695055 603.8387180425266 546.4482588941653 # Ar
1031 1031 1 0.0 681.1001470295389 199.20292597421883 20.733990772256437 # Ar
1032 1032 1 0.0 690.2854830442122 153.66058930726226 247.05889334574067 # Ar
1033 1033 1 0.0 134.36151429197616 556.9226686711061 778.1534058638241 # Ar
1034 1034 1 0.0 606.3789810690904 132.3843869235002 620.3636402205708 # Ar
1035 1035 1 0.0 650.0598390348687 171.55325762723012 813.910748776252 # Ar
1036 1036 1 0.0 165.52181800716275 430.436183504057 572.3841598684585 # Ar
1037 1037 1 0.0 774.5311625304564 139.18742529902144 34.88333744929368 # Ar
1038 1038 1 0.0 700.9239842306919 306.9647664577837 379.0904393211024 # Ar
1039 1039 1 0.0 57.878292160332 328.7419303584773 560.8750773117584 # Ar
1040 1040 1 0.0 436.52401093942416 707.6298604233841 6.56764455585573 # Ar
1041 1041 1 0.0 769.3892020841449 79.4436334311727 790.8300864996406 # Ar
1042 1042 1 0.0 621.816898550388 353.0804791500294 400.41948361537385 # Ar
1043 1043 1 0.0 439.1985070854173 500.817656776787 19.79846002977764 # Ar
1044 1044 1 0.0 351.40603821149546 410.8307973329401 416.0123456994275 # Ar
1045 1045 1 0.0 634.5367079583594 214.55659467920162 8.896595269476155 # Ar
1046 1046 1 0.0 209.85160585679606 526.184764507331 668.2454765924334 # Ar
1047 1047 1 0.0 644.4273070051098 450.6249327468202 610.1111490226695 # Ar
1048 1048 1 0.0 582.270806240235 258.471424222618 50.13507846184863 # Ar
1049 1049 1 0.0 102.98245509952712 512.7586579223545 20.131693520143397 # Ar
1050 1050 1 0.0 183.1712266393261 410.6923828527677 56.554388094054325 # Ar
1051 1051 1 0.0 374.23768615651557 711.0603759884763 100.04643681946604 # Ar
1052 1052 1 0.0 292.8125352380087 111.93180632741826 530.728762932501 # Ar
1053 1053 1 0.0 314.63149501884726 375.80634188479195 348.0076353025441 # Ar
1054 1054 1 0.0 152.88884110352615 299.8206131220391 814.8909021476924 # Ar
1055 1055 1 0.0 276.40330403655594 714.5753780309643 56.802771187905726 # Ar
1056 1056 1 0.0 494.2360300857808 120.60439570785823 327.40033537212406 # Ar
1057 1057 1 0.0 368.10636943469837 727.5819225340591 690.4749933169716 # Ar
1058 1058 1 0.0 695.9029206174364 104.26136323075451 666.2067045624715 # Ar
1059 1059 1 0.0 792.713463760182 48.91228219851745 711.1551184455278 # Ar
1060 1060 1 0.0 418.36911244925517 804.0247855494416 297.8359645063202 # Ar
1061 1061 1 0.0 368.7796615259608 214.695405906624 334.1723807749694 # Ar
1062 1062 1 0.0 752.3835070296547 107.89685466813783 627.2366888063596 # Ar
1063 1063 1 0.0 792.9485536916153 457.80903248486067 51.59140306320794 # Ar
1064 1064 1 0.0 242.89427464978664 313.2392950040032 497.7006480982219 # Ar
1065 1065 1 0.0 346.39002954419897 338.6683984183142 677.8875366446777 # Ar
1066 1066 1 0.0 196.61456182837983 583.7623816457849 476.8553406928342 # Ar
1067 1067 1 0.0 495.52610751569733 413.3552907300339 561.7014587732539 # Ar
1068 1068 1 0.0 14.58767721627006 361.1713749183677 227.78439795594346 # Ar
1069 1069 1 0.0 231.88902426027718 193.83625297180683 596.9471617611196 # Ar
1070 1070 1 0.0 815.3251698684102 52.43397051443909 238.45759569352728 # Ar
1071 1071 1 0.0 438.111916277611 93.03328999082646 514.7912368172862 # Ar
1072 1072 1 0.0 802.2218520523663 55.036561721423915 645.2391029810607 # Ar
1073 1073 1 0.0 430.6812850333304 522.8284200594375 325.52475067597567 # Ar
1074 1074 1 0.0 34.473061891107015 550.6919336421585 43.886021214750805 # Ar
1075 1075 1 0.0 214.17602096417306 168.7655574033331 323.84783206792287 # Ar
1076 1076 1 0.0 796.103924069258 240.3838707461122 566.5295871221642 # Ar
1077 1077 1 0.0 67.36427233492796 706.437233316592 210.84687419606297 # Ar
1078 1078 1 0.0 353.7116866853767 422.0996127573031 103.18546048574565 # Ar
1079 1079 1 0.0 768.5861274788119 585.2078367308728 704.162784535591 # Ar
1080 1080 1 0.0 176.7376911464813 364.7223619984254 224.87406126654642 # Ar
1081 1081 1 0.0 769.8761583371461 61.792605868907636 404.01533979820573 # Ar
1082 1082 1 0.0 506.8972214630884 3.807138945613819 518.9871207220361 # Ar
1083 1083 1 0.0 153.32631891152522 282.31138148409565 421.5904421488604 # Ar
1084 1084 1 0.0 709.6259289727749 386.6850228317159 537.5985328729225 # Ar
1085 1085 1 0.0 386.16807347722255 341.58125521109434 63.176176490218744 # Ar
1086 1086 1 0.0 518.2572493532896 717.9680035761045 690.4405367485849 # Ar
1087 1087 1 0.0 280.91710761598284 267.3866045840085 811.8297436731854 # Ar
1088 1088 1 0.0 793.3570776515443 424.3081084895475 390.98528003454743 # Ar
1089 1089 1 0.0 617.0217977225428 787.49194849038 193.3112800674772 # Ar
1090 1090 1 0.0 177.12255162987228 160.20469367224487 714.161294933897 # Ar
1091 1091 1 0.0 121.78161268064422 504.5043956159639 255.3060520064392 # Ar
1092 1092 1 0.0 316.2786131644565 781.648670225356 468.06782421461094 # Ar
1093 1093 1 0.0 369.2357302632493 194.93681798322942 646.7280714582097 # Ar
1094 1094 1 0.0 321.2307717034869 175.66323724013745 88.44520415432504 # Ar
1095 1095 1 0.0 789.2226745888095 250.28324236719774 545.0777977599068 # Ar
1096 1096 1 0.0 9.950561266411851 669.5971671332657 740.5002070175111 # Ar
1097 1097 1 0.0 556.4052644786674 89.20286499717791 236.60809709482714 # Ar
1098 1098 1 0.0 486.0263421075876 357.11785864451684 765.3618031942732 # Ar
1099 1099 1 0.0 420.180531539531 263.13088196568737 110.50984153745321 # Ar
1100 1100 1 0.0 122.16428743290999 294.1758416542589 93.93308884557862 # Ar
1101 1101 1 0.0 554.5466949759546 790.3619585898855 238.68723766806767 # Ar
1102 1102 1 0.0 731.5545429335532 379.4998318921074 580.1870687645568 # Ar
1103 1103 1 0.0 430.5058886359327 419.99002969975635 569.9917300116243 # Ar
1104 1104 1 0.0 346.25077617807426 122.2837333758253 83.68871495292989 # Ar
1105 1105 1 0.0 330.195617211061 22.08165385984062 608.1963504217566 # Ar
1106 1106 1 0.0 553.6902611079631 11.413166759947178 258.66307073699227 # Ar
1107 1107 1 0.0 241.13364084597308 709.3369506011716 534.0217208769045 # Ar
1108 1108 1 0.0 722.021611793667 584.4650751971808 107.05255691511454 # Ar
1109 1109 1 0.0 237.38868514415768 141.96248872916635 799.495179397991 # Ar
1110 1110 1 0.0 591.2724891028657 225.73595259040374 728.1827345940507 # Ar
1111 1111 1 0.0 325.60117489655863 625.1197223820383 795.3241255910609 # Ar
1112 1112 1 0.0 779.517034351421 521.8599672119922 494.18231412586476 # Ar
1113 1113 1 0.0 36.40552092252437 140.37560212008245 329.1002658548252 # Ar
1114 1114 1 0.0 401.22956111402783 437.13998417668665 33.27011029400852 # Ar
1115 1115 1 0.0 741.8254128566962 188.90647941658304 7.320224179156557 # Ar
1116 1116 1 0.0 227.6634586876716 83.94403675277772 114.60608707877199 # Ar
1117 1117 1 0.0 230.03077369981898 385.7864317317948 497.25413373710495 # Ar
1118 1118 1 0.0 192.0479953929302 420.88080225538306 698.0882433164178 # Ar
1119 1119 1 0.0 411.6819305503476 811.4420455419585 183.35389411414184 # Ar
1120 1120 1 0.0 400.902540369 155.32271608511843 80.61939322924847 # Ar
1121 1121 1 0.0 187.68785231660416 784.0485624861474 569.1121181952581 # Ar
1122 1122 1 0.0 750.235461681534 798.7490401329328 534.8529246781459 # Ar
1123 1123 1 0.0 76.38301196672793 491.01036516357783 783.8838889270235 # Ar
1124 1124 1 0.0 765.3922445389327 539.2928850147202 560.8116832873922 # Ar
1125 1125 1 0.0 317.8662362209803 701.543185410824 376.1605879717466 # Ar
1126 1126 1 0.0 254.16615539772766 184.029772023631 213.3960786765189 # Ar
1127 1127 1 0.0 441.4383658440341 271.77045052105996 255.89442478300234 # Ar
1128 1128 1 0.0 536.6607554950361 409.0215431990191 283.9345694238079 # Ar
1129 1129 1 0.0 252.8129247064965 568.6634842645188 642.0005821061102 # Ar
1130 1130 1 0.0 37.9424545077508 431.20055798828264 134.31035519952687 # Ar
1131 1131 1 0.0 361.45048090136464 223.27136775228485 464.73786517086563 # Ar
1132 1132 1 0.0 338.2343864515858 207.68919686523938 516.725355369985 # Ar
1133 1133 1 0.0 465.59162700390596 324.22753521739276 354.7976473772718 # Ar
1134 1134 1 0.0 588.3485400187669 741.3370715585522 394.3346573572777 # Ar
1135 1135 1 0.0 676.7582404194941 382.4428153588094 552.3256205864519 # Ar
1136 1136 1 0.0 642.3772243523662 318.8808298093299 164.26354400597089 # Ar
1137 1137 1 0.0 119.4583213825639 225.6893083276449 679.9720923345049 # Ar
1138 1138 1 0.0 335.8564319361136 342.00995699804673 755.7108408290985 # Ar
1139 1139 1 0.0 684.4352945747809 664.6820919624076 120.5866857856684 # Ar
1140 1140 1 0.0 331.4782887700038 270.19140282831887 512.6453214291141 # Ar
1141 1141 1 0.0 272.2343500275016 632.1250538075989 262.9960451537513 # Ar
1142 1142 1 0.0 265.72291761845963 780.4340730383714 6.517853203964994 # Ar
1143 1143 1 0.0 101.1170492778548 755.0718050034243 698.245345060511 # Ar
1144 1144 1 0.0 765.7644492703951 435.35598848295825 201.6715793446116 # Ar
1145 1145 1 0.0 518.7756606096578 163.50760880732798 124.8976118215969 # Ar
1146 1146 1 0.0 751.6264420235904 778.9409917744483 603.6984855025815 # Ar
1147 1147 1 0.0 790.015381164039 388.2370343283469 106.66332322472147 # Ar
1148 1148 1 0.0 135.12010356283452 724.3375492206789 228.08116312035466 # Ar
1149 1149 1 0.0 178.62552786330693 426.3132263381347 635.3413787023561 # Ar
1150 1150 1 0.0 734.5775145704329 351.7788381536595 805.720028334147 # Ar
1151 1151 1 0.0 162.6019039145479 472.3222376481554 109.51088286509751 # Ar
1152 1152 1 0.0 708.0466510744432 69.60685894689742 117.39066878097731 # Ar
1153 1153 1 0.0 643.4940696944942 756.6308279533979 757.4290344848528 # Ar
1154 1154 1 0.0 13.391838983421266 703.4504097718245 514.4275619491029 # Ar
1155 1155 1 0.0 147.65325375574432 643.7805434990323 676.9387295813139 # Ar
1156 1156 1 0.0 150.9760151883754 447.75369273334627 32.26110707157571 # Ar
1157 1157 1 0.0 351.7324523630003 218.75963850609614 20.550389999029477 # Ar
1158 1158 1 0.0 48.813984532836606 382.52520395712503 635.4951515049014 # Ar
1159 1159 1 0.0 407.75801488577713 556.9090954397097 256.9864197733628 # Ar
1160 1160 1 0.0 794.5804352927365 77.93119920874518 716.7122784668248 # Ar
1161 1161 1 0.0 348.49014949826267 42.29097170544967 685.2287781936001 # Ar
1162 1162 1 0.0 96.6415804364512 185.69963531678647 602.7324704202548 # Ar
1163 1163 1 0.0 168.94801497909236 461.18955997840476 652.3110105426883 # Ar
1164 1164 1 0.0 152.946189527092 744.7106023801625 180.32658377911758 # Ar
1165 1165 1 0.0 473.3137464369847 592.6504906854201 324.0661773737072 # Ar
1166 1166 1 0.0 76.66835287201287 778.7683302345202 77.90304617051646 # Ar
1167 1167 1 0.0 509.31239532690876 177.29952671342087 236.845742063529 # Ar
1168 1168 1 0.0 634.2279522660147 500.814097067887 234.4106369250615 # Ar
1169 1169 1 0.0 155.86500413418514 350.9535034026777 449.0744664757717 # Ar
1170 1170 1 0.0 361.19210125597476 645.5163333017406 174.4639351692425 # Ar
1171 1171 1 0.0 653.59305786491 226.32365210644681 166.66828538934192 # Ar
1172 1172 1 0.0 138.0857988886128 150.9678185593568 323.7550792242717 # Ar
1173 1173 1 0.0 129.07238545118702 510.03635826162906 141.2303602700453 # Ar
1174 1174 1 0.0 414.64217039781596 292.0155411245955 513.1454787174182 # Ar
1175 1175 1 0.0 185.32696620731915 349.0734937172025 560.4660422459742 # Ar
1176 1176 1 0.0 236.87637257498116 772.3436239852622 81.00649940166377 # Ar
1177 1177 1 0.0 346.71463936143937 318.3203041702294 583.4553289818284 # Ar
1178 1178 1 0.0 806.3795970837209 549.4841184989106 2.1249177290935246 # Ar
1179 1179 1 0.0 810.972832844105 224.67771956707332 452.82538344839105 # Ar
1180 1180 1 0.0 488.2739107374829 369.81482356269015 784.8307224277061 # Ar
1181 1181 1 0.0 479.36238168929054 570.8041484210239 790.6425803589489 # Ar
1182 1182 1 0.0 183.9807072801805 298.9440938743435 811.913133910914 # Ar
1183 1183 1 0.0 170.3753386101679 779.7871017181644 590.2280086894185 # Ar
1184 1184 1 0.0 707.094298270245 670.3243100806843 328.37393704333357 # Ar
1185 1185 1 0.0 699.3808549862679 325.40879686720154 675.7115614161197 # Ar
1186 1186 1 0.0 123.51561831446374 560.8907515080084 354.6291830159286 # Ar
1187 1187 1 0.0 797.3829752342094 447.3792607945413 195.97057122010892 # Ar
1188 1188 1 0.0 24.29651319754536 467.7643934903117 243.42147734228726 # Ar
1189 1189 1 0.0 279.5757032240943 518.1781581405236 740.9052994591189 # Ar
1190 1190 1 0.0 160.06979717550172 18.84658158471561 363.6473010282885 # Ar
1191 1191 1 0.0 812.28687293479 56.658844391118684 507.0574333947312 # Ar
1192 1192 1 0.0 234.33730844016134 381.34558719466315 423.35825320588845 # Ar
1193 1193 1 0.0 474.93155839194543 18.49580419022598 328.62072592398187 # Ar
1194 1194 1 0.0 59.630823294360624 686.8860614533733 536.0265263680513 # Ar
1195 1195 1 0.0 96.26016984525994 216.96847753493373 717.4031139191699 # Ar
1196 1196 1 0.0 776.6640461821847 306.8133627236919 436.3951577651321 # Ar
1197 1197 1 0.0 786.5363862083327 284.4266252307139 525.5883918421509 # Ar
1198 1198 1 0.0 298.32852392473876 311.83193140749734 748.9046146491423 # Ar
1199 1199 1 0.0 523.1017374792548 322.12276176304744 812.6386194459674 # Ar
1200 1200 1 0.0 72.6736574197806 11.7676170715474 107.21589403446524 # Ar
1201 1201 1 0.0 359.77840053059134 697.5194885076656 648.8603399249631 # Ar
1202 1202 1 0.0 674.9319607571604 216.3751435302267 332.5838298384172 # Ar
1203 1203 1 0.0 379.9192927638392 481.339329987896 495.4301719696192 # Ar
1204 1204 1 0.0 590.5236168239084 367.95097663906796 82.55464408360649 # Ar
1205 1205 1 0.0 293.12946867605166 514.4584421901843 660.0720601578028 # Ar
1206 1206 1 0.0 738.427754928302 296.1346802022835 38.278554877623876 # Ar
1207 1207 1 0.0 322.45348098215294 349.5228113907696 4.2276404071894635 # Ar
1208 1208 1 0.0 27.25602429069324 165.54382933799135 52.964728848967574 # Ar
1209 1209 1 0.0 523.3526545162986 198.54831497005688 296.8825464477333 # Ar
1210 1210 1 0.0 40.20404396758339 241.1941789706383 369.1717890351969 # Ar
1211 1211 1 0.0 805.6677290528224 107.2764234833761 298.92737727481165 # Ar
1212 1212 1 0.0 615.6760313999335 160.3056752668185 380.16399361069017 # Ar
1213 1213 1 0.0 548.1703008203616 157.17781884819064 270.20955498517503 # Ar
1214 1214 1 0.0 588.2651562151586 478.1262087256273 256.79667919402516 # Ar
1215 1215 1 0.0 633.3759080267708 598.9534548612831 397.0618915212201 # Ar
1216 1216 1 0.0 553.8027890464809 119.16312270324153 654.835441640959 # Ar
1217 1217 1 0.0 117.26749945563954 753.0060506124194 639.6475718867994 # Ar
1218 1218 1 0.0 787.2144244328211 693.7493790101731 505.11107817647206 # Ar
1219 1219 1 0.0 788.7415962888026 761.1824743196288 793.7469811905959 # Ar
1220 1220 1 0.0 442.83803891247794 109.8275875179462 759.834898348586 # Ar
1221 1221 1 0.0 394.97684244755413 766.6025807563209 566.6329371663236 # Ar
1222 1222 1 0.0 475.9597486247084 752.8132536307011 788.5450691221571 # Ar
1223 1223 1 0.0 597.0793053153496 269.7505700403687 612.6200726049414 # Ar
1224 1224 1 0.0 143.50147145798502 404.97541068876785 94.61807627462903 # Ar
1225 1225 1 0.0 685.1353658464026 811.6078366291465 365.3689728805874 # Ar
1226 1226 1 0.0 442.2678172182933 599.1860436204737 479.0845111490661 # Ar
1227 1227 1 0.0 769.4961073764777 502.4071217770606 313.617182268753 # Ar
1228 1228 1 0.0 138.75276914486287 568.0657488473704 448.89475389905664 # Ar
1229 1229 1 0.0 510.70376197966937 194.21161447072606 202.95362015690077 # Ar
1230 1230 1 0.0 596.3632306383164 69.67330572163621 746.946033242597 # Ar
1231 1231 1 0.0 63.37394004044423 649.9825566118387 632.0519445288644 # Ar
1232 1232 1 0.0 98.77355161486088 360.2289214879471 393.47412683954025 # Ar
1233 1233 1 0.0 646.9322719264645 253.59921731226953 165.95289617871444 # Ar
1234 1234 1 0.0 161.8009855833658 441.7408477910196 744.9615170884935 # Ar
1235 1235 1 0.0 816.776175852689 476.56540820017494 604.9437496734479 # Ar
1236 1236 1 0.0 148.45061638029912 162.2625837106271 225.59907517224812 # Ar
1237 1237 1 0.0 368.8473682167511 362.68397364555045 162.34887612131615 # Ar
1238 1238 1 0.0 786.3692218139048 461.9354224368065 332.34412727322604 # Ar
1239 1239 1 0.0 685.4344194695026 293.58236404419114 241.05784056891451 # Ar
1240 1240 1 0.0 565.2924928122359 325.36402346367043 26.3192152064143 # Ar
1241 1241 1 0.0 700.4127437128142 15.485324061417678 36.29490417702142 # Ar
1242 1242 1 0.0 532.6484794665024 145.3388001665223 702.3686567786112 # Ar
1243 1243 1 0.0 451.43913796730646 795.0290003567187 351.86450921872296 # Ar
1244 1244 1 0.0 239.27023493469463 696.9935009398984 724.8128512477961 # Ar
1245 1245 1 0.0 4.986744693172012 580.3489636267203 721.0027896342727 # Ar
1246 1246 1 0.0 488.46996152210494 190.74958493425194 774.6228475899217 # Ar
1247 1247 1 0.0 741.2146498435266 507.5797012182164 816.1310068019187 # Ar
1248 1248 1 0.0 582.4555727848938 530.7375386064701 333.89200849086575 # Ar
1249 1249 1 0.0 197.00257478703307 709.157966270808 21.12295698824744 # Ar
1250 1250 1 0.0 68.38832347606507 727.5800006690484 315.97835154920335 # Ar
1251 1251 1 0.0 717.5259118518674 731.3459287618393 456.3037719385619 # Ar
1252 1252 1 0.0 54.84203696837888 565.9610182583376 325.84470043354474 # Ar
1253 1253 1 0.0 592.1173897257622 449.1991114505799 476.38865863682855 # Ar
1254 1254 1 0.0 361.2034465592065 566.4891091566631 439.2873947566875 # Ar
1255 1255 1 0.0 458.9063080104809 196.84856735931297 591.4410466210522 # Ar
1256 1256 1 0.0 353.74176973376365 36.828313728224565 406.7419767155833 # Ar
1257 1257 1 0.0 576.5666016718089 481.095979643786 27.81853779453591 # Ar
1258 1258 1 0.0 455.8206726098408 687.4085230511007 201.55436083643025 # Ar
1259 1259 1 0.0 550.3722144633958 76.94520431256123 188.13903981474164 # Ar
1260 1260 1 0.0 24.797848583509495 642.9608289059624 788.6253879046882 # Ar
1261 1261 1 0.0 480.407461679138 445.68389968535024 231.15552349224924 # Ar
1262 1262 1 0.0 669.0860885377148 787.7365719050488 242.54509609501324 # Ar
1263 1263 1 0.0 405.4840534840334 705.2573810726861 124.30756652195613 # Ar
1264 1264 1 0.0 480.3067436830881 393.9905211125327 323.23849781446637 # Ar
1265 1265 1 0.0 305.1246986407922 549.8994528010664 418.8517690162541 # Ar
1266 1266 1 0.0 482.06429080786444 775.5735169262023 448.0234962947585 # Ar
1267 1267 1 0.0 498.46013514337 293.22988009545907 530.4793027314023 # Ar
1268 1268 1 0.0 751.5233920720171 642.4180607749988 430.07968837452813 # Ar
1269 1269 1 0.0 558.6682204624717 538.3525772404232 197.29487429462327 # Ar
1270 1270 1 0.0 105.64482317009569 57.414032090128096 39.775120359427326 # Ar
1271 1271 1 0.0 83.5118544942742 808.907838444086 412.4434298101283 # Ar
1272 1272 1 0.0 27.221414219549704 225.28343062695436 317.1188039488745 # Ar
1273 1273 1 0.0 464.806183103233 456.68679285834645 810.9051568796534 # Ar
1274 1274 1 0.0 619.0455528334726 616.2328826397695 43.15987815845626 # Ar
1275 1275 1 0.0 548.9542025907153 624.3192831848123 607.7570944609502 # Ar
1276 1276 1 0.0 223.43736812804605 319.3615152419928 731.9813082079368 # Ar
1277 1277 1 0.0 494.6912187794055 575.37568355972 714.1339743840743 # Ar
1278 1278 1 0.0 68.75198987074145 289.8175185249708 503.8989237453616 # Ar
1279 1279 1 0.0 110.79724947167108 545.4342748086 582.247916568552 # Ar
1280 1280 1 0.0 417.1756540913292 214.31118247969786 256.159164510788 # Ar
1281 1281 1 0.0 329.23804197240537 81.45228592244834 20.80811742432719 # Ar
1282 1282 1 0.0 119.26608003336747 75.4414788098245 133.05956378024263 # Ar
1283 1283 1 0.0 187.80970320406215 811.0676377344893 357.7976945000294 # Ar
1284 1284 1 0.0 616.8215302897426 714.2668894127253 408.44494129338864 # Ar
1285 1285 1 0.0 395.4807326973296 719.0667886540301 118.45687981168292 # Ar
1286 1286 1 0.0 51.12289495650939 17.709436457747948 130.15396424985855 # Ar
1287 1287 1 0.0 567.5911527756173 506.54398864040206 767.5655844282109 # Ar
1288 1288 1 0.0 274.4249905949001 55.17144887176239 443.8682063002888 # Ar
1289 1289 1 0.0 15.169902070693322 608.6804231649566 554.7767643459905 # Ar
1290 1290 1 0.0 730.9178494987956 676.1940214585944 470.29176228493714 # Ar
1291 1291 1 0.0 561.4671755701556 135.82279295312713 535.5890929086495 # Ar
1292 1292 1 0.0 476.72167837911576 266.75793151290577 700.0088270810858 # Ar
1293 1293 1 0.0 675.0958682799587 525.3901062961127 363.90443261766086 # Ar
1294 1294 1 0.0 447.36978040725114 660.1741868373492 335.07215978365764 # Ar
1295 1295 1 0.0 82.29315686754423 325.0756195518095 291.823229540441 # Ar
1296 1296 1 0.0 151.500503762377 543.9537785604344 524.4103016908077 # Ar
1297 1297 1 0.0 339.5749475834315 395.6044651471711 130.56635222921577 # Ar
1298 1298 1 0.0 580.0571963348112 316.4112694701051 250.62710785634812 # Ar
1299 1299 1 0.0 314.3167281527182 88.41121274284282 594.309029598235 # Ar
1300 1300 1 0.0 316.32787385105996 778.5082512835286 220.75632411205956 # Ar
1301 1301 1 0.0 163.90243769374723 604.6010798947643 345.9304997117749 # Ar
1302 1302 1 0.0 30.5645185053574 444.15854879274127 813.3831919456738 # Ar
1303 1303 1 0.0 23.57944992757942 309.00018017702956 125.36954485040836 # Ar
1304 1304 1 0.0 18.883266284415967 697.5082635343807 354.7157568188048 # Ar
1305 1305 1 0.0 256.54058569988393 632.7191676199885 505.3513783787714 # Ar
1306 1306 1 0.0 800.4366711206125 196.4217279490012 264.7142665787643 # Ar
1307 1307 1 0.0 451.0862931188518 296.3207293656316 578.7245765260244 # Ar
1308 1308 1 0.0 137.1534014737074 353.298094190273 539.7929739326217 # Ar
1309 1309 1 0.0 764.7350136565034 361.94983841588515 477.48051342460263 # Ar
1310 1310 1 0.0 138.82961691952815 707.70539595501 697.0128570362392 # Ar
1311 1311 1 0.0 561.2397989808035 398.56768067755587 203.36264000893232 # Ar
1312 1312 1 0.0 808.7495624516231 374.504532155739 483.5454176374024 # Ar
1313 1313 1 0.0 546.8195311659542 211.74695150167844 32.57002131511773 # Ar
1314 1314 1 0.0 119.77696616874805 181.25030965208666 66.04990005209943 # Ar
1315 1315 1 0.0 765.1582528297569 32.188403176650304 370.75341768003983 # Ar
1316 1316 1 0.0 548.363094444334 87.00586721983045 636.837841065204 # Ar
1317 1317 1 0.0 655.2955632050604 8.69493115638466 166.99051632803994 # Ar
1318 1318 1 0.0 670.4161156351352 195.56565853666376 556.0104678956824 # Ar
1319 1319 1 0.0 622.1291367044063 810.0432846912591 173.35827397487049 # Ar
1320 1320 1 0.0 488.08149976809 588.2864733695058 772.9326911099412 # Ar
1321 1321 1 0.0 767.6835195388426 291.0592217813836 816.5711291360617 # Ar
1322 1322 1 0.0 525.9657452901957 342.8385566664254 429.27345108030175 # Ar
1323 1323 1 0.0 380.4387336080473 313.04474341696914 543.8984209997377 # Ar
1324 1324 1 0.0 357.65743476058685 9.975193906378363 684.946862228178 # Ar
1325 1325 1 0.0 51.445952231903064 240.1934052860443 193.23608868418108 # Ar
1326 1326 1 0.0 126.93980497355732 430.09628261593616 395.81141759972206 # Ar
1327 1327 1 0.0 55.159220521990186 109.82300128428108 285.69956885299683 # Ar
1328 1328 1 0.0 279.7754045366952 342.61742518653665 701.2911158850169 # Ar
1329 1329 1 0.0 126.62795679320962 158.9604305208353 622.6884489287751 # Ar
1330 1330 1 0.0 233.90225687112198 14.018389811268978 406.3186996196517 # Ar
1331 1331 1 0.0 279.7554967186197 338.68282870874003 166.2369427081082 # Ar
1332 1332 1 0.0 425.32268605223345 771.3284641982239 790.6876567100943 # Ar
1333 1333 1 0.0 810.7675952993001 599.0935078329887 48.19044580894097 # Ar
1334 1334 1 0.0 745.9801256105347 230.19085438185985 171.673795373056 # Ar
1335 1335 1 0.0 602.263348169412 762.590896882318 662.2248340907147 # Ar
1336 1336 1 0.0 736.162882650856 290.7091729064923 782.9805778730541 # Ar
1337 1337 1 0.0 631.0433369992086 800.8301559580414 643.4826202094154 # Ar
1338 1338 1 0.0 85.66134199264805 431.2299878997137 653.8550327321716 # Ar
1339 1339 1 0.0 700.7862037282318 337.5166624358008 44.81817411077945 # Ar
1340 1340 1 0.0 559.427069540228 734.4891274786909 678.7884029646777 # Ar
1341 1341 1 0.0 750.3784620955657 513.6288854740559 235.1382295064325 # Ar
1342 1342 1 0.0 317.2614269818339 756.8649441622612 213.4285245125614 # Ar
1343 1343 1 0.0 182.87672080128783 419.5270066600527 612.8965036228781 # Ar
1344 1344 1 0.0 809.7041378239494 228.07311462236757 176.2231846776463 # Ar
1345 1345 1 0.0 327.17384770924747 470.3586470892603 204.64266068193217 # Ar
1346 1346 1 0.0 553.0094498322389 487.4156714472149 502.2552177501159 # Ar
1347 1347 1 0.0 722.6169411654972 601.4948299968273 250.04626609344683 # Ar
1348 1348 1 0.0 445.9829130556066 316.521522141995 116.61784913776256 # Ar
1349 1349 1 0.0 660.9220819318849 549.6346436546957 459.4072856691445 # Ar
1350 1350 1 0.0 702.8215222640067 144.97089707097444 717.8662736195568 # Ar
1351 1351 1 0.0 442.0009004710583 283.92695572011206 253.02811417332143 # Ar
1352 1352 1 0.0 336.30193525044615 803.820479793948 751.2693279966517 # Ar
1353 1353 1 0.0 379.4563518213328 710.623785907471 748.8368528202096 # Ar
1354 1354 1 0.0 658.9823330322407 501.18112186784845 608.6046001549105 # Ar
1355 1355 1 0.0 774.5309785206576 599.8676808847667 649.5614257598406 # Ar
1356 1356 1 0.0 551.3253358180622 305.47815228786186 246.95879739918334 # Ar
1357 1357 1 0.0 43.149643774944714 97.54544737563431 38.85878553121801 # Ar
1358 1358 1 0.0 720.2443430477109 648.9681464726057 545.6841620366355 # Ar
1359 1359 1 0.0 462.0582043938106 431.060736578225 264.57895723668895 # Ar
1360 1360 1 0.0 224.26176355578477 702.5395159616178 398.3490169298492 # Ar
1361 1361 1 0.0 468.0025771819815 505.24338697275084 513.0735049485103 # Ar
1362 1362 1 0.0 428.8509972200941 673.8245817299062 179.09476620953055 # Ar
1363 1363 1 0.0 460.1532332424673 687.8098563719761 655.4352096878449 # Ar
1364 1364 1 0.0 97.17014400283841 621.9388423133867 586.9180783032089 # Ar
1365 1365 1 0.0 731.0938504474177 225.38115459604356 594.4265258433608 # Ar
1366 1366 1 0.0 368.4601296852731 156.3503924944156 619.2973982071551 # Ar
1367 1367 1 0.0 164.66294669349432 485.82289006508006 82.23972106877797 # Ar
1368 1368 1 0.0 55.684847537759175 376.5356925905618 614.3856115701674 # Ar
1369 1369 1 0.0 260.98087017777186 43.381585537931095 154.8579938025966 # Ar
1370 1370 1 0.0 58.665298760835654 458.1019458730019 374.62044305835826 # Ar
1371 1371 1 0.0 528.1609885553918 365.8605442247133 770.0002009309073 # Ar
1372 1372 1 0.0 791.5205385118708 276.56762997125594 111.954945443998 # Ar
1373 1373 1 0.0 164.64141608036044 523.4441115311162 401.5536177624383 # Ar
1374 1374 1 0.0 654.3007083174882 568.5814979994836 663.7349921597691 # Ar
1375 1375 1 0.0 25.495617671599287 749.1021760895351 19.310852312394317 # Ar
1376 1376 1 0.0 614.4887041983005 437.0685920778789 137.94053334240976 # Ar
1377 1377 1 0.0 398.1024053265626 132.82750385760124 545.6393480942878 # Ar
1378 1378 1 0.0 221.95739571524587 65.10496336899777 774.716047868849 # Ar
1379 1379 1 0.0 311.3137285815893 227.5645744216408 503.47767382686436 # Ar
1380 1380 1 0.0 184.82529784781048 239.28806775393568 382.7679079915998 # Ar
1381 1381 1 0.0 525.7392993991299 323.62099068441825 132.74495361677288 # Ar
1382 1382 1 0.0 526.2902605343263 481.496482474083 605.1133391495551 # Ar
1383 1383 1 0.0 805.3541322755335 287.12537964643025 729.2969027670738 # Ar
1384 1384 1 0.0 164.95627301963404 791.9090021096595 150.23407719958456 # Ar
1385 1385 1 0.0 264.7689162017022 254.2314024796475 767.5366421827906 # Ar
1386 1386 1 0.0 813.5818961779264 554.2476461464249 403.2264813327574 # Ar
1387 1387 1 0.0 554.9430844779096 787.3993537843361 625.9599735347477 # Ar
1388 1388 1 0.0 810.411779860805 207.3231583143649 730.4126759976517 # Ar
1389 1389 1 0.0 793.1322261809731 602.7777130279628 553.6819616140194 # Ar
1390 1390 1 0.0 362.90572793599966 559.5588243466419 594.2718282205822 # Ar
1391 1391 1 0.0 466.92596468719216 804.8710262649632 95.25712223217941 # Ar
1392 1392 1 0.0 213.62273895584954 475.57239028076776 751.7013786106497 # Ar
1393 1393 1 0.0 304.15276108774776 473.8283548377917 721.9468501462056 # Ar
1394 1394 1 0.0 162.89507419202656 720.4662891742702 432.07902388415 # Ar
1395 1395 1 0.0 451.4722920807365 125.4131107026733 683.0049052849604 # Ar
1396 1396 1 0.0 285.7809787606515 22.218783288863023 671.4739112869978 # Ar
1397 1397 1 0.0 803.3309910855987 734.7059578642985 544.4245138653579 # Ar
1398 1398 1 0.0 693.0186212962827 100.2879424809727 36.20960374040251 # Ar
1399 1399 1 0.0 581.7372105247658 453.8577124369289 24.188201711102234 # Ar
1400 1400 1 0.0 374.794761293817 323.09588718246613 533.8677396827285 # Ar
1401 1401 1 0.0 666.716983693703 513.3620604470989 473.0902709550225 # Ar
1402 1402 1 0.0 484.2705810255797 682.1615573577742 599.3522312155193 # Ar
1403 1403 1 0.0 791.0663687836733 283.9170469027972 662.6184385641146 # Ar
1404 1404 1 0.0 183.03179384234417 28.350139426059673 343.91440989251913 # Ar
1405 1405 1 0.0 497.40509882555546 657.3459328330177 316.68422978408347 # Ar
1406 1406 1 0.0 159.523964761233 299.62511843099287 665.0961159231948 # Ar
1407 1407 1 0.0 708.624687734053 602.5572290680634 123.39447326129694 # Ar
1408 1408 1 0.0 342.2240317536571 382.8490613654387 564.6286795157578 # Ar
1409 1409 1 0.0 622.4191341306774 381.8990603107109 687.8294024281512 # Ar
1410 1410 1 0.0 547.3879451900603 47.17543209520905 507.0974321871976 # Ar
1411 1411 1 0.0 320.75560578254834 451.1171920327817 135.59987560756346 # Ar
1412 1412 1 0.0 702.9487114046171 139.94261918884897 71.87435557649921 # Ar
1413 1413 1 0.0 90.16608120869202 624.005681554263 387.4796767923817 # Ar
1414 1414 1 0.0 352.1613814493567 22.279999414698242 486.4620130392542 # Ar
1415 1415 1 0.0 130.7495165003155 472.49566939451813 486.9374787395377 # Ar
1416 1416 1 0.0 544.7401874870628 260.2632710333854 603.8535870893946 # Ar
1417 1417 1 0.0 773.0160051998404 78.87697436904423 557.8823839246668 # Ar
1418 1418 1 0.0 280.16286369397056 511.63906260154687 240.98518309150631 # Ar
1419 1419 1 0.0 568.3777613097228 759.8404339262368 580.2934883213171 # Ar
1420 1420 1 0.0 397.6508485215143 452.16401697916143 153.52715672395462 # Ar
1421 1421 1 0.0 535.5358996542119 679.2989012584566 677.125442498 # Ar
1422 1422 1 0.0 747.2305349379267 621.2341526226572 199.50052130624877 # Ar
1423 1423 1 0.0 793.663532268672 469.66110991438114 88.14464056625553 # Ar
1424 1424 1 0.0 34.91640445774528 636.2272163308883 169.11725405251136 # Ar
1425 1425 1 0.0 173.26478422936302 71.95517312155481 501.24697463469283 # Ar
1426 1426 1 0.0 26.120981823914274 240.98649303861146 365.43139496189826 # Ar
1427 1427 1 0.0 638.722842484641 176.83681835105938 489.9007172785497 # Ar
1428 1428 1 0.0 439.77785491945144 374.0234467768833 75.33732311128736 # Ar
1429 1429 1 0.0 191.49887478251634 363.50895137272016 552.0279421200897 # Ar
1430 1430 1 0.0 763.809031912452 775.3120362549511 520.6079072308398 # Ar
1431 1431 1 0.0 51.93611602223534 630.8855321850598 752.1575867936868 # Ar
1432 1432 1 0.0 586.658473133641 403.8202047761762 338.27138332755777 # Ar
1433 1433 1 0.0 387.0655773867961 583.6913003230275 374.356192361516 # Ar
1434 1434 1 0.0 403.134744111763 778.5422546949619 17.057269246259068 # Ar
1435 1435 1 0.0 563.1776953941151 256.68375506937144 33.108471485739145 # Ar
1436 1436 1 0.0 271.7521045374576 397.1248089905217 83.82346162526018 # Ar
1437 1437 1 0.0 319.79990151367133 484.07454830846945 45.90816634063537 # Ar
1438 1438 1 0.0 510.69216527318395 61.48100382628308 120.85180999291714 # Ar
1439 1439 1 0.0 420.53130068107436 484.18652586193383 157.17723552284957 # Ar
1440 1440 1 0.0 601.0769468920707 634.6403755514199 778.4082324801086 # Ar
1441 1441 1 0.0 355.7434131988426 4.042397299865389 304.30019090629827 # Ar
1442 1442 1 0.0 766.7920317218193 565.2647338532431 321.87885570698194 # Ar
1443 1443 1 0.0 787.9710843968875 362.32620200264824 648.8940105692257 # Ar
1444 1444 1 0.0 607.9157902624945 169.56024226055322 89.06156233555751 # Ar
1445 1445 1 0.0 626.0297823883378 121.59793123615371 723.3561868676876 # Ar
1446 1446 1 0.0 159.9981843054601 736.6511504216944 582.8151592535021 # Ar
1447 1447 1 0.0 542.4013991002248 687.5805382448254 660.7351126955681 # Ar
1448 1448 1 0.0 277.53284432320686 73.20825792790778 720.9894105083168 # Ar
1449 1449 1 0.0 338.0428452035041 248.33697247843654 617.1511914225761 # Ar
1450 1450 1 0.0 468.3994412640649 679.742180876231 109.10638563099242 # Ar
1451 1451 1 0.0 40.51644655857024 650.9579315435857 630.9189023678672 # Ar
1452 1452 1 0.0 564.7810116509319 638.9639963319319 340.8074939210662 # Ar
1453 1453 1 0.0 117.7929106955421 400.3180579089673 475.59773087148653 # Ar
1454 1454 1 0.0 768.5447039930118 457.5159845144078 134.72401111495003 # Ar
1455 1455 1 0.0 347.0741380993831 724.7682638413063 653.605380410123 # Ar
1456 1456 1 0.0 773.6490611018 76.95804891561131 35.58479109339506 # Ar
1457 1457 1 0.0 130.72519002439915 190.88581503436762 200.74745447910456 # Ar
1458 1458 1 0.0 142.4598242131328 584.3834257663037 428.04609613746726 # Ar
1459 1459 1 0.0 554.5355703843918 515.3736995282972 184.70342201076755 # Ar
1460 1460 1 0.0 801.5707315791363 542.2129839745602 591.0479634368592 # Ar
1461 1461 1 0.0 95.8473807758291 318.0823988256803 691.7268738771667 # Ar
1462 1462 1 0.0 629.2123823346025 572.48759542709 34.426814371085435 # Ar
1463 1463 1 0.0 735.784950547655 300.09888513071274 13.133357322031419 # Ar
1464 1464 1 0.0 467.72703682056954 197.51561053537787 502.67872323222315 # Ar
1465 1465 1 0.0 43.142040976325085 710.4849613750434 531.0926923757605 # Ar
1466 1466 1 0.0 148.29774139605408 209.67593456695005 664.1624515962883 # Ar
1467 1467 1 0.0 104.64944710828173 151.36331320023578 603.1419048840763 # Ar
1468 1468 1 0.0 447.4900212908639 524.4260707311668 44.559044880055865 # Ar
1469 1469 1 0.0 598.3663127299114 675.3109727168862 81.7479590330848 # Ar
1470 1470 1 0.0 267.08284336411367 255.41743155522536 35.11582802283506 # Ar
1471 1471 1 0.0 98.8764354948199 713.9895559924222 715.1858066042524 # Ar
1472 1472 1 0.0 203.3608203611113 301.80774880477384 789.6954231389608 # Ar
1473 1473 1 0.0 577.4167188185515 324.3178369413601 425.610580489656 # Ar
1474 1474 1 0.0 285.4849452927843 566.9270289059141 104.41989637310957 # Ar
1475 1475 1 0.0 123.82880484505336 191.81469075522247 480.7524999647442 # Ar
1476 1476 1 0.0 230.4123895421027 614.5458497641049 734.4277328245005 # Ar
1477 1477 1 0.0 623.3675686276853 351.4758627320643 720.9847437077036 # Ar
1478 1478 1 0.0 472.70542032799256 725.6048858558145 14.792547028506865 # Ar
1479 1479 1 0.0 550.6064172541052 327.0032277125627 756.8590140859502 # Ar
1480 1480 1 0.0 548.9029542771314 710.2000438979709 603.1424059931637 # Ar
1481 1481 1 0.0 610.3468839752844 570.5313941344482 77.53854726827532 # Ar
1482 1482 1 0.0 45.8923256109856 347.90000595255606 252.65758507686115 # Ar
1483 1483 1 0.0 550.7822967907183 493.0260093253346 746.8149646844333 # Ar
1484 1484 1 0.0 98.86051382259375 506.906295044304 795.09207786532 # Ar
1485 1485 1 0.0 343.02631545592465 472.50868287440727 707.6976293638646 # Ar
1486 1486 1 0.0 582.6116844664583 678.357399398765 450.7559960130659 # Ar
1487 1487 1 0.0 501.59362584101774 157.77186966341094 373.62318575422063 # Ar
1488 1488 1 0.0 287.92877961198406 779.9326356806 191.35129015971498 # Ar
1489 1489 1 0.0 609.1306537279711 260.25254228082593 212.8728420170588 # Ar
1490 1490 1 0.0 652.29559364945 391.4031973233191 699.7741112616434 # Ar
1491 1491 1 0.0 353.63648839686016 464.52949827282805 805.211079162571 # Ar
1492 1492 1 0.0 183.56299405053002 294.1826171180051 525.6589080748415 # Ar
1493 1493 1 0.0 92.16787217369854 261.9355203012916 471.16063624815274 # Ar
1494 1494 1 0.0 214.8565555346774 416.18062877389076 587.2501267799097 # Ar
1495 1495 1 0.0 277.9851857131568 506.47383530762687 348.5076089784298 # Ar
1496 1496 1 0.0 319.5283780772505 804.5978789436991 390.6389887850623 # Ar
1497 1497 1 0.0 94.69371423815298 363.36648356656127 538.4196913277534 # Ar
1498 1498 1 0.0 446.7984931250646 31.971183639579095 782.7813314557609 # Ar
1499 1499 1 0.0 527.2939791612166 626.4305798025044 42.151824352689566 # Ar
1500 1500 1 0.0 497.7119452440119 370.5764772339373 805.2541350828177 # Ar
1501 1501 1 0.0 152.0588544069426 125.47977064952475 565.889684064765 # Ar
1502 1502 1 0.0 19.91193745327434 754.3113104694321 814.087129697643 # Ar
1503 1503 1 0.0 19.811840695951233 288.4382824473406 548.5474007622971 # Ar
1504 1504 1 0.0 101.21247679856913 527.7390405860613 83.2932981243769 # Ar
1505 1505 1 0.0 199.47588301886677 617.5833108727322 239.24143713061375 # Ar
1506 1506 1 0.0 13.75320309815783 17.162572924050156 474.8402150054976 # Ar
1507 1507 1 0.0 72.1845187266203 176.24541887674454 507.9870361406871 # Ar
1508 1508 1 0.0 258.95967031652725 427.4878722850282 728.4089575843234 # Ar
1509 1509 1 0.0 30.454238316226956 243.53877126570399 475.86141660049213 # Ar
1510 1510 1 0.0 771.3084107942831 402.66024178597655 604.4503549738887 # Ar
1511 1511 1 0.0 114.65523081250599 488.00094359965095 516.7075963146488 # Ar
1512 1512 1 0.0 620.3977741488059 169.67469435161337 27.973635506037446 # Ar
1513 1513 1 0.0 218.54643003554514 689.1738527738514 592.7253015956522 # Ar
1514 1514 1 0.0 408.71129934378774 386.2222416342444 603.0299467389244 # Ar
1515 1515 1 0.0 570.287324931638 715.3914687517478 698.384210794672 # Ar
1516 1516 1 0.0 347.93941326681346 105.08969058409728 765.398620542986 # Ar
1517 1517 1 0.0 362.3575878780625 520.2931917476714 474.1868937344857 # Ar
1518 1518 1 0.0 633.0920173019186 40.922451058964185 335.39087552331824 # Ar
1519 1519 1 0.0 740.8385825942386 113.66905015282614 461.22586420676686 # Ar
1520 1520 1 0.0 206.6050037137723 724.9939090688329 642.1112561211511 # Ar
1521 1521 1 0.0 659.0214640490813 716.5567248448388 550.1696174792137 # Ar
1522 1522 1 0.0 606.5024258626282 572.5060964830387 150.52824779681018 # Ar
1523 1523 1 0.0 782.4946875717065 762.3289251326203 585.5730877510991 # Ar
1524 1524 1 0.0 11.012844495530972 479.64134162344686 562.8412782648302 # Ar
1525 1525 1 0.0 273.67098702122473 484.8800527910781 672.1125332660665 # Ar
1526 1526 1 0.0 432.34129872875286 440.23740232284507 26.17921604702005 # Ar
1527 1527 1 0.0 305.3770219574282 63.996947633517735 647.5532573061074 # Ar
1528 1528 1 0.0 496.88553457115944 95.28067390187138 389.42071811461926 # Ar
1529 1529 1 0.0 390.4384679140068 126.76775527457279 655.1367830392335 # Ar
1530 1530 1 0.0 749.7482717590436 729.2168964944957 309.2715478378449 # Ar
1531 1531 1 0.0 220.4159320364902 324.5564976866153 764.4698008480755 # Ar
1532 1532 1 0.0 675.02612971925 793.0727601651113 627.0345186461849 # Ar
1533 1533 1 0.0 607.3474696000256 495.9812134080703 141.1444269185894 # Ar
1534 1534 1 0.0 564.3902031643121 675.9981989149993 257.15213679793857 # Ar
1535 1535 1 0.0 141.6440461956721 27.662665112554155 699.9293337851874 # Ar
1536 1536 1 0.0 387.59702394010924 215.01760615804668 809.8845401521694 # Ar
1537 1537 1 0.0 373.97805239631396 306.00900945864913 642.995090260885 # Ar
1538 1538 1 0.0 479.91895016615837 545.5042312710315 707.1695265394436 # Ar
1539 1539 1 0.0 149.9287016148285 21.33530112753117 612.945454926652 # Ar
1540 1540 1 0.0 7.255489065702803 767.017536337479 663.7926708114284 # Ar
1541 1541 1 0.0 420.5622759580933 605.1736155018848 207.3842492333103 # Ar
1542 1542 1 0.0 740.2782158808147 605.6059486548551 783.6298570690059 # Ar
1543 1543 1 0.0 90.03797196127465 434.0072691159377 441.71624228659874 # Ar
1544 1544 1 0.0 533.134158008087 601.1382063284711 289.2276082124658 # Ar
1545 1545 1 0.0 410.36829105953785 562.9113247495958 157.04740524347176 # Ar
1546 1546 1 0.0 615.048469943335 187.14499742240858 342.9202340851493 # Ar
1547 1547 1 0.0 370.61764628410157 301.07009274923496 259.5661771193419 # Ar
1548 1548 1 0.0 207.2263878956887 677.9270448879466 255.45104175835021 # Ar
1549 1549 1 0.0 591.5885872916706 85.18540599662383 252.26384020748864 # Ar
1550 1550 1 0.0 685.446464161639 719.9265777398483 148.5570290073345 # Ar
1551 1551 1 0.0 814.3542096761635 771.5071603364872 198.278121382863 # Ar
1552 1552 1 0.0 281.70073588158294 453.22523999741594 814.7899580203631 # Ar
1553 1553 1 0.0 217.77169777029792 281.73569553500215 333.500254688059 # Ar
1554 1554 1 0.0 129.16722737988962 32.1216073284247 418.97943597506566 # Ar
1555 1555 1 0.0 740.5346134754402 76.91336084447913 479.40971457398126 # Ar
1556 1556 1 0.0 569.4688845883936 626.2810750262696 426.62700165764477 # Ar
1557 1557 1 0.0 734.5560273979125 39.94661986853616 250.15838854459227 # Ar
1558 1558 1 0.0 730.0856259058874 739.4920016066873 557.856005944907 # Ar
1559 1559 1 0.0 221.5973114235772 184.75759034835303 16.576920486830854 # Ar
1560 1560 1 0.0 544.1541088893763 154.80443523332704 237.5660173531543 # Ar
1561 1561 1 0.0 138.86102882244484 276.1344169817132 35.28550256569089 # Ar
1562 1562 1 0.0 328.4693236708265 636.3180681461113 260.402809647663 # Ar
1563 1563 1 0.0 28.56198960567586 706.0652754852517 712.9343379418094 # Ar
1564 1564 1 0.0 121.2883145852875 503.6591601728019 723.911279188701 # Ar
1565 1565 1 0.0 224.06584402628968 532.7366835200339 264.8998656917352 # Ar
1566 1566 1 0.0 378.02091186006675 469.61635158863896 656.834016175254 # Ar
1567 1567 1 0.0 293.2610875472943 372.5321916912703 325.69956683343634 # Ar
1568 1568 1 0.0 625.4069300919446 521.7750334128209 87.43714535561644 # Ar
1569 1569 1 0.0 420.5987271667653 489.83670264805636 404.6053949740644 # Ar
1570 1570 1 0.0 563.3129664284238 631.4873147596751 376.5057227745684 # Ar
1571 1571 1 0.0 86.75746889550092 171.21579800035659 618.6952722099156 # Ar
1572 1572 1 0.0 316.64774682504134 682.1597335744217 562.4793973695753 # Ar
1573 1573 1 0.0 71.16341637671641 389.31554803225436 621.1415647879129 # Ar
1574 1574 1 0.0 661.1558337047973 539.356751891689 495.9643188745355 # Ar
1575 1575 1 0.0 248.98536226535802 215.38135664514445 28.696883807147273 # Ar
1576 1576 1 0.0 12.339814026095098 164.77030342063028 550.4243831731742 # Ar
1577 1577 1 0.0 384.9503526865599 746.080930745702 653.4804761706929 # Ar
1578 1578 1 0.0 805.3854465948273 488.8859263507984 475.18775707742805 # Ar
1579 1579 1 0.0 317.93069432032723 438.20941401839394 745.5088750460012 # Ar
1580 1580 1 0.0 656.8051801898266 227.18327478723143 108.9447061375666 # Ar
1581 1581 1 0.0 53.33010366863814 114.3931591542603 757.6624499976007 # Ar
1582 1582 1 0.0 718.617387183449 556.1674882373894 687.939362948042 # Ar
1583 1583 1 0.0 173.65142689692996 383.56333891782833 297.0029909519407 # Ar
1584 1584 1 0.0 384.51698047823066 64.17939955757363 286.2845419926879 # Ar
1585 1585 1 0.0 199.16285169187935 341.1953580756598 538.9250943514543 # Ar
1586 1586 1 0.0 713.5135195537011 588.9779773022091 341.0642707768715 # Ar
1587 1587 1 0.0 613.5753386864887 395.61389076919903 569.8254225559159 # Ar
1588 1588 1 0.0 1.3778046422512646 769.1060760203821 138.76100545447562 # Ar
1589 1589 1 0.0 606.6405341821173 714.873889470433 643.7152188610268 # Ar
1590 1590 1 0.0 216.10784268193595 96.1643174083679 471.4448287133192 # Ar
1591 1591 1 0.0 549.3375697731552 21.475619391372508 187.82443934496337 # Ar
1592 1592 1 0.0 779.3458852012392 713.7504571443905 40.428339633873506 # Ar
1593 1593 1 0.0 789.001108054537 144.32567380869628 441.2710226174729 # Ar
1594 1594 1 0.0 535.1199162790509 31.304515743496907 344.8791203331708 # Ar
1595 1595 1 0.0 166.37304348882162 694.7017731262857 594.4906448859308 # Ar
1596 1596 1 0.0 593.2130440874239 181.1075598156697 491.24259379817613 # Ar
1597 1597 1 0.0 396.3090526106136 77.71566692232508 449.2698683465031 # Ar
1598 1598 1 0.0 746.2692411333633 808.444493373378 170.54335411770967 # Ar
1599 1599 1 0.0 232.8715325862171 44.58887768497733 0.6383672619139553 # Ar
1600 1600 1 0.0 474.1916748947077 312.5811664896302 341.25540557092455 # Ar
1601 1601 1 0.0 484.90216652249967 253.0623154510284 364.6782229658961 # Ar
1602 1602 1 0.0 669.6422129717973 339.74379423568575 14.39980275087638 # Ar
1603 1603 1 0.0 433.14353575506664 124.17107411479444 110.15600162847488 # Ar
1604 1604 1 0.0 276.5024502501209 384.2551550738166 554.5174874628339 # Ar
1605 1605 1 0.0 764.8819083354614 775.3597464681551 528.5418034844001 # Ar
1606 1606 1 0.0 568.4099332201586 729.9536757404453 465.623712737964 # Ar
1607 1607 1 0.0 272.2745989547453 231.68789955965477 231.47008321196407 # Ar
1608 1608 1 0.0 200.53550078841178 673.0640070010037 54.734629068202516 # Ar
1609 1609 1 0.0 465.31300255547734 215.5023573977568 352.79364834722935 # Ar
1610 1610 1 0.0 635.6848429086715 545.115428888134 674.0608887716022 # Ar
1611 1611 1 0.0 147.6013873449193 606.8768219256991 148.47371554589017 # Ar
1612 1612 1 0.0 702.6176045904642 660.514724771266 298.5179772993 # Ar
1613 1613 1 0.0 588.4341918707545 812.0123113548088 750.3568486393386 # Ar
1614 1614 1 0.0 443.72350324240625 159.83121703250544 286.6794649499574 # Ar
1615 1615 1 0.0 668.8136010314313 366.2175414130455 429.51256006907624 # Ar
1616 1616 1 0.0 378.86998678975476 472.1371000402857 17.669006702646858 # Ar
1617 1617 1 0.0 104.95406089473495 713.651504945043 663.7861286239952 # Ar
1618 1618 1 0.0 77.83870213259974 334.344467580327 484.1587425992676 # Ar
1619 1619 1 0.0 10.669531865875841 379.7490070405082 289.70573930701926 # Ar
1620 1620 1 0.0 19.727099643675906 362.47304247510897 611.2039758270823 # Ar
1621 1621 1 0.0 471.90334507011147 589.427678506312 209.75798508010806 # Ar
1622 1622 1 0.0 739.0669096602065 438.6170819283001 630.9534663382722 # Ar
1623 1623 1 0.0 484.7188706872316 635.3398539768117 278.4668773676625 # Ar
1624 1624 1 0.0 267.55444915101384 406.92793324433256 333.01014904507053 # Ar
1625 1625 1 0.0 475.5295820787489 250.85361419721443 147.32905760583037 # Ar
1626 1626 1 0.0 555.8970495226424 595.2840867287265 134.07211899368002 # Ar
1627 1627 1 0.0 127.79927248948223 701.3991525155304 781.4849800204493 # Ar
1628 1628 1 0.0 575.5387934465226 639.0960678447918 807.1421376049984 # Ar
1629 1629 1 0.0 512.7378434467757 602.3610348219106 552.4788505417671 # Ar
1630 1630 1 0.0 533.82978433448 740.8367931313288 604.6742877989528 # Ar
1631 1631 1 0.0 319.2144071257321 528.3943295871562 381.23948424091276 # Ar
1632 1632 1 0.0 567.3464062344013 79.17439327727067 606.5614171998603 # Ar
1633 1633 1 0.0 162.579674250657 658.2512701346997 321.14770296076813 # Ar
1634 1634 1 0.0 429.6308445777121 258.8291763670963 627.3047559629084 # Ar
1635 1635 1 0.0 127.93268023995114 264.74548327309094 359.19141497690526 # Ar
1636 1636 1 0.0 399.82780900187345 20.112830143676224 332.86054337298657 # Ar
1637 1637 1 0.0 511.57350796137206 674.5879604768463 687.3996801119221 # Ar
1638 1638 1 0.0 190.05081023237844 683.2721132962588 145.05686068470416 # Ar
1639 1639 1 0.0 774.1212271843997 310.32655276462026 364.08836993540507 # Ar
1640 1640 1 0.0 613.2707967462691 524.1285486055589 565.3045528619689 # Ar
1641 1641 1 0.0 335.65699276564936 668.3131426549511 656.4199188280015 # Ar
1642 1642 1 0.0 355.43556454801075 719.2370174671458 51.09780792617305 # Ar
1643 1643 1 0.0 400.7525927426347 491.5400622453933 574.1384149313704 # Ar
1644 1644 1 0.0 722.2948577158191 311.32717242597323 718.1256378179831 # Ar
1645 1645 1 0.0 128.21273076251342 176.54244940107068 794.2781989864593 # Ar
1646 1646 1 0.0 30.590843453299083 503.32474951953077 271.7250918405432 # Ar
1647 1647 1 0.0 695.0143396636577 455.6152497369878 557.3993443587756 # Ar
1648 1648 1 0.0 309.1227789907158 596.8820456453744 670.4095116197393 # Ar
1649 1649 1 0.0 479.81587788997825 792.0499113011603 604.4304003402649 # Ar
1650 1650 1 0.0 564.4125879170716 392.43588642304536 144.60848643339006 # Ar
1651 1651 1 0.0 271.8960711329737 449.3644680432562 298.7227165005007 # Ar
1652 1652 1 0.0 434.5311655714183 674.3054140393053 214.54503383198295 # Ar
1653 1653 1 0.0 433.5073105832867 579.278715456076 42.13666964262979 # Ar
1654 1654 1 0.0 135.6778368041208 687.9256986828481 476.60674177160433 # Ar
1655 1655 1 0.0 407.9775429229234 654.6284012623395 536.7556578112863 # Ar
1656 1656 1 0.0 633.3246649999339 698.1427731522605 752.9376035898762 # Ar
1657 1657 1 0.0 116.42160834263746 508.7545811102637 695.7663170333923 # Ar
1658 1658 1 0.0 235.07231683879257 804.3771537244824 428.15343070239425 # Ar
1659 1659 1 0.0 760.6079955684526 151.94084564251347 754.0892058473589 # Ar
1660 1660 1 0.0 432.6859945154668 421.113527280311 59.194829817122915 # Ar
1661 1661 1 0.0 621.994531884611 447.707019059145 68.80467369275634 # Ar
1662 1662 1 0.0 734.4546771949975 84.00635385700421 571.5516064052625 # Ar
1663 1663 1 0.0 569.8763036466844 60.197214975171654 706.9610579347543 # Ar
1664 1664 1 0.0 101.91903507461618 504.5369281305297 721.8581044620183 # Ar
1665 1665 1 0.0 420.72129039030796 339.1345905651577 163.696748800836 # Ar
1666 1666 1 0.0 138.71705848256227 652.5198085855595 651.618277355963 # Ar
1667 1667 1 0.0 634.6582393051516 434.86074666777046 503.69239204900214 # Ar
1668 1668 1 0.0 66.48722095364097 722.9052223208171 415.3499075838791 # Ar
1669 1669 1 0.0 517.5736191893974 357.11995276749354 620.8753082097513 # Ar
1670 1670 1 0.0 282.1898719130716 722.4220122450861 458.2975446327593 # Ar
1671 1671 1 0.0 10.52620091797064 465.9249234491494 250.16219722596455 # Ar
1672 1672 1 0.0 141.5575398020568 755.7925346406747 340.1492824805605 # Ar
1673 1673 1 0.0 94.82016139504714 318.8823453780272 385.18612235515826 # Ar
1674 1674 1 0.0 313.6237957867784 173.35503818461976 766.9588472397719 # Ar
1675 1675 1 0.0 74.53088478988025 66.33085026972473 374.38257882901394 # Ar
1676 1676 1 0.0 157.5943814253774 412.1319857309949 296.1754007352233 # Ar
1677 1677 1 0.0 286.8522044109017 603.8613508140263 301.541447063374 # Ar
1678 1678 1 0.0 153.04358874644717 98.77853756067883 339.44492711248745 # Ar
1679 1679 1 0.0 75.00844887708855 276.2272298169637 603.5358730683284 # Ar
1680 1680 1 0.0 206.44778565595848 728.0003784270474 351.948922549954 # Ar
1681 1681 1 0.0 614.4278251129049 693.1319580539041 768.3643265219744 # Ar
1682 1682 1 0.0 2.7489642393557365 307.7840373759855 569.1893073834888 # Ar
1683 1683 1 0.0 496.73235177126224 80.5811385136276 358.6449607745977 # Ar
1684 1684 1 0.0 136.83034247199183 215.7368963681457 104.4363647860707 # Ar
1685 1685 1 0.0 266.2586928420533 298.0782766780191 31.211815298926602 # Ar
1686 1686 1 0.0 227.152872140994 339.73818562972167 556.3730154848618 # Ar
1687 1687 1 0.0 197.91951497974125 327.0710749008427 375.9703330866718 # Ar
1688 1688 1 0.0 230.25715813416878 715.5612539165719 15.998216618746591 # Ar
1689 1689 1 0.0 697.2071519791015 444.73877404451827 798.1001802559034 # Ar
1690 1690 1 0.0 719.5515848045943 576.4266018663303 230.83255407161437 # Ar
1691 1691 1 0.0 60.785249361571026 514.3173554601061 360.8804426527684 # Ar
1692 1692 1 0.0 37.19631090618637 50.287615927686254 76.55051375319692 # Ar
1693 1693 1 0.0 442.8191702419138 460.6875877751697 582.8820628606189 # Ar
1694 1694 1 0.0 331.7920012531469 515.9991612181022 261.9730973849744 # Ar
1695 1695 1 0.0 273.43228017808804 637.0032986092642 300.31735634101085 # Ar
1696 1696 1 0.0 112.16180142719288 541.454498035984 157.00082227347724 # Ar
1697 1697 1 0.0 50.56487175373212 31.295744254105994 670.4558749186783 # Ar
1698 1698 1 0.0 240.59739487238014 49.130537622691044 110.68999370100897 # Ar
1699 1699 1 0.0 365.7363875389333 728.1460873467947 550.3324663154604 # Ar
1700 1700 1 0.0 203.0614220014706 744.3801724636153 501.57511300368213 # Ar
1701 1701 1 0.0 131.11113221263363 468.2469979392916 540.2525945397966 # Ar
1702 1702 1 0.0 303.64957605280193 150.27035095936716 573.0459192544207 # Ar
1703 1703 1 0.0 498.36682080476635 703.6730943126315 719.2921202638582 # Ar
1704 1704 1 0.0 389.2071448760548 125.91653594311066 657.8179911615106 # Ar
1705 1705 1 0.0 364.31879432810706 176.88330614440773 220.2883069453541 # Ar
1706 1706 1 0.0 201.42375338015668 742.577680083893 364.12232509926804 # Ar
1707 1707 1 0.0 706.4190231424876 180.72073157888386 244.40932965169458 # Ar
1708 1708 1 0.0 755.8510477922194 1.8448868604027155 444.66786545423554 # Ar
1709 1709 1 0.0 701.9164299513316 273.43438836621544 443.4548244893142 # Ar
1710 1710 1 0.0 606.164369082312 350.9088993527188 217.06269391489423 # Ar
1711 1711 1 0.0 400.97148267873723 497.60062326649364 87.52773105547382 # Ar
1712 1712 1 0.0 410.3723649612799 705.5568687594275 575.9623909200631 # Ar
1713 1713 1 0.0 211.81294880564542 242.35324131224783 85.44186982999112 # Ar
1714 1714 1 0.0 75.78223591772661 390.8701444334758 401.68313008212425 # Ar
1715 1715 1 0.0 179.493047462476 791.1561142908718 389.054156895447 # Ar
1716 1716 1 0.0 603.7557580236778 684.308447942124 778.6436707238096 # Ar
1717 1717 1 0.0 112.76451126615157 350.1683747881844 411.3947292935827 # Ar
1718 1718 1 0.0 807.8168215409235 514.0704772466343 97.42344398590518 # Ar
1719 1719 1 0.0 92.66979248445273 272.7577082127067 10.728804955554779 # Ar
1720 1720 1 0.0 716.431702547541 733.2068559766831 792.6410380583816 # Ar
1721 1721 1 0.0 419.1075978570983 586.8937418802759 594.1786807198071 # Ar
1722 1722 1 0.0 500.57810602964264 131.6968539223176 540.1935994022125 # Ar
1723 1723 1 0.0 278.19057957696936 672.5394006723702 384.11525044084505 # Ar
1724 1724 1 0.0 321.138900807393 166.3576084564462 147.90656873188175 # Ar
1725 1725 1 0.0 213.59371372439608 115.93096000695037 563.2447728622574 # Ar
1726 1726 1 0.0 92.76332157933066 675.962936637418 173.9522243968854 # Ar
1727 1727 1 0.0 244.54772265942935 323.1610298440084 730.6068049106382 # Ar
1728 1728 1 0.0 516.6783280541964 508.3084224226764 144.9638337916113 # Ar
1729 1729 1 0.0 329.79015531720427 804.8946718626513 216.586984963249 # Ar
1730 1730 1 0.0 75.08162085439926 262.8775214413336 801.4418586882996 # Ar
1731 1731 1 0.0 482.34466160523965 50.44822885818741 133.0035138550194 # Ar
1732 1732 1 0.0 678.0009195534536 635.6820710191377 427.7953118020269 # Ar
1733 1733 1 0.0 387.9352738849907 593.6709450387314 294.5062402598769 # Ar
1734 1734 1 0.0 220.26594677900582 33.08293949696992 502.4998447619598 # Ar
1735 1735 1 0.0 720.0349552000337 319.53464656573414 431.54260227191435 # Ar
1736 1736 1 0.0 559.2228300753158 287.32005940884335 571.4823216637731 # Ar
1737 1737 1 0.0 156.04797253117232 447.94132215771197 759.4459627182446 # Ar
1738 1738 1 0.0 103.20632999378705 253.14921564165178 745.6148738714269 # Ar
1739 1739 1 0.0 601.7250340555722 153.26324205377736 45.78611215599211 # Ar
1740 1740 1 0.0 212.58789094638752 339.4751139924092 709.4453126676192 # Ar
1741 1741 1 0.0 119.19088651164388 600.2774827997002 66.08518732153556 # Ar
1742 1742 1 0.0 120.16843798931794 376.17214650514603 139.23071465321613 # Ar
1743 1743 1 0.0 759.4171697993789 84.84247274049319 773.954980114937 # Ar
1744 1744 1 0.0 111.47437003185796 598.7525944376479 311.95748801300454 # Ar
1745 1745 1 0.0 698.0622324375933 280.94344720216 138.77078367755198 # Ar
1746 1746 1 0.0 539.7645079526354 542.568219088632 3.1811212851419763 # Ar
1747 1747 1 0.0 375.7863644858292 747.0823602576811 474.7511863852929 # Ar
1748 1748 1 0.0 480.03940205596706 368.2390264829786 299.9134329449752 # Ar
1749 1749 1 0.0 99.89638337601279 690.7989825475827 770.1724016360939 # Ar
1750 1750 1 0.0 424.7824099455161 126.08952237310494 694.5480768188712 # Ar
1751 1751 1 0.0 744.5859753583795 420.5998558444023 798.533335955424 # Ar
1752 1752 1 0.0 56.89923664033857 595.8438313112572 348.2773428292448 # Ar
1753 1753 1 0.0 453.9431921802621 346.12340812591805 671.042499424747 # Ar
1754 1754 1 0.0 474.97172281151944 519.8939865489996 812.9999756118773 # Ar
1755 1755 1 0.0 610.6570504926545 325.35674043035556 377.9335596189296 # Ar
1756 1756 1 0.0 773.970404733861 697.6736955224053 68.00777447194059 # Ar
1757 1757 1 0.0 654.0258608362932 80.10360285930518 585.4400060633241 # Ar
1758 1758 1 0.0 773.1391908706632 357.05629030685355 808.674622812358 # Ar
1759 1759 1 0.0 707.8341169665795 213.37442425081335 692.4378956559997 # Ar
1760 1760 1 0.0 396.19492391474506 547.5732513222919 185.11263878725327 # Ar
1761 1761 1 0.0 274.2500578125289 133.48859781142346 390.35286241165306 # Ar
1762 1762 1 0.0 232.41271075201755 570.1534795552341 426.5352474052449 # Ar
1763 1763 1 0.0 359.14555369299285 14.623143431318345 155.68596049805456 # Ar
1764 1764 1 0.0 243.25080421363919 787.7698894981141 542.8001615950417 # Ar
1765 1765 1 0.0 650.563166213338 810.7694308462711 684.2380455236761 # Ar
1766 1766 1 0.0 731.8682744020548 640.6032610127189 775.8906735668196 # Ar
1767 1767 1 0.0 150.50707628124852 38.792463131027624 343.72038937130776 # Ar
1768 1768 1 0.0 806.4404308355207 333.5727204764036 348.1033348680514 # Ar
1769 1769 1 0.0 660.8875701086519 775.4639156592231 619.9199545826743 # Ar
1770 1770 1 0.0 682.6933839039207 515.7141773199995 358.78240159984455 # Ar
1771 1771 1 0.0 339.74113202994874 557.1198236783754 132.06903945580768 # Ar
1772 1772 1 0.0 80.47396097595706 362.167467512409 305.0429997023763 # Ar
1773 1773 1 0.0 370.30640426323754 801.8021048313394 621.4830943344909 # Ar
1774 1774 1 0.0 690.1137897586123 789.6770316455032 210.4739755271575 # Ar
1775 1775 1 0.0 55.125766126533804 798.2404224166899 219.2598118032215 # Ar
1776 1776 1 0.0 687.6734804188159 471.5830900425203 306.26184576758953 # Ar
1777 1777 1 0.0 795.7567508329025 262.8042933613387 140.33842428403833 # Ar
1778 1778 1 0.0 566.0822437379234 810.7118814911961 750.5310359239143 # Ar
1779 1779 1 0.0 803.2344998172281 405.97309936460323 703.6966366095236 # Ar
1780 1780 1 0.0 796.5679870822282 344.4221650389232 505.95053616479424 # Ar
1781 1781 1 0.0 258.76258769714343 180.14886828905858 570.2564705345426 # Ar
1782 1782 1 0.0 25.39428709369406 630.5754879190658 623.2482186478366 # Ar
1783 1783 1 0.0 611.5213671478398 425.63781364126834 19.051228634994434 # Ar
1784 1784 1 0.0 234.40577570374572 669.2390057173687 690.4348168508411 # Ar
1785 1785 1 0.0 525.2896508030278 457.3323495212044 528.3763611370525 # Ar
1786 1786 1 0.0 719.5333339644933 412.9277263065977 267.36723668784924 # Ar
1787 1787 1 0.0 287.9158559575306 756.1119991536262 517.6396700571783 # Ar
1788 1788 1 0.0 205.1500379312318 232.70874457258253 369.7409827491677 # Ar
1789 1789 1 0.0 423.12108280732815 575.263220355998 365.20197650786207 # Ar
1790 1790 1 0.0 562.3466652427161 403.0006771167425 50.53109697581715 # Ar
1791 1791 1 0.0 238.83679087376657 134.51627857660333 666.8354342261118 # Ar
1792 1792 1 0.0 502.2847248524574 198.52880171655536 410.512713816779 # Ar
1793 1793 1 0.0 70.9833398734455 601.2275819964506 791.3793762584872 # Ar
1794 1794 1 0.0 476.284077537249 773.541110186013 776.8505600771808 # Ar
1795 1795 1 0.0 243.1682256696133 124.06841956489873 575.9597085181498 # Ar
1796 1796 1 0.0 413.815348956956 294.6790898363356 369.0480288541504 # Ar
1797 1797 1 0.0 149.76768267689263 635.7961232449447 436.90767525413656 # Ar
1798 1798 1 0.0 561.2880453506087 479.74185296204786 434.4768442956034 # Ar
1799 1799 1 0.0 365.8931000655265 636.5786675206443 732.5049637333484 # Ar
1800 1800 1 0.0 544.768164228599 478.293914556246 445.83765631924473 # Ar
1801 1801 1 0.0 815.1340652995258 237.59888967386635 692.4479042514064 # Ar
1802 1802 1 0.0 777.5771898263697 161.41401643950266 710.2437686628334 # Ar
1803 1803 1 0.0 686.5086347443367 663.5221997357348 337.58147617019677 # Ar
1804 1804 1 0.0 243.5690456887547 47.50280080541224 241.23041244653606 # Ar
1805 1805 1 0.0 661.849112040247 469.22318520659724 498.21865232132404 # Ar
1806 1806 1 0.0 493.55160972211894 32.2270810046562 673.843751912698 # Ar
1807 1807 1 0.0 797.8678762478861 594.8548824970309 346.317258588478 # Ar
1808 1808 1 0.0 554.7742062722544 778.2694383169762 478.39605562209096 # Ar
1809 1809 1 0.0 513.9434915219005 198.03410555350337 198.507863529735 # Ar
1810 1810 1 0.0 507.0058022404558 399.55149025793327 684.6185949568275 # Ar
1811 1811 1 0.0 581.7571210415235 87.61612120927444 752.0009056185609 # Ar
1812 1812 1 0.0 350.01188237931 767.0434916795463 624.5686961753793 # Ar
1813 1813 1 0.0 522.6396674000858 53.580159037971086 770.312942643378 # Ar
1814 1814 1 0.0 642.3221961731775 754.7940396802591 274.83804852624735 # Ar
1815 1815 1 0.0 562.0846856765646 791.6686191458928 361.04964385961927 # Ar
1816 1816 1 0.0 466.08721349946154 311.5195866964367 496.331522798343 # Ar
1817 1817 1 0.0 413.95465587970847 44.25603853112597 474.29874892857674 # Ar
1818 1818 1 0.0 794.6713675363026 759.0337519434638 60.63524177061177 # Ar
1819 1819 1 0.0 551.7711294063239 339.82838569229045 684.8480092087478 # Ar
1820 1820 1 0.0 812.9329781999437 665.4079886252835 171.22017608130017 # Ar
1821 1821 1 0.0 683.0208290947356 101.08873973697088 560.8329148270564 # Ar
1822 1822 1 0.0 796.4000992750787 472.569527307795 313.6563947208606 # Ar
1823 1823 1 0.0 278.98856128254306 743.6655733514975 542.349297784109 # Ar
1824 1824 1 0.0 39.79827952285415 778.3400570246486 628.1965447137704 # Ar
1825 1825 1 0.0 424.09108712196206 649.4866202271188 312.303829564473 # Ar
1826 1826 1 0.0 209.31110515056415 318.24998465476796 298.25608996385 # Ar
1827 1827 1 0.0 198.10391857256542 188.39569439338732 539.7074491423948 # Ar
1828 1828 1 0.0 341.13492728501996 385.66211089318114 587.5763243241088 # Ar
1829 1829 1 0.0 11.964634189423991 148.3711111604373 669.0076190542675 # Ar
1830 1830 1 0.0 228.95145818400354 371.6516992773954 77.92810139258295 # Ar
1831 1831 1 0.0 704.133565156282 559.606927778656 611.0312008711334 # Ar
1832 1832 1 0.0 595.8487277766345 196.55434206244834 442.6915593640829 # Ar
1833 1833 1 0.0 52.79377986866917 709.8222303960318 729.3656949748124 # Ar
1834 1834 1 0.0 380.15126616985947 518.7199170158937 589.9824430484433 # Ar
1835 1835 1 0.0 41.66561026263499 383.98141246659327 139.47271971917235 # Ar
1836 1836 1 0.0 171.21969761676434 637.4970767554207 720.424976768108 # Ar
1837 1837 1 0.0 362.4818166739464 435.29292292955796 708.8626273351695 # Ar
1838 1838 1 0.0 651.0619312108446 490.32648051881847 676.3679728991651 # Ar
1839 1839 1 0.0 623.5314024264057 385.83746529119765 621.3651231632778 # Ar
1840 1840 1 0.0 181.36900720930356 546.1891860130402 565.6555664569352 # Ar
1841 1841 1 0.0 670.5304442372851 307.6057830992717 532.3083489283522 # Ar
1842 1842 1 0.0 624.450777173452 770.1985413051826 187.7466693175511 # Ar
1843 1843 1 0.0 580.5551942565983 689.4126182808945 744.2725961313113 # Ar
1844 1844 1 0.0 780.4645177343256 382.4548847316983 349.984314994787 # Ar
1845 1845 1 0.0 180.48871240777984 573.3167563975499 89.55870807736522 # Ar
1846 1846 1 0.0 70.18813892800266 376.9761063452085 357.61895885343466 # Ar
1847 1847 1 0.0 15.371928290798092 88.48673934005787 24.019099274889857 # Ar
1848 1848 1 0.0 64.18959560028374 405.4145551188441 539.0227979859899 # Ar
1849 1849 1 0.0 36.73358759726784 532.9361444205441 727.9102463208471 # Ar
1850 1850 1 0.0 478.7320571446686 379.2461102963127 629.3616317909134 # Ar
1851 1851 1 0.0 742.4354024145996 763.3846028716839 763.8527465354149 # Ar
1852 1852 1 0.0 803.3424724370483 243.87611096279142 274.8764093866323 # Ar
1853 1853 1 0.0 759.6323970046625 694.4464394085379 586.507473031785 # Ar
1854 1854 1 0.0 453.44801936617546 230.4927224637325 553.2013879358055 # Ar
1855 1855 1 0.0 272.0247382669935 92.33574807506993 8.104894516033207 # Ar
1856 1856 1 0.0 258.39014073530717 420.8298384898668 340.63421139850374 # Ar
1857 1857 1 0.0 412.7775649510263 381.070053910071 255.1296899285524 # Ar
1858 1858 1 0.0 319.1480258153756 678.5692241219311 343.42872882570043 # Ar
1859 1859 1 0.0 691.4359211337371 569.7822851002397 99.63637454543729 # Ar
1860 1860 1 0.0 77.97144279063133 675.918669727985 772.2139556850634 # Ar
1861 1861 1 0.0 400.46124123879497 109.49929524706056 594.0421692069009 # Ar
1862 1862 1 0.0 340.0394432517656 318.4676869220674 209.35518584811257 # Ar
1863 1863 1 0.0 159.64043164005534 556.3741531159392 222.23676147229685 # Ar
1864 1864 1 0.0 317.0129837863182 81.48951279955445 634.594645301374 # Ar
1865 1865 1 0.0 564.7810425124701 603.4711091926708 420.2982421246847 # Ar
1866 1866 1 0.0 729.9682531541936 477.15580888491144 283.663303734086 # Ar
1867 1867 1 0.0 607.3825686532621 301.8569117568112 733.7045443776552 # Ar
1868 1868 1 0.0 160.3652316594473 385.90779510466365 723.5093480738373 # Ar
1869 1869 1 0.0 745.5296678289865 502.2082811715833 547.3886994532102 # Ar
1870 1870 1 0.0 689.9323673089445 466.3354689429578 225.60620580106976 # Ar
1871 1871 1 0.0 736.0083026816175 486.8172481034835 221.20682056424096 # Ar
1872 1872 1 0.0 353.6812906496375 647.0113654455126 262.6538350822953 # Ar
1873 1873 1 0.0 502.65043427233326 555.0985899915858 787.7550703377797 # Ar
1874 1874 1 0.0 575.0049816955924 442.0361090538992 16.415306117452698 # Ar
1875 1875 1 0.0 413.3691022536909 314.58045800937595 124.4443543011219 # Ar
1876 1876 1 0.0 790.8174147014164 355.27063155773374 544.0853934301633 # Ar
1877 1877 1 0.0 37.924163717093634 396.91426910074335 781.3163516663242 # Ar
1878 1878 1 0.0 779.384926131613 662.8016935167287 48.46536406462002 # Ar
1879 1879 1 0.0 388.8282338221478 516.0836243325409 551.4103118952687 # Ar
1880 1880 1 0.0 541.9756327131005 354.3514634574169 665.1279318414423 # Ar
1881 1881 1 0.0 254.1226092712352 216.98984928310014 573.3243979521178 # Ar
1882 1882 1 0.0 772.8913956007217 762.647754709154 587.6428773886919 # Ar
1883 1883 1 0.0 184.7378707923077 576.8840527703271 35.29154454016555 # Ar
1884 1884 1 0.0 123.36487666518767 46.11929772242062 300.7683798607863 # Ar
1885 1885 1 0.0 552.5113567706939 590.2249727320548 341.4017350743863 # Ar
1886 1886 1 0.0 371.0678807228265 133.27616027872014 419.54029364934377 # Ar
1887 1887 1 0.0 483.14691722963124 669.3505658037017 612.6311216896759 # Ar
1888 1888 1 0.0 337.0400961776499 612.481027089086 685.2535787888337 # Ar
1889 1889 1 0.0 321.2749555532984 680.2994013840513 662.1466833120488 # Ar
1890 1890 1 0.0 327.47035259602336 721.9008687117152 226.61918917978522 # Ar
1891 1891 1 0.0 359.135551853709 241.36642640187844 719.5360013633874 # Ar
1892 1892 1 0.0 8.009966544752494 455.0092111021942 272.2477670801622 # Ar
1893 1893 1 0.0 97.24661535339779 599.765837959548 469.3388776178368 # Ar
1894 1894 1 0.0 388.3546965360326 684.7613368796318 602.2017146675013 # Ar
1895 1895 1 0.0 470.82506995939417 518.3573721811727 621.0118438728457 # Ar
1896 1896 1 0.0 754.7992880085205 575.734441337335 284.9807641851682 # Ar
1897 1897 1 0.0 524.7171082978291 166.36718310090114 481.6629023910807 # Ar
1898 1898 1 0.0 474.2627553793276 567.7569516761284 743.7447577219255 # Ar
1899 1899 1 0.0 518.4407073011446 258.29388871029846 550.736175654981 # Ar
1900 1900 1 0.0 559.1525708520442 797.2246689756008 285.54151232450045 # Ar
1901 1901 1 0.0 671.9590984586417 148.37364520679725 385.12180072495477 # Ar
1902 1902 1 0.0 223.40883855824484 175.67840130838607 462.3777795537325 # Ar
1903 1903 1 0.0 543.6899379797586 305.71761922369683 230.45874163492834 # Ar
1904 1904 1 0.0 548.1690597227671 666.969865749186 554.1636917316356 # Ar
1905 1905 1 0.0 785.8111574540604 316.07557087431195 523.3803455504157 # Ar
1906 1906 1 0.0 366.92393233348173 669.3084967497142 706.7515686452199 # Ar
1907 1907 1 0.0 777.4167902681291 762.3962229833339 16.70930620741047 # Ar
1908 1908 1 0.0 783.5683186651772 787.0099852367096 117.08137080930298 # Ar
1909 1909 1 0.0 528.5982091824089 722.4280401598761 23.725100174000257 # Ar
1910 1910 1 0.0 702.3788977294224 187.27573797719884 389.71683548944793 # Ar
1911 1911 1 0.0 691.9485142658373 332.31267161071406 434.1263405941557 # Ar
1912 1912 1 0.0 286.5359059794983 46.58243384194636 695.5905620274876 # Ar
1913 1913 1 0.0 90.84319075708069 419.0202577306462 66.7005614340853 # Ar
1914 1914 1 0.0 556.212180096594 529.7068197510409 335.7151926297247 # Ar
1915 1915 1 0.0 448.6928705933544 84.32703598894547 90.17605799422154 # Ar
1916 1916 1 0.0 410.40404121393675 165.99426231276266 310.3086435040568 # Ar
1917 1917 1 0.0 528.6232795372609 18.981047354493857 270.8365838469644 # Ar
1918 1918 1 0.0 558.0250768899227 375.47981124369926 79.98123145502613 # Ar
1919 1919 1 0.0 347.90461763049154 293.23015398216444 45.60848385424688 # Ar
1920 1920 1 0.0 416.36333472111727 116.24946622444222 627.4035940384173 # Ar
1921 1921 1 0.0 811.6318086301503 676.4775508793698 438.9130207716544 # Ar
1922 1922 1 0.0 294.5493309217644 70.7382260667323 567.7011337257209 # Ar
1923 1923 1 0.0 330.10873313225846 178.58511040264884 179.71971104162446 # Ar
1924 1924 1 0.0 166.23688492765015 693.8851369380495 633.0114570549982 # Ar
1925 1925 1 0.0 240.57916768853926 443.00097517920545 119.1280632916534 # Ar
1926 1926 1 0.0 652.8463998586078 294.52694851847286 144.49917784766342 # Ar
1927 1927 1 0.0 738.3869161574125 214.78356753129012 356.09600352010926 # Ar
1928 1928 1 0.0 785.9171666267923 235.02714594664724 96.80680921921979 # Ar
1929 1929 1 0.0 707.4456449616983 378.35179741206474 763.2660911418795 # Ar
1930 1930 1 0.0 437.606917477733 538.0718625175333 162.43024587837078 # Ar
1931 1931 1 0.0 635.8431383991804 397.4495363264001 485.26633301610366 # Ar
1932 1932 1 0.0 269.62096383492315 0.5274065163350644 716.1874777105396 # Ar
1933 1933 1 0.0 351.1651693433498 500.6209440888885 498.4025428908518 # Ar
1934 1934 1 0.0 765.7659309801302 424.42862926989295 121.31825845148211 # Ar
1935 1935 1 0.0 567.3598959471994 653.7608972486179 202.4916703037039 # Ar
1936 1936 1 0.0 643.9090457838174 543.8274544406098 597.8222093011601 # Ar
1937 1937 1 0.0 565.9745147287261 507.8968756671637 269.39516268203266 # Ar
1938 1938 1 0.0 141.47126614373934 147.96967007041624 12.910847709392506 # Ar
1939 1939 1 0.0 161.62647003922973 734.1849058802454 324.944754466081 # Ar
1940 1940 1 0.0 280.77458064393346 274.8793131987613 148.09635048853937 # Ar
1941 1941 1 0.0 321.6332283764345 125.10493063959377 801.2546216025585 # Ar
1942 1942 1 0.0 776.245650732363 744.6769500091672 669.6274477183067 # Ar
1943 1943 1 0.0 458.7411614501461 650.1366371810325 148.53212292006486 # Ar
1944 1944 1 0.0 102.6828740341069 522.1487436753555 23.541487515560014 # Ar
1945 1945 1 0.0 65.31191625902552 651.6173681087822 40.43166676850436 # Ar
1946 1946 1 0.0 583.539420442699 149.8909158450794 701.6152838312629 # Ar
1947 1947 1 0.0 248.14654271104922 698.1509120865444 259.7373374063449 # Ar
1948 1948 1 0.0 421.3261380163879 441.27846443972265 403.6128042134888 # Ar
1949 1949 1 0.0 194.2541928658585 415.25154306759697 326.37774457876935 # Ar
1950 1950 1 0.0 774.7200701429107 648.5972199301191 279.8171531874775 # Ar
1951 1951 1 0.0 306.6954277389429 165.4677017125455 622.2173395771414 # Ar
1952 1952 1 0.0 413.45249355302764 487.2025309807069 156.66615379586088 # Ar
1953 1953 1 0.0 571.1330509011826 27.913371011113416 502.19776682177974 # Ar
1954 1954 1 0.0 114.70249948128483 112.13611889775896 619.2202096857967 # Ar
1955 1955 1 0.0 581.2188002392734 812.4703470949759 535.2808758700443 # Ar
1956 1956 1 0.0 141.15387452316523 795.8042790444971 382.83450921018243 # Ar
1957 1957 1 0.0 522.9761971642484 531.6570699118719 480.9155750115751 # Ar
1958 1958 1 0.0 395.1434295844846 146.5219547326027 569.1861763681959 # Ar
1959 1959 1 0.0 654.8963662169757 325.20164712694276 467.0620293485926 # Ar
1960 1960 1 0.0 227.5840705987579 550.3543299350937 763.9981315088488 # Ar
1961 1961 1 0.0 275.4828356188353 178.96650881414195 603.7365911427175 # Ar
1962 1962 1 0.0 8.828942292290238 804.8722346531412 753.9214966471294 # Ar
1963 1963 1 0.0 585.0524544944267 410.80386372027255 135.14756086106038 # Ar
1964 1964 1 0.0 184.61918431834414 554.3089464309871 195.43249522775653 # Ar
1965 1965 1 0.0 401.25246051282005 55.99820517614377 161.48689385836929 # Ar
1966 1966 1 0.0 564.5394675522529 396.524386509297 342.14014806631013 # Ar
1967 1967 1 0.0 189.17520627360824 221.54758112090903 674.0003430016791 # Ar
1968 1968 1 0.0 798.5057431731104 532.1968901539382 554.2727476399621 # Ar
1969 1969 1 0.0 425.42780993494887 687.3061325464545 144.30876115114603 # Ar
1970 1970 1 0.0 302.20034951745254 593.7607325370232 36.355275439357804 # Ar
1971 1971 1 0.0 295.563270590355 215.51391116769594 251.01901975907978 # Ar
1972 1972 1 0.0 230.17006929848466 104.30914756609798 793.7787313414133 # Ar
1973 1973 1 0.0 810.5190100106557 651.1031879778944 91.85715734849016 # Ar
1974 1974 1 0.0 801.2018214307795 78.36204668029171 223.0018752507031 # Ar
1975 1975 1 0.0 381.9033514161985 475.81951697846614 601.5734433205191 # Ar
1976 1976 1 0.0 475.40203297852065 266.4085938187731 56.89660470174046 # Ar
1977 1977 1 0.0 583.1973013075338 143.05018983293502 794.8005942139088 # Ar
1978 1978 1 0.0 306.0852345830868 692.5564931779891 807.966719769271 # Ar
1979 1979 1 0.0 712.1543468142343 216.08181639085302 806.1737848980187 # Ar
1980 1980 1 0.0 443.14639772769664 76.02112412200665 632.8155408188835 # Ar
1981 1981 1 0.0 335.49957679238804 580.8295037488273 704.9108476370897 # Ar
1982 1982 1 0.0 662.2140203952766 200.46565168471224 378.29336470979376 # Ar
1983 1983 1 0.0 102.00284378546638 162.65810470650305 0.28880448091980443 # Ar
1984 1984 1 0.0 778.6064282295871 78.60788749393042 661.8944475385148 # Ar
1985 1985 1 0.0 564.4757028236278 0.7721952675183383 49.59465880795046 # Ar
1986 1986 1 0.0 293.16619605753766 425.2981064028682 678.7098188213258 # Ar
1987 1987 1 0.0 130.29846600226819 628.4821629631128 664.218443646735 # Ar
1988 1988 1 0.0 795.4083455761896 4.389061303045043 541.4612178803026 # Ar
1989 1989 1 0.0 629.0787624802748 779.172801680868 520.5075235334544 # Ar
1990 1990 1 0.0 62.286849281610294 565.6301334118756 734.9975445814309 # Ar
1991 1991 1 0.0 652.9260659894322 69.7590273563675 226.9183011984587 # Ar
1992 1992 1 0.0 407.8629423824778 471.85610585440674 560.7968472965227 # Ar
1993 1993 1 0.0 119.20040324607815 480.1134057819736 726.7184709685367 # Ar
1994 1994 1 0.0 444.2673246811596 12.55589421194549 110.06189918217191 # Ar
1995 1995 1 0.0 810.7318525575004 764.0967355460504 585.5120054582601 # Ar
1996 1996 1 0.0 493.2849570003425 679.5779804888589 696.6928137782239 # Ar
1997 1997 1 0.0 257.48244515200724 400.74601501423297 739.2112802947374 # Ar
1998 1998 1 0.0 436.0871534637207 443.79835759952186 615.8178815855748 # Ar
1999 1999 1 0.0 381.7971810040108 352.4564663890693 187.88750103310727 # Ar
2000 2000 1 0.0 614.1443188503989 537.8616621838416 814.9190319034367 # Ar
