LAMMPS data file -- atom_style full -- generated by chemfiles
150 atoms
0 bonds
0 angles
0 dihedrals
0 impropers
2 atom types
0 bond types
0 angle types
0 dihedral types
0 improper types
0.00000000 1169.82196 xlo xhi
0.00000000 1169.82196 ylo yhi
0.00000000 1169.82196 zlo zhi

# Pair Coeffs
# 1 Ar
# 2 Ar+

Masses

1 39.948 # Ar
2 39.948 # Ar+

Atoms # full

1 1 1 0.0 325.34975753530176 190.18900121862086 1040.2041269073488 # Ar
2 2 1 0.0 985.0832326166025 564.3207097224071 187.11840365185554 # Ar
3 3 1 0.0 1141.9322304676332 390.67077381812373 844.8712298482493 # Ar
4 4 1 0.0 864.9041332290303 807.5912466262433 73.30898801925721 # Ar
5 5 1 0.0 1142.5435042855029 903.286214924592 887.9015156225838 # Ar
6 6 1 0.0 133.1143553255555 740.2151902636183 274.333690228096 # Ar
7 7 1 0.0 831.0613632905124 317.3431080825994 457.4398582723122 # Ar
8 8 1 0.0 692.9826933108017 782.7509064192171 445.8678773886214 # Ar
9 9 1 0.0 200.97386888334054 537.6689276011732 719.1030643173568 # Ar
10 10 1 0.0 581.97246006669 20.21032913160775 1037.5316293471342 # Ar
11 11 1 0.0 712.2654779130485 614.1777470203976 485.68131852275343 # Ar
12 12 1 0.0 189.62387431359414 1137.8440543368656 155.7319436709911 # Ar
13 13 1 0.0 945.2284786282971 717.8637067747177 264.42058580663723 # Ar
14 14 1 0.0 1001.5341603840627 484.86532892982694 652.4837454710239 # Ar
15 15 1 0.0 214.67203936071292 71.00651399861898 560.5142006980952 # Ar
16 16 1 0.0 990.6996079403946 1060.7346545791959 675.2509345887354 # Ar
17 17 1 0.0 993.4693673849627 506.2122645203477 140.81396864224996 # Ar
18 18 1 0.0 807.5312948149999 549.7442162801256 44.20478717902804 # Ar
19 19 1 0.0 790.3049611079406 292.5722849134932 1053.5167183391459 # Ar
20 20 1 0.0 130.37587544230394 678.5398086836685 716.5756643123182 # Ar
21 21 1 0.0 475.4708968800224 971.3469597042872 606.8970439243761 # Ar
22 22 1 0.0 739.2022771950337 20.496015410983468 211.32220815670397 # Ar
23 23 1 0.0 1152.763640121637 1120.0211228522708 817.6894694020822 # Ar
24 24 1 0.0 1085.7526315357388 452.55710217393334 525.5932191644168 # Ar
25 25 1 0.0 822.6088154259791 373.30338005810046 1054.746050691919 # Ar
26 26 1 0.0 335.1012306759145 436.85938577150307 751.7050442847759 # Ar
27 27 1 0.0 806.0937247018791 827.1959332859425 163.2147958658537 # Ar
28 28 1 0.0 958.0557066348742 799.9904332869229 689.6284029584816 # Ar
29 29 1 0.0 437.4757003357121 1120.1305872746482 221.69709081616833 # Ar
30 30 1 0.0 17.37854215042199 173.03118616018514 681.7823635816216 # Ar
31 31 1 0.0 768.6019019310797 703.5589492378211 49.84249390443042 # Ar
32 32 1 0.0 144.77735508466998 542.4624858515338 986.5006203585658 # Ar
33 33 1 0.0 525.9275980963931 515.2186067000574 1131.2520421831027 # Ar
34 34 1 0.0 532.7037386777575 799.4937122742302 923.4375542991091 # Ar
35 35 1 0.0 1098.9318595653042 978.6543015798309 175.6933305084903 # Ar
36 36 1 0.0 662.7415250990879 846.5322178843641 910.5556463032977 # Ar
37 37 1 0.0 474.80821424725247 313.1610510398469 623.4157986450288 # Ar
38 38 1 0.0 473.7564800778685 1143.2457319848534 951.3915167600223 # Ar
39 39 1 0.0 944.8004816213758 193.29907253754402 1143.3205818804888 # Ar
40 40 1 0.0 897.6127702286101 759.2574099049408 237.49609935962232 # Ar
41 41 1 0.0 952.0953051466013 812.0879740593795 730.1879011395077 # Ar
42 42 1 0.0 682.328979868184 383.30715346637123 297.0746599397201 # Ar
43 43 1 0.0 723.5607206366916 207.78341870414474 851.8805664580045 # Ar
44 44 1 0.0 622.8735009908132 287.80720314731167 282.883290066131 # Ar
45 45 1 0.0 432.8792702207677 657.8133429817503 453.9864958882443 # Ar
46 46 1 0.0 605.1174903677396 554.4241711985666 1020.1411236922612 # Ar
47 47 1 0.0 78.92239545324357 140.92443327142342 645.9929878186857 # Ar
48 48 1 0.0 270.6623636781615 337.57628082032505 536.4614343306782 # Ar
49 49 1 0.0 716.8235900956836 877.2649519995649 677.9503318772169 # Ar
50 50 1 0.0 966.1750347205178 1093.264979522445 68.87981554936515 # Ar
51 51 1 0.0 742.6176738791796 902.3470814961585 589.0882264612834 # Ar
52 52 1 0.0 211.3149619985011 668.9731557829449 528.9204376764353 # Ar
53 53 1 0.0 916.355000937749 974.2869199930842 69.09199095805174 # Ar
54 54 1 0.0 86.79873431414576 1142.082185234922 129.96846953701328 # Ar
55 55 1 0.0 334.5061298496735 240.22583574562861 140.33869374376178 # Ar
56 56 1 0.0 646.1347555725574 741.7523098938674 758.4297490823739 # Ar
57 57 1 0.0 159.67319094171845 375.6111061915956 1120.116600335557 # Ar
58 58 1 0.0 313.85922269349754 584.8116303869905 694.8013480869514 # Ar
59 59 1 0.0 185.47703298512704 530.918732033222 756.0698354875611 # Ar
60 60 1 0.0 891.6204544168679 615.2438475788356 451.5619744306378 # Ar
61 61 1 0.0 15.209501458434152 175.42302916270563 436.41955750719575 # Ar
62 62 1 0.0 671.4984827241202 1114.1753846410284 685.287868343559 # Ar
63 63 1 0.0 427.8748098876601 1090.0214082403031 338.6250854188008 # Ar
64 64 1 0.0 1167.5612144625652 903.1757613646586 431.6814787646609 # Ar
65 65 1 0.0 215.48598379346348 395.648666540309 232.3121538242121 # Ar
66 66 1 0.0 783.6913693363978 109.47362436514527 680.8607937584073 # Ar
67 67 1 0.0 1098.6875835305748 588.1639327998964 1002.6087529342387 # Ar
68 68 1 0.0 853.1408270571816 887.1013174530127 627.4296123362057 # Ar
69 69 1 0.0 806.163849789697 190.58722406405462 110.16555406117642 # Ar
70 70 1 0.0 909.0144762943621 1081.5151897270107 780.1183307711141 # Ar
71 71 1 0.0 1100.4742345648608 601.4290782985158 765.062049682166 # Ar
72 72 1 0.0 214.61113835396952 1084.9076659473833 756.9752081557916 # Ar
73 73 1 0.0 760.5697403462234 98.88871437424005 832.5184207228356 # Ar
74 74 1 0.0 510.3006707413406 399.5487503013317 973.9029368530455 # Ar
75 75 1 0.0 1117.2135761998409 125.63416158789691 627.7266902705131 # Ar
76 76 1 0.0 81.92096487013691 121.83789259771193 49.778871940767814 # Ar
77 77 1 0.0 1078.1978947955056 8.678880331421475 872.3767145522762 # Ar
78 78 1 0.0 146.48517284321116 1061.8275826988488 686.5580357502079 # Ar
79 79 1 0.0 940.3414645404264 55.561938584245276 476.87833005428126 # Ar
80 80 1 0.0 855.7536171227122 835.8094593019258 236.86191679483323 # Ar
81 81 1 0.0 363.2225370835836 1102.3278507415332 729.5975888935315 # Ar
82 82 1 0.0 18.245728551483012 603.1113902078772 74.1280672703507 # Ar
83 83 1 0.0 759.2314573228983 465.69283924266375 297.2211305587413 # Ar
84 84 1 0.0 5.963052291163414 638.1540710976523 839.838869243848 # Ar
85 85 1 0.0 911.4948681489581 207.85673391708096 1036.856127902192 # Ar
86 86 1 0.0 168.74964622163057 665.095454999331 1104.1443888565432 # Ar
87 87 2 0.0 361.35283366847057 30.337810677197922 1071.510073066225 # Ar+
88 88 2 0.0 475.6777460587377 177.9889992700047 485.76672986986017 # Ar+
89 89 2 0.0 56.607895455092475 741.1887895896799 995.6728959966674 # Ar+
90 90 2 0.0 743.0903910554684 411.42719782776794 854.2582210280373 # Ar+
91 91 2 0.0 423.5712205482978 221.97928361767813 785.8476595183133 # Ar+
92 92 2 0.0 741.3936486967007 462.3059638695282 261.65626096894516 # Ar+
93 93 2 0.0 404.4655376400013 896.3726302984187 137.5228042301198 # Ar+
94 94 2 0.0 121.13155325890808 192.80290392846936 148.38424608091753 # Ar+
95 95 2 0.0 935.0039137101946 993.6478266156411 430.3146988975163 # Ar+
96 96 2 0.0 336.1459604283084 506.24903553874594 714.2999817789934 # Ar+
97 97 2 0.0 597.927349338626 672.8519521256587 1154.0339470611175 # Ar+
98 98 2 0.0 820.6436535179597 365.19783299810405 650.9290415673584 # Ar+
99 99 2 0.0 821.6750886746256 5.643528399781031 1042.0250922193304 # Ar+
100 100 2 0.0 487.0514943712419 910.6866784528629 876.9858164503604 # Ar+
101 101 2 0.0 462.042925371883 432.35115982998695 155.69014766995406 # Ar+
102 102 2 0.0 987.0764003371856 945.5695339772368 223.26836552354163 # Ar+
103 103 2 0.0 7.658179126795853 229.77686451680316 470.87707539386133 # Ar+
104 104 2 0.0 643.3818237972142 967.2569675995168 215.29733013561417 # Ar+
105 105 2 0.0 494.3304186378346 993.4010735824692 231.33462308189848 # Ar+
106 106 2 0.0 702.1440763802718 1144.9028883643455 335.4594627333943 # Ar+
107 107 2 0.0 189.96193978478655 161.16555830096894 525.725333592535 # Ar+
108 108 2 0.0 899.4786256503185 984.0630829785002 331.0926814904608 # Ar+
109 109 2 0.0 607.4045949811249 16.78799458548393 609.6684526508333 # Ar+
110 110 2 0.0 882.0597471884457 585.7709813301378 841.4129754088248 # Ar+
111 111 2 0.0 906.5747250792339 197.59507005807112 921.059685280396 # Ar+
112 112 2 0.0 166.6146709920332 1010.7869249218179 942.9442067160558 # Ar+
113 113 2 0.0 329.2797634467766 1102.9051392817641 305.2320124742302 # Ar+
114 114 2 0.0 219.06005752169352 343.62080998581536 321.9896663981257 # Ar+
115 115 2 0.0 87.08896884524445 45.934354034663954 6.173138567742675 # Ar+
116 116 2 0.0 1102.3322069225683 1068.9002132786059 167.49040548178198 # Ar+
117 117 2 0.0 236.88449420114765 981.0921544664434 1045.0213241943031 # Ar+
118 118 2 0.0 348.2221612619192 493.53081131709666 684.2357085012086 # Ar+
119 119 2 0.0 135.88674687528274 319.8013658102302 373.8291628428832 # Ar+
120 120 2 0.0 156.48262107572427 136.68799337488016 254.25608911341547 # Ar+
121 121 2 0.0 805.134789575913 848.4443054357038 522.5687564503313 # Ar+
122 122 2 0.0 120.10193345404944 61.43537045619904 854.6617300654367 # Ar+
123 123 2 0.0 329.4610734303536 963.7902920035845 241.78201315522875 # Ar+
124 124 2 0.0 377.8214705874535 365.64067856293417 780.7506668197161 # Ar+
125 125 2 0.0 616.2850229842219 791.3521681769959 902.3510219478379 # Ar+
126 126 2 0.0 831.7956943110806 434.8347566016037 1024.248215959167 # Ar+
127 127 2 0.0 261.1161661336366 22.43477038115551 703.7589267084222 # Ar+
128 128 2 0.0 96.54887805022638 826.8933159661276 1121.769699978774 # Ar+
129 129 2 0.0 461.57474372264454 612.538194043327 1065.618563098391 # Ar+
130 130 2 0.0 797.3097736832541 815.5594187171479 378.204999772004 # Ar+
131 131 2 0.0 639.7673520227995 91.65452245345932 355.15114017566015 # Ar+
132 132 2 0.0 945.0209628010869 1041.2559035876848 689.0891799385575 # Ar+
133 133 2 0.0 1119.6983847115175 720.8858270305942 391.972378779881 # Ar+
134 134 2 0.0 1120.4906674805552 311.72118087294905 765.9460468825814 # Ar+
135 135 2 0.0 642.2389580061725 798.0645206896215 148.50142632250277 # Ar+
136 136 2 0.0 165.07918892221858 18.33464224582726 688.8798318134072 # Ar+
137 137 2 0.0 248.07260955786884 203.18837437566182 1057.3349849314502 # Ar+
138 138 2 0.0 162.75519763046753 614.965215598027 212.32635548361853 # Ar+
139 139 2 0.0 562.2064807361736 741.5831851261314 88.0738077606017 # Ar+
140 140 2 0.0 912.0375648868811 913.8024982281852 747.0230516777734 # Ar+
141 141 2 0.0 295.94022329701414 274.54439100566367 902.612917762383 # Ar+
142 142 2 0.0 1128.6022672445004 722.2921298190957 887.5952092126502 # Ar+
143 143 2 0.0 425.77644901401396 92.7793688503802 962.2079827050919 # Ar+
144 144 2 0.0 935.286762867236 409.0369602201179 221.37619981142382 # Ar+
145 145 2 0.0 986.6125808492814 1072.7306624020418 498.33066415161363 # Ar+
146 146 2 0.0 631.9838148044842 1166.689934676976 309.7271739834292 # Ar+
147 147 2 0.0 94.26952257411496 635.0340887438142 236.4308585674224 # Ar+
148 148 2 0.0 1143.3747307912804 137.47289510846832 406.7317803952472 # Ar+
149 149 2 0.0 1140.1848526364147 882.4665582820527 65.9008836095644 # Ar+
150 150 2 0.0 505.4215116439544 213.50527062120074 793.0507155996123 # Ar+
