LAMMPS data file -- atom_style full -- generated by chemfiles
2000 atoms
0 bonds
0 angles
0 dihedrals
0 impropers
1 atom types
0 bond types
0 angle types
0 dihedral types
0 improper types
0.00000000 1348.58935 xlo xhi
0.00000000 1348.58935 ylo yhi
0.00000000 1348.58935 zlo zhi

# Pair Coeffs
# 1 Ar

Masses

1 39.948 # Ar

Atoms # full

1 1 1 0.0 1101.0818710891626 316.3334111089588 376.7546813079219 # Ar
2 2 1 0.0 961.0506907070412 223.05667192727728 809.1933806836672 # Ar
3 3 1 0.0 99.53409902490495 645.4074073818214 541.8564900440468 # Ar
4 4 1 0.0 242.71156203992925 5.303276607451689 1036.2017334366303 # Ar
5 5 1 0.0 779.5681292174113 1267.5234042044615 541.386164489119 # Ar
6 6 1 0.0 105.28438550294315 400.6405902706445 647.9299049852392 # Ar
7 7 1 0.0 574.607938276822 537.3981420624838 1135.5218317415104 # Ar
8 8 1 0.0 274.108689520648 644.7879092348995 1267.9841683809966 # Ar
9 9 1 0.0 757.8945999280194 176.51726690110462 0.6036247842495854 # Ar
10 10 1 0.0 156.96887386978455 708.7173714998119 1236.8877052786079 # Ar
11 11 1 0.0 687.4907805171763 397.245942197308 817.4032921181878 # Ar
12 12 1 0.0 667.7851997265526 971.6429544519285 330.36317629507414 # Ar
13 13 1 0.0 1034.847174319286 1167.3720360877996 989.624689203549 # Ar
14 14 1 0.0 148.42198019155762 765.687571821953 1109.3196559159949 # Ar
15 15 1 0.0 875.4630519240525 33.92396272745315 892.2793621220816 # Ar
16 16 1 0.0 244.8492035014657 261.7248707834285 655.2669822214926 # Ar
17 17 1 0.0 664.7816064210716 115.60928516548773 1182.8966634996714 # Ar
18 18 1 0.0 477.3947513804881 1216.5375348169853 1243.0654751481827 # Ar
19 19 1 0.0 1147.2552448951262 935.3639595642459 277.73237672759365 # Ar
20 20 1 0.0 738.7352663772054 179.47181424439495 647.9873009598718 # Ar
21 21 1 0.0 1001.8963600413801 1269.343108894439 325.8751419432937 # Ar
22 22 1 0.0 282.49438326197264 766.1472970892689 97.80433061866296 # Ar
23 23 1 0.0 100.84029084098049 502.1575343263561 1165.4619825244629 # Ar
24 24 1 0.0 238.1705250061032 1110.1521714413036 308.3445116304212 # Ar
25 25 1 0.0 1092.927309918448 1014.5636180436385 539.3718786428603 # Ar
26 26 1 0.0 906.4577999683315 453.80460906817336 1162.7532128173812 # Ar
27 27 1 0.0 3.6072709543763244 804.5732997321453 439.25203244302764 # Ar
28 28 1 0.0 292.76713425630794 845.1564807876093 728.1009358806707 # Ar
29 29 1 0.0 441.28499577410975 7.441828027245877 1339.2564377380784 # Ar
30 30 1 0.0 955.5962666159604 1178.8556979356244 553.3659831327996 # Ar
31 31 1 0.0 271.78258626562433 912.4307478616762 1292.3380978856135 # Ar
32 32 1 0.0 591.3874482373902 1223.9442981340633 70.54236382756082 # Ar
33 33 1 0.0 585.1073040129215 423.6644938812628 994.5013193932853 # Ar
34 34 1 0.0 1308.5530595517475 843.8309011608891 1029.3508009509787 # Ar
35 35 1 0.0 815.6508051033464 670.1743441935995 506.2270191637916 # Ar
36 36 1 0.0 115.32374093506749 873.2086037929064 790.3674840336334 # Ar
37 37 1 0.0 691.2362386119784 1243.5197210329914 1245.5179400723418 # Ar
38 38 1 0.0 551.8384445298814 460.4972449427975 936.4218380189234 # Ar
39 39 1 0.0 546.1091561162971 619.7593587066733 1312.0308911672382 # Ar
40 40 1 0.0 978.0437108485257 508.2420171466156 1120.0358915131621 # Ar
41 41 1 0.0 1263.3404537618949 239.5153286072899 994.055340898572 # Ar
42 42 1 0.0 743.0196089458777 1178.2738070242606 1270.7316354172956 # Ar
43 43 1 0.0 230.1017558135326 536.4105286111824 378.2335303495544 # Ar
44 44 1 0.0 889.9585604022519 926.4137147581667 671.4646777031538 # Ar
45 45 1 0.0 708.7597784892257 1043.7046142998265 842.9623682991586 # Ar
46 46 1 0.0 989.9303396852658 143.83353153024564 935.5736104193513 # Ar
47 47 1 0.0 919.1723503935677 343.12028184865807 725.8225142268079 # Ar
48 48 1 0.0 297.741483876621 1038.5269368329539 190.86201732350543 # Ar
49 49 1 0.0 688.9260071337478 1186.8969917457293 590.6995611013411 # Ar
50 50 1 0.0 742.4959984379362 43.80471903587459 846.622146509747 # Ar
51 51 1 0.0 867.7315928240009 1221.3929389274172 843.0103657525653 # Ar
52 52 1 0.0 817.5788678049342 731.9744938277695 1224.5969593478985 # Ar
53 53 1 0.0 73.54858846355552 793.7383833810921 416.20226217301564 # Ar
54 54 1 0.0 914.9722383859796 1238.5053987193262 463.1734300691562 # Ar
55 55 1 0.0 569.8923019448142 788.7493508117882 626.2145723771488 # Ar
56 56 1 0.0 408.21999187731103 919.5365728552467 192.66228785716342 # Ar
57 57 1 0.0 249.78313007464186 720.8530572475082 173.1627760852637 # Ar
58 58 1 0.0 801.237743008394 678.9342711345282 152.35819116269818 # Ar
59 59 1 0.0 386.19726395189184 341.51660103486154 53.88102354918363 # Ar
60 60 1 0.0 168.01650197738454 536.1352838689072 1221.1914004213672 # Ar
61 61 1 0.0 1015.7654573036234 1178.2100964892597 1142.0627899445105 # Ar
62 62 1 0.0 448.3954835743829 55.51984755617018 1340.989919453103 # Ar
63 63 1 0.0 802.1936040195136 1121.4816305499735 302.7741456562411 # Ar
64 64 1 0.0 987.4827564233261 993.1891186570912 340.1918086952428 # Ar
65 65 1 0.0 419.57934425499576 460.9426968590673 1039.9304859163242 # Ar
66 66 1 0.0 1212.6168796280788 506.37014902465825 303.55113444293386 # Ar
67 67 1 0.0 1104.3180023469497 1107.1522111741751 698.612868179335 # Ar
68 68 1 0.0 1136.6448726926342 458.47721579948484 493.4052488256992 # Ar
69 69 1 0.0 1015.0496355691844 896.5173663691209 563.9796956222356 # Ar
70 70 1 0.0 861.5184800339207 109.31879472674059 194.90443701194351 # Ar
71 71 1 0.0 265.8283887158503 519.2031239050189 395.62288068485475 # Ar
72 72 1 0.0 366.94727758389223 257.8993917072646 242.209860718889 # Ar
73 73 1 0.0 411.799788298892 126.37931392581443 973.067404863945 # Ar
74 74 1 0.0 710.1500877697006 1170.804305259612 549.3601953972608 # Ar
75 75 1 0.0 387.55371210705823 121.0316349335286 136.36988469247254 # Ar
76 76 1 0.0 80.63195691016647 1334.4202726774784 396.16109682615973 # Ar
77 77 1 0.0 1305.4187755188138 961.4430995718934 253.57266386674854 # Ar
78 78 1 0.0 473.846690724761 330.5752871374593 1137.3582389054657 # Ar
79 79 1 0.0 825.5146558448188 247.75035240581832 977.9042614694878 # Ar
80 80 1 0.0 895.1086438235158 477.33651969627965 547.9904320836774 # Ar
81 81 1 0.0 61.37763817105962 75.65588208152178 273.7453033801505 # Ar
82 82 1 0.0 152.88795611946944 1278.50675589619 588.1208811915128 # Ar
83 83 1 0.0 439.19319738570556 1070.0765660499887 42.14488361072836 # Ar
84 84 1 0.0 487.4754071702625 816.0889084551073 229.2838425091826 # Ar
85 85 1 0.0 1251.898223551364 1060.8073903007253 389.68943361725235 # Ar
86 86 1 0.0 620.0734998120868 26.90172654390548 527.7036584571501 # Ar
87 87 1 0.0 993.995932459357 514.7926112923291 826.2013167406352 # Ar
88 88 1 0.0 31.48714402616655 307.2374189792685 582.9350338287594 # Ar
89 89 1 0.0 912.1873348610551 757.916654763868 396.4724342328793 # Ar
90 90 1 0.0 769.29512923434 1049.3243303560773 1244.8432609964432 # Ar
91 91 1 0.0 487.33961238270297 667.3855766495142 149.37470398029282 # Ar
92 92 1 0.0 1278.7785271015537 1099.0075583015273 1309.2822856283256 # Ar
93 93 1 0.0 344.9192095433518 1166.5937538752767 1228.5409580699682 # Ar
94 94 1 0.0 960.0565367579256 607.7571311580839 671.9757407784458 # Ar
95 95 1 0.0 726.2372596547397 615.4922713051301 111.36694734453185 # Ar
96 96 1 0.0 306.9781951375652 1196.952499799454 258.27504444090334 # Ar
97 97 1 0.0 387.24488142492197 1236.9530028203471 809.1819021194611 # Ar
98 98 1 0.0 269.1887749659417 1111.2232993112714 736.4199231901687 # Ar
99 99 1 0.0 119.34080147727259 556.1443047098734 275.19003552293697 # Ar
100 100 1 0.0 347.97948987366516 1344.2188007223785 742.5999068197881 # Ar
101 101 1 0.0 476.9667001220587 654.4082193343697 242.05252885173803 # Ar
102 102 1 0.0 420.15326937511855 84.48731243260713 627.8435342555339 # Ar
103 103 1 0.0 651.5582914321401 1275.6558236257395 1027.0047351627197 # Ar
104 104 1 0.0 569.0761888134991 144.6613175266242 1244.8675411932902 # Ar
105 105 1 0.0 937.6594280185277 364.74215858870645 1216.4848754219042 # Ar
106 106 1 0.0 588.7980391066988 1176.5666849551928 230.5015942011082 # Ar
107 107 1 0.0 878.7896712952885 1162.4151353512314 1002.1509429274735 # Ar
108 108 1 0.0 551.8203852318074 157.06864115066486 1331.5235461720479 # Ar
109 109 1 0.0 1102.4846481771046 75.03347581517625 1028.5004575248795 # Ar
110 110 1 0.0 103.54698511535392 1113.8031080348294 815.8103798023773 # Ar
111 111 1 0.0 1310.4664168699162 374.12796804672183 787.7734892682751 # Ar
112 112 1 0.0 318.5158560325955 272.48807993904234 1309.377214903089 # Ar
113 113 1 0.0 844.3274116600999 490.6488161062973 1187.3569024536646 # Ar
114 114 1 0.0 1051.9715969241236 608.8654575438102 756.6878810099563 # Ar
115 115 1 0.0 950.468735087353 938.544997634654 472.5395568238412 # Ar
116 116 1 0.0 887.2874074861301 929.6217317407477 679.5369236491183 # Ar
117 117 1 0.0 796.4712269745409 1280.4266079577183 403.94106054440067 # Ar
118 118 1 0.0 423.49004885759547 1124.3351778542706 827.3770931719574 # Ar
119 119 1 0.0 110.40065877602689 883.9816378969026 807.4236884855932 # Ar
120 120 1 0.0 1154.9210868782147 688.274472166762 47.45086287896415 # Ar
121 121 1 0.0 274.53606585881863 237.96111728998162 1316.4588182595242 # Ar
122 122 1 0.0 38.40821759047458 213.7431171043704 792.5901523666306 # Ar
123 123 1 0.0 54.42700164268978 596.0929953255621 665.8229837857972 # Ar
124 124 1 0.0 13.001347808535641 1241.7035330691258 32.539190338297445 # Ar
125 125 1 0.0 1294.1884903906823 970.9673836524811 838.1971277707686 # Ar
126 126 1 0.0 598.6111403636036 1147.5793163251562 28.287844425506606 # Ar
127 127 1 0.0 1334.2324973405514 209.6562363866737 1223.9827620543695 # Ar
128 128 1 0.0 251.86033085239606 647.1286930857784 566.4722174186769 # Ar
129 129 1 0.0 97.84128285800828 174.0204018607668 801.774115637397 # Ar
130 130 1 0.0 822.2459970923845 1260.3600048624362 371.7459096780661 # Ar
131 131 1 0.0 111.65284140104153 59.252634149425845 294.6412268805923 # Ar
132 132 1 0.0 1093.3432778823742 696.8086576907986 1303.202854880653 # Ar
133 133 1 0.0 1185.0391827512033 1112.0549589057064 1158.6127616824317 # Ar
134 134 1 0.0 340.25179043408883 1043.6530879860964 1200.7230896571104 # Ar
135 135 1 0.0 183.79758045338718 44.463884175851355 405.31894167598443 # Ar
136 136 1 0.0 581.3312452166376 888.4918306830647 542.0545679379616 # Ar
137 137 1 0.0 1202.35768343774 1167.5651214983238 1115.742229671431 # Ar
138 138 1 0.0 1320.914527477265 1072.3503699583837 1289.3520232121725 # Ar
139 139 1 0.0 476.6741409040925 907.6493536258338 443.71949504415556 # Ar
140 140 1 0.0 399.7787792623983 1117.2456682196628 954.9474980907842 # Ar
141 141 1 0.0 756.5964537148566 872.5880763332624 126.90854970360809 # Ar
142 142 1 0.0 200.87302978145416 1260.9550414785226 585.2651515687415 # Ar
143 143 1 0.0 1164.6648269805542 1113.9874764060708 840.8080056658144 # Ar
144 144 1 0.0 463.8911257970357 7.055446503843728 753.1666242099585 # Ar
145 145 1 0.0 518.6719864655195 126.72396835691087 230.27886246426863 # Ar
146 146 1 0.0 671.1448033210413 692.603683103013 1230.9443570066298 # Ar
147 147 1 0.0 494.60152665482485 1220.5564721548863 926.9328383316175 # Ar
148 148 1 0.0 508.8008419443116 829.4286722101642 442.4256283734139 # Ar
149 149 1 0.0 636.5279734287797 926.8347360048394 1189.246976794305 # Ar
150 150 1 0.0 346.8902202882842 147.59790000905502 398.7164765875817 # Ar
151 151 1 0.0 1316.3703685661872 295.03280739564536 301.55048682277766 # Ar
152 152 1 0.0 684.7942336552501 908.8805068103235 405.2197145164276 # Ar
153 153 1 0.0 1341.6356673238286 1278.132410703582 347.43825548713795 # Ar
154 154 1 0.0 273.05010339597254 293.35106534661344 90.13188437326932 # Ar
155 155 1 0.0 348.11498819342665 74.65543460292061 101.28013797535714 # Ar
156 156 1 0.0 470.73596587359805 841.0865749424283 40.17096508789167 # Ar
157 157 1 0.0 526.3742532749803 920.8710413280145 787.1697393053139 # Ar
158 158 1 0.0 912.1959451060407 262.1396531649143 687.5924689106214 # Ar
159 159 1 0.0 698.1355174427248 81.29398249567585 400.7812736957037 # Ar
160 160 1 0.0 257.5356948592837 74.88943414960069 431.53923100200666 # Ar
161 161 1 0.0 762.7467599458332 904.3156895230962 47.25432346698914 # Ar
162 162 1 0.0 1219.2526095276608 242.16117706163737 888.2514145733865 # Ar
163 163 1 0.0 1344.0843098327698 524.4505918346523 368.561180368775 # Ar
164 164 1 0.0 1158.6704435840745 333.9346809995421 857.0500644727214 # Ar
165 165 1 0.0 13.48367628443206 921.9717215536699 604.0746034153937 # Ar
166 166 1 0.0 306.8625297184142 1327.901688365959 154.69499482141762 # Ar
167 167 1 0.0 233.71153561844105 307.54226154835743 962.2295145178232 # Ar
168 168 1 0.0 1013.8859986406087 569.6964478470608 104.30167252796717 # Ar
169 169 1 0.0 238.2503430589471 1183.457774421347 131.79646352894991 # Ar
170 170 1 0.0 627.5094392772139 556.3369144744792 260.4943599272652 # Ar
171 171 1 0.0 196.8928484470339 1324.0254139089886 446.92269321188195 # Ar
172 172 1 0.0 1134.0920709131535 424.6659797448829 1008.0289482260147 # Ar
173 173 1 0.0 1132.4977161523502 1243.0007034923874 1254.1662024801828 # Ar
174 174 1 0.0 396.873596462169 1251.8689941000168 1056.021333184225 # Ar
175 175 1 0.0 628.8033532670502 1129.5823119436125 241.47223553989932 # Ar
176 176 1 0.0 688.5974060431229 62.43666438583325 361.3237674358709 # Ar
177 177 1 0.0 599.8539071537612 1269.5598865771924 1083.2423344575689 # Ar
178 178 1 0.0 1215.2754006447467 83.85508211509426 604.3166346078187 # Ar
179 179 1 0.0 21.905965224310822 1326.1648515918666 453.52774239129235 # Ar
180 180 1 0.0 317.25213819938153 1334.6844059500386 664.805156949352 # Ar
181 181 1 0.0 362.5485333587523 1259.2766080759657 96.59118206835922 # Ar
182 182 1 0.0 284.07049262261603 119.22950868909989 758.8577819193234 # Ar
183 183 1 0.0 1234.6149741001138 654.2351699881871 974.8271245011077 # Ar
184 184 1 0.0 178.38985284515678 1170.4241159342184 1096.2665759687336 # Ar
185 185 1 0.0 299.54640520787507 119.10666025956425 314.0357814922054 # Ar
186 186 1 0.0 864.498592475847 187.48762092014937 676.1536821921188 # Ar
187 187 1 0.0 549.4601360560014 422.6018745747625 525.2250511390685 # Ar
188 188 1 0.0 6.155899029645287 718.5447455369028 738.2483271617166 # Ar
189 189 1 0.0 907.6462716462739 1292.322212891375 894.7115899105846 # Ar
190 190 1 0.0 584.3188908206613 1254.282586632044 22.022397501192188 # Ar
191 191 1 0.0 829.9577684891793 1334.1725077161127 87.85645146021977 # Ar
192 192 1 0.0 410.6336209658446 266.450712296814 35.15333665193843 # Ar
193 193 1 0.0 711.9126243471326 1081.696734251505 1204.7126683090805 # Ar
194 194 1 0.0 1028.5176687195599 749.5152028235616 1224.7113141710852 # Ar
195 195 1 0.0 757.091159437482 163.6231487197655 1157.859923765263 # Ar
196 196 1 0.0 443.1848139747743 1290.8248094857295 441.84370635713844 # Ar
197 197 1 0.0 548.3541418469208 622.5317113624162 334.5469186161545 # Ar
198 198 1 0.0 1170.7861805585621 589.5418328278569 1253.8934316157197 # Ar
199 199 1 0.0 177.68713126524298 255.3602385595139 725.0696987491539 # Ar
200 200 1 0.0 724.9773978586803 1017.5849735495743 893.6497940667538 # Ar
201 201 1 0.0 575.7138855627969 461.11662610884247 837.7372702143479 # Ar
202 202 1 0.0 61.48051818302602 748.5224842547095 479.0383639117899 # Ar
203 203 1 0.0 689.5970335156557 825.2768138336389 1069.2090362877498 # Ar
204 204 1 0.0 267.23230276808215 1337.4687742157214 790.3464985724793 # Ar
205 205 1 0.0 208.403882372922 139.01335563737004 1207.7862085630702 # Ar
206 206 1 0.0 423.6402840166928 322.19276536934416 474.5868801841985 # Ar
207 207 1 0.0 430.9591319895114 1054.8102546074642 695.0435103131414 # Ar
208 208 1 0.0 502.83671002597936 977.3228916111086 800.974137124901 # Ar
209 209 1 0.0 927.841372618973 1293.1648370503483 380.95791262315925 # Ar
210 210 1 0.0 956.3697553752532 970.9544840981148 62.513506555878244 # Ar
211 211 1 0.0 615.4423519327453 731.8857862212349 9.767085705742968 # Ar
212 212 1 0.0 980.0090298467741 375.49327894059485 49.49361823097284 # Ar
213 213 1 0.0 1038.0561665110424 319.423602589436 713.2444148938115 # Ar
214 214 1 0.0 1025.6880266083338 823.8437847760479 205.42361798935826 # Ar
215 215 1 0.0 731.9918244637998 774.2439355472254 771.3798395664251 # Ar
216 216 1 0.0 982.3907338334661 292.8442789837419 1317.624432557738 # Ar
217 217 1 0.0 1123.195526474216 758.5779817078 782.5794003872279 # Ar
218 218 1 0.0 230.36085063116886 424.6228706582954 923.0359641638386 # Ar
219 219 1 0.0 808.2563946818773 143.2967704015978 1076.560143177277 # Ar
220 220 1 0.0 498.1880374250304 312.9215012041898 1192.2388270031608 # Ar
221 221 1 0.0 529.142070090767 472.4450988505687 21.710129477307657 # Ar
222 222 1 0.0 523.2087946901731 720.0227193091048 1086.9676978964692 # Ar
223 223 1 0.0 246.42514651228595 464.27843985603243 171.34213189269522 # Ar
224 224 1 0.0 969.1660814650605 319.77069586153476 403.04435208291574 # Ar
225 225 1 0.0 612.7221048893783 1193.6486944690823 151.5226539572646 # Ar
226 226 1 0.0 975.1011875164419 1029.7211092244222 1041.0510476700183 # Ar
227 227 1 0.0 555.6912156102459 179.52785376289336 431.17534750861614 # Ar
228 228 1 0.0 1264.0197659796643 1205.9867114221652 883.8554834867062 # Ar
229 229 1 0.0 804.0683833742969 148.13993203097658 365.48750965734484 # Ar
230 230 1 0.0 205.73815171686232 757.3227441043703 61.40755834637493 # Ar
231 231 1 0.0 499.21496573483233 1150.7101211529337 1016.5906341820944 # Ar
232 232 1 0.0 1019.1702828898995 659.318064503001 715.7837602482139 # Ar
233 233 1 0.0 1237.6209222180516 342.36364720794273 376.0903617010238 # Ar
234 234 1 0.0 958.2810860282424 687.6947661979201 590.1260492038957 # Ar
235 235 1 0.0 1029.1535407068975 721.5020219802753 1025.8900319378276 # Ar
236 236 1 0.0 745.4318792994476 962.2410163758882 1316.196982114789 # Ar
237 237 1 0.0 1319.187502049041 38.804848952306216 33.200784377044315 # Ar
238 238 1 0.0 194.51179050688262 673.0819660435765 389.5854559964526 # Ar
239 239 1 0.0 471.1033499590128 1239.031841287282 1180.3797059087835 # Ar
240 240 1 0.0 724.1991441410926 1066.8404963154974 1340.0563121096482 # Ar
241 241 1 0.0 608.9074127352652 482.1473623361433 222.41054763231196 # Ar
242 242 1 0.0 1228.390075279509 1215.0284756399126 1308.1545226022668 # Ar
243 243 1 0.0 688.813874081076 105.26574366731631 1338.8570936090891 # Ar
244 244 1 0.0 96.84284984450964 296.27003433281186 760.8446086540055 # Ar
245 245 1 0.0 921.2391698267894 753.0954109331311 336.8832938061139 # Ar
246 246 1 0.0 981.4823831380847 894.0371434764178 732.9567158082864 # Ar
247 247 1 0.0 426.5446196248815 768.7020473719765 1197.1081559978693 # Ar
248 248 1 0.0 23.84797819303578 205.62028516909487 644.3359397921631 # Ar
249 249 1 0.0 705.0296916551263 504.0144137774469 1197.9222839374374 # Ar
250 250 1 0.0 606.2277723218139 898.8648445895127 501.0867393729836 # Ar
251 251 1 0.0 919.5396424484992 74.25429794278514 661.720130294408 # Ar
252 252 1 0.0 75.18862169985492 356.4638698542751 471.57378978776194 # Ar
253 253 1 0.0 840.4323950105043 626.2553525819815 1037.3346090043149 # Ar
254 254 1 0.0 91.31773779677262 963.448166016228 792.6166094703584 # Ar
255 255 1 0.0 1308.3770643053367 1261.7442143791125 1125.9320311551583 # Ar
256 256 1 0.0 985.5500202780676 323.56769922275726 112.50375997427993 # Ar
257 257 1 0.0 447.2012119749955 1239.7259102883195 64.37522410347285 # Ar
258 258 1 0.0 574.6353351810419 841.7928927368462 1297.7727805072402 # Ar
259 259 1 0.0 675.5993880081418 1063.9795893540954 475.6796239550499 # Ar
260 260 1 0.0 68.57123034732089 315.33713433939005 615.1568759544356 # Ar
261 261 1 0.0 411.1040966692122 1179.3370637245648 1243.0681153003898 # Ar
262 262 1 0.0 1159.5469974010182 613.5053689337288 267.61007509242603 # Ar
263 263 1 0.0 36.767032485491406 266.8211915526734 1306.8925021176954 # Ar
264 264 1 0.0 839.3573090694633 740.7617632649477 75.71163588759383 # Ar
265 265 1 0.0 249.6386028523835 1096.352392963092 1193.180565436547 # Ar
266 266 1 0.0 1167.3916546194343 497.56189677648246 872.3710254705234 # Ar
267 267 1 0.0 631.1851528005762 694.7916966412491 1060.771551854296 # Ar
268 268 1 0.0 1069.8332665611294 1315.7318033480058 233.72238568087266 # Ar
269 269 1 0.0 397.5567664624036 1076.6602081446892 328.7609699670751 # Ar
270 270 1 0.0 918.923195691787 12.326464153553172 567.3182152810883 # Ar
271 271 1 0.0 409.08015287534585 423.45090945871834 521.3247363100293 # Ar
272 272 1 0.0 948.2069347700357 1134.25818866897 1097.1769323410088 # Ar
273 273 1 0.0 986.789822142747 1189.729545945145 1250.0410938926357 # Ar
274 274 1 0.0 1143.542358667308 1284.7183173174374 1046.9338544753855 # Ar
275 275 1 0.0 543.2167446032468 1342.7975967090385 59.682567754254215 # Ar
276 276 1 0.0 239.44185797969268 1320.9673374323029 165.29842106154973 # Ar
277 277 1 0.0 417.0093693178119 317.29189046090664 366.94322694997305 # Ar
278 278 1 0.0 1009.8469768449485 419.898857759672 227.96829113562654 # Ar
279 279 1 0.0 291.9679865143 1294.1314183856202 1142.636992804095 # Ar
280 280 1 0.0 286.5986226670312 584.1382853842553 1093.070821767396 # Ar
281 281 1 0.0 959.1666001263873 1214.7636630319241 1304.128028966024 # Ar
282 282 1 0.0 1272.7113353394109 473.0363754506679 302.0874783507958 # Ar
283 283 1 0.0 703.3385563194398 242.4463909151317 714.5537696252779 # Ar
284 284 1 0.0 941.2556683795494 976.570816426487 59.48870229532752 # Ar
285 285 1 0.0 477.28139680399175 623.4188367972281 964.1899926178006 # Ar
286 286 1 0.0 1015.862207327219 611.2056653658781 664.6525022987555 # Ar
287 287 1 0.0 178.583624748565 937.104799266228 91.5343425140464 # Ar
288 288 1 0.0 121.98139959520414 1290.060828369307 356.98459928631775 # Ar
289 289 1 0.0 695.0568734700652 1151.272637219765 294.03312232287936 # Ar
290 290 1 0.0 1136.1576081605983 1317.9939149359618 317.1181132707138 # Ar
291 291 1 0.0 857.2867728683491 429.5492588960261 72.99515343128026 # Ar
292 292 1 0.0 320.16462298068456 985.8880543066648 49.88892379875741 # Ar
293 293 1 0.0 1132.2423187617046 1229.3079035475166 117.77432376054848 # Ar
294 294 1 0.0 83.64244520379968 618.687944666997 540.8180308446001 # Ar
295 295 1 0.0 1160.317295369828 1275.0114624575594 572.6692575012895 # Ar
296 296 1 0.0 1239.1004841864476 58.292339275400664 578.7576054516167 # Ar
297 297 1 0.0 849.4363516513496 1001.040710553402 689.3129956665304 # Ar
298 298 1 0.0 1123.789227298912 757.3188048444707 823.2596186571079 # Ar
299 299 1 0.0 502.9444628141117 1174.7247012287387 264.8864044421448 # Ar
300 300 1 0.0 763.2101156577662 83.42045500380073 651.7411359241275 # Ar
301 301 1 0.0 370.70622614217524 632.5246070288018 1215.4205892571213 # Ar
302 302 1 0.0 374.6969240323099 210.07076686183032 335.7195261481104 # Ar
303 303 1 0.0 487.79929397528815 895.0307915724768 632.416164266132 # Ar
304 304 1 0.0 54.07807742094661 294.8848226943983 1277.8812507210018 # Ar
305 305 1 0.0 1124.395066386013 202.88901509714972 915.5528387836604 # Ar
306 306 1 0.0 1342.1986179562186 915.4729550637117 131.20604396445756 # Ar
307 307 1 0.0 287.90302513055326 675.148644131178 1045.6702829775347 # Ar
308 308 1 0.0 1085.0432246979105 726.7469476775849 55.99704053947232 # Ar
309 309 1 0.0 459.9260579758755 194.70814377813969 684.457599481364 # Ar
310 310 1 0.0 945.763453793458 1105.5029973707522 1056.0994981240212 # Ar
311 311 1 0.0 1261.717438053586 789.9798447736121 101.6174830492555 # Ar
312 312 1 0.0 1066.6419055206784 104.46995101593899 341.2790952075524 # Ar
313 313 1 0.0 814.188927034159 780.0667503173559 953.4385638128847 # Ar
314 314 1 0.0 268.347225180774 1010.8842730885935 500.9316686530753 # Ar
315 315 1 0.0 1046.3693029402898 1063.219579638523 1102.9706790649936 # Ar
316 316 1 0.0 177.7600368115393 1151.0362571230403 1266.1719096266545 # Ar
317 317 1 0.0 109.20598288301382 455.17613970732504 1289.2258638169928 # Ar
318 318 1 0.0 123.99734180723343 921.6102817120419 90.20255173619177 # Ar
319 319 1 0.0 1189.6111380228822 657.3756287677892 78.58751987954632 # Ar
320 320 1 0.0 478.90102207493214 555.3773311077651 10.769324142757242 # Ar
321 321 1 0.0 461.8227383071246 1130.4118836565144 528.3933752532353 # Ar
322 322 1 0.0 514.1933368267411 259.9938500171967 1226.038330605206 # Ar
323 323 1 0.0 408.39635407649274 751.4825552849354 101.28111145361578 # Ar
324 324 1 0.0 307.57989992279965 1334.7432346906269 1047.6032376477267 # Ar
325 325 1 0.0 966.8859370618678 994.2514510345272 870.4818725259179 # Ar
326 326 1 0.0 445.5945739986803 1063.311706245417 961.2317561952564 # Ar
327 327 1 0.0 1344.2678897099302 1219.1934466829493 778.7899475616983 # Ar
328 328 1 0.0 797.4812261053813 402.551821545255 1040.5569795580695 # Ar
329 329 1 0.0 1298.4446157176799 928.2589987318198 1037.452906835953 # Ar
330 330 1 0.0 1113.4035146453248 205.99802771342294 178.6065527021181 # Ar
331 331 1 0.0 446.5268099813949 751.2065181519165 72.85075001762345 # Ar
332 332 1 0.0 221.78221363490897 446.26615783332835 741.6430275605032 # Ar
333 333 1 0.0 1144.686238645044 413.4410973307103 489.9477078905326 # Ar
334 334 1 0.0 627.8894037517514 254.71797833137762 248.69981924529398 # Ar
335 335 1 0.0 172.287392912705 788.3179316355703 292.5937217932826 # Ar
336 336 1 0.0 987.8101414190762 594.4145904756145 924.0089830214005 # Ar
337 337 1 0.0 299.70320886622613 47.15928365845698 542.6951393415574 # Ar
338 338 1 0.0 910.5609189919713 1294.7300600178753 906.2419492706482 # Ar
339 339 1 0.0 870.6845804490274 553.2374678503 647.2198416305622 # Ar
340 340 1 0.0 1311.5873942015548 525.9043134323824 304.87044842871245 # Ar
341 341 1 0.0 247.88049074256963 123.01149966135199 840.1416924922755 # Ar
342 342 1 0.0 758.3803446206034 1068.0310507547697 1156.7538405142036 # Ar
343 343 1 0.0 208.14066767107454 957.7545129323829 822.4966614325831 # Ar
344 344 1 0.0 1166.5687950041727 476.9229798220339 1158.3508877197364 # Ar
345 345 1 0.0 384.7197119633307 947.9745459940326 1081.2404360603211 # Ar
346 346 1 0.0 279.0488017494362 7.740560229912202 1274.5312027538812 # Ar
347 347 1 0.0 751.3561814583096 115.01738603212138 740.9288709820105 # Ar
348 348 1 0.0 431.7662960557439 447.62593122030455 1099.116842838794 # Ar
349 349 1 0.0 293.9022931380988 267.94956902182776 463.7537585738952 # Ar
350 350 1 0.0 879.496234424364 741.2266798514707 228.6089131585297 # Ar
351 351 1 0.0 411.5604227104387 724.1563075662361 233.62961427237147 # Ar
352 352 1 0.0 1168.354141929425 555.9286842094577 550.3829013955144 # Ar
353 353 1 0.0 1153.5463298850605 1334.9821472126155 207.21706510834215 # Ar
354 354 1 0.0 547.2421681236871 943.094105131358 217.81179414795236 # Ar
355 355 1 0.0 34.110766892012855 740.5298095389054 511.4451668902278 # Ar
356 356 1 0.0 584.2082492914058 444.7940584388753 954.423172071743 # Ar
357 357 1 0.0 234.99260419218228 109.8345478087795 796.0206034739175 # Ar
358 358 1 0.0 1164.519717185572 207.44888377979098 529.866018534448 # Ar
359 359 1 0.0 225.6492447875894 512.8366343721846 435.4895209379294 # Ar
360 360 1 0.0 615.1116333656317 302.3444413621129 1230.813188646585 # Ar
361 361 1 0.0 1099.3206775282363 755.7705645003907 340.09410201834004 # Ar
362 362 1 0.0 189.59526662503686 25.397051904841643 1055.2914093699712 # Ar
363 363 1 0.0 661.5488461268407 1094.9872473253956 674.2481448826051 # Ar
364 364 1 0.0 469.8368311123135 1077.6541542341097 666.3185346988886 # Ar
365 365 1 0.0 654.5028323301556 601.0120974141164 1039.0808865916222 # Ar
366 366 1 0.0 1048.8888255172053 511.9280171363436 1273.507900531282 # Ar
367 367 1 0.0 879.3189600791429 1063.8618394703476 98.39784207031606 # Ar
368 368 1 0.0 403.2398233437067 1054.744621167088 767.2066405762271 # Ar
369 369 1 0.0 36.59836800269849 806.6611397792872 266.16043315203586 # Ar
370 370 1 0.0 252.62870454734744 1086.1744070398192 724.9205605830061 # Ar
371 371 1 0.0 1317.7360858426762 11.874276084309276 899.933522018864 # Ar
372 372 1 0.0 626.8251811227718 265.3535324505748 451.43673837299514 # Ar
373 373 1 0.0 502.76621112026186 1206.6171583204657 973.2187032199203 # Ar
374 374 1 0.0 732.0128090156438 503.76348980089733 772.3629932982251 # Ar
375 375 1 0.0 248.9324301797358 819.339362279989 742.4742044717811 # Ar
376 376 1 0.0 466.4034815395488 1214.5691903892846 81.35149375984786 # Ar
377 377 1 0.0 1133.7314766888865 1046.952087707966 395.23501806462895 # Ar
378 378 1 0.0 769.5244868063268 423.4090576396887 168.9820543405576 # Ar
379 379 1 0.0 207.53850423565 561.2127182281363 448.21598478019064 # Ar
380 380 1 0.0 556.6098830160577 1082.5203094352369 1238.6828164931248 # Ar
381 381 1 0.0 592.9900401027817 503.5619229286863 979.199855619742 # Ar
382 382 1 0.0 1010.6538829484971 499.2516190336261 466.9961345743551 # Ar
383 383 1 0.0 1342.5069499781714 155.14198797184235 744.5151690081409 # Ar
384 384 1 0.0 889.4592102467208 49.05488661002172 375.160155356671 # Ar
385 385 1 0.0 734.184448476812 834.2288390933529 96.1118160209682 # Ar
386 386 1 0.0 841.1740872984691 1062.2579283964985 806.8732111387394 # Ar
387 387 1 0.0 467.29989771491745 941.1934534451467 795.4030626330187 # Ar
388 388 1 0.0 1346.54570343184 987.2073929177143 761.00642344629 # Ar
389 389 1 0.0 582.0289975098373 610.2013181770367 333.576908391246 # Ar
390 390 1 0.0 645.5533127499671 1134.9079108332564 1176.89972961211 # Ar
391 391 1 0.0 501.32366599560544 1071.782897177355 500.17447157179737 # Ar
392 392 1 0.0 708.7577325517677 27.42431668450657 676.3563173267472 # Ar
393 393 1 0.0 318.6047187450678 1173.3696042419542 701.9043625783457 # Ar
394 394 1 0.0 1029.7264104798214 783.4100578950199 1155.4488860202969 # Ar
395 395 1 0.0 118.86768063411806 793.1066573894061 1131.0940730727955 # Ar
396 396 1 0.0 1344.7491778390506 1026.8405951586963 932.81260577381 # Ar
397 397 1 0.0 1132.7490083825326 7.8207924521254855 620.4392026283095 # Ar
398 398 1 0.0 611.290215999032 95.48943810725805 917.4421490070066 # Ar
399 399 1 0.0 1283.6889004627049 879.6701377781555 457.50017868673405 # Ar
400 400 1 0.0 906.2321098311494 360.85167543311417 547.3907671810035 # Ar
401 401 1 0.0 31.888626004089762 217.66324635867565 1229.4616243921266 # Ar
402 402 1 0.0 675.0127954846844 746.702045772918 236.40226483591476 # Ar
403 403 1 0.0 926.3300458742378 50.1105670856564 1335.7932699602063 # Ar
404 404 1 0.0 919.7622946479827 1229.3909574977874 984.9188958363156 # Ar
405 405 1 0.0 593.3402159969177 642.3597872838919 356.8634704879326 # Ar
406 406 1 0.0 591.565434644283 604.2759614836539 407.13936446757253 # Ar
407 407 1 0.0 718.0455898986554 1017.0330553524931 49.77858430515641 # Ar
408 408 1 0.0 286.42515815084226 204.3593429446856 451.97402856992403 # Ar
409 409 1 0.0 234.2479297014839 812.0411071936566 1197.6123251230392 # Ar
410 410 1 0.0 1297.883076066477 837.4489903379579 306.23512991224305 # Ar
411 411 1 0.0 1138.52562121733 528.9437141718665 1327.885195273682 # Ar
412 412 1 0.0 1292.8260602619243 875.0085021211138 95.00586666020725 # Ar
413 413 1 0.0 713.9171798399585 204.6864690264775 1343.869129896058 # Ar
414 414 1 0.0 1050.6250656304926 575.183826430955 530.3856168018726 # Ar
415 415 1 0.0 75.74961314199918 858.7543033952137 1097.9766441872896 # Ar
416 416 1 0.0 1006.0271647027549 648.5908799955102 1294.8164681213168 # Ar
417 417 1 0.0 1045.242366449831 209.69497972526983 562.5106858817549 # Ar
418 418 1 0.0 957.8980182878257 1118.3313933477025 434.5117372999291 # Ar
419 419 1 0.0 572.7485096099437 906.7455031787467 1158.9757602999941 # Ar
420 420 1 0.0 1294.967859216178 492.8393267589223 375.9628362640556 # Ar
421 421 1 0.0 1009.3147116647617 159.68799036607285 387.474499231561 # Ar
422 422 1 0.0 521.3704357065945 728.1673497007993 139.86195580749524 # Ar
423 423 1 0.0 945.4908147748246 661.8338335381127 1326.1642143834713 # Ar
424 424 1 0.0 477.9108002511348 70.6033055125255 395.4394823397818 # Ar
425 425 1 0.0 32.72313286187765 1136.2772049203752 506.61534658403133 # Ar
426 426 1 0.0 748.4469405413655 488.9930292900991 216.81853096749828 # Ar
427 427 1 0.0 191.63262393994876 344.42142331834134 1115.426371571904 # Ar
428 428 1 0.0 1041.396417571445 904.4161610251064 218.17680163319747 # Ar
429 429 1 0.0 1198.2912431221575 413.73091562348816 1226.337810990449 # Ar
430 430 1 0.0 943.0278302871776 718.9418550279005 338.48264845573146 # Ar
431 431 1 0.0 1078.4660555300813 463.9743371447287 1021.3589008545943 # Ar
432 432 1 0.0 1004.8924879644948 1030.6631801070182 1142.0545396974048 # Ar
433 433 1 0.0 1052.2842561754114 175.6027013095481 487.6410709640565 # Ar
434 434 1 0.0 764.1174611459752 240.64077862164484 1315.6763160113055 # Ar
435 435 1 0.0 545.3768313162523 338.63539520036005 575.6118172767515 # Ar
436 436 1 0.0 963.5217906717866 649.0204647797069 244.09739011572987 # Ar
437 437 1 0.0 964.9550237677772 1273.1064971128976 710.6242363931354 # Ar
438 438 1 0.0 1249.1723090946277 513.1818346641596 447.273253694796 # Ar
439 439 1 0.0 740.4786456670096 1250.2428365800754 959.0094724267443 # Ar
440 440 1 0.0 691.8659655906565 709.994397921061 1291.168300899065 # Ar
441 441 1 0.0 1150.6438775236545 592.3554094861004 564.1644660800497 # Ar
442 442 1 0.0 56.99964158825906 429.6312783888185 418.5956223015694 # Ar
443 443 1 0.0 1267.0783541819308 869.362451889561 561.167319183128 # Ar
444 444 1 0.0 957.4303864366753 1300.9274232233472 1195.9407425453883 # Ar
445 445 1 0.0 1181.2556739114614 561.5921719466836 467.02765033776416 # Ar
446 446 1 0.0 650.348078616024 348.63746502577595 523.8325353428507 # Ar
447 447 1 0.0 278.5101911935877 891.619428779718 712.8738928717718 # Ar
448 448 1 0.0 395.8212521051793 1209.6658878513756 963.9509274609824 # Ar
449 449 1 0.0 35.108103415620654 101.35550091352877 894.3425896176415 # Ar
450 450 1 0.0 145.20786549247285 866.1205016691454 24.717588284613317 # Ar
451 451 1 0.0 254.5473516556662 529.8615255460293 681.3108998634672 # Ar
452 452 1 0.0 424.5969685206854 1057.2497520243842 587.3079878676484 # Ar
453 453 1 0.0 508.1603838518611 1226.4423592079224 412.1265601263336 # Ar
454 454 1 0.0 249.49638366305962 755.9950759535858 1152.0692314871678 # Ar
455 455 1 0.0 97.87005101038974 741.2423638782225 350.1907289369483 # Ar
456 456 1 0.0 423.18187295745304 939.0542676524343 509.4412359279969 # Ar
457 457 1 0.0 767.4244411436653 645.1009786550346 34.71696074680504 # Ar
458 458 1 0.0 738.7078134407253 427.25353670960493 894.3610823682544 # Ar
459 459 1 0.0 491.734587201133 695.1611371564524 1036.7838476653887 # Ar
460 460 1 0.0 970.7802827437899 174.184144704768 702.6215016669781 # Ar
461 461 1 0.0 359.5210812164534 973.9393384846613 682.670424403646 # Ar
462 462 1 0.0 868.1757399589678 878.1730593983434 654.7060326400609 # Ar
463 463 1 0.0 1157.0789873290908 469.14250215721995 861.0285678160932 # Ar
464 464 1 0.0 282.68146184802174 884.2103232183457 1.334420306454917 # Ar
465 465 1 0.0 418.7771627826157 936.4055710479075 1228.6690047000484 # Ar
466 466 1 0.0 894.7716585486304 1095.7371111594841 294.26905975662714 # Ar
467 467 1 0.0 461.11847453395865 214.41948260520277 152.66100977704494 # Ar
468 468 1 0.0 581.7849816534319 230.79785720472358 1063.2990315450495 # Ar
469 469 1 0.0 409.9906339477737 285.22066543828686 1209.6384512130178 # Ar
470 470 1 0.0 430.2887428100003 874.9242166520701 235.79359671579493 # Ar
471 471 1 0.0 731.1987680223004 151.20844988067358 128.06357235313308 # Ar
472 472 1 0.0 1314.965691739684 132.37384648895937 423.996003949238 # Ar
473 473 1 0.0 855.2661467140316 1232.105559899197 46.45107811109335 # Ar
474 474 1 0.0 350.32331909847437 450.43127684072584 205.8227110882749 # Ar
475 475 1 0.0 705.5808503980528 1177.6242036544782 1339.484348961207 # Ar
476 476 1 0.0 1341.9998395329121 952.7589470032856 167.176332282019 # Ar
477 477 1 0.0 792.4520600272516 647.2892913462599 331.26514000723114 # Ar
478 478 1 0.0 231.54223776412246 271.4350458088544 543.5681409092826 # Ar
479 479 1 0.0 496.5887717189783 295.3094850862379 239.09042562341958 # Ar
480 480 1 0.0 977.0186553049853 435.4203848909967 952.786402433771 # Ar
481 481 1 0.0 192.25905541191557 717.6031562367092 332.4218047610985 # Ar
482 482 1 0.0 1185.580229862026 562.3539045784673 1265.2407430675182 # Ar
483 483 1 0.0 327.51435253854197 5.412505833045322 720.3223637118488 # Ar
484 484 1 0.0 920.0764512425517 570.6732466049879 1173.1964255695286 # Ar
485 485 1 0.0 917.8927320737707 664.672582788614 29.07884862052059 # Ar
486 486 1 0.0 530.1689198907038 1028.2068900780214 259.16216269079143 # Ar
487 487 1 0.0 1135.733887714767 1343.9317496036704 286.87024186063405 # Ar
488 488 1 0.0 805.8354969204098 278.1578310032792 23.55939166314792 # Ar
489 489 1 0.0 912.3904007700825 964.5674062541939 756.9528443510105 # Ar
490 490 1 0.0 343.00605410715497 1072.865624364768 924.6726322535015 # Ar
491 491 1 0.0 1078.6567900834373 816.4764544417036 1232.7635415411826 # Ar
492 492 1 0.0 247.87911596156817 234.96493272860832 1069.7845744596973 # Ar
493 493 1 0.0 846.6517051309453 896.1013778932916 1115.216490508189 # Ar
494 494 1 0.0 1232.9094019569204 572.1274240753006 191.46270316325052 # Ar
495 495 1 0.0 1032.7970083326659 534.6517427542851 701.0512985804238 # Ar
496 496 1 0.0 323.0049946090459 1100.98019637823 163.24502041714186 # Ar
497 497 1 0.0 954.3952283383392 307.89598146572536 323.5320427564415 # Ar
498 498 1 0.0 586.7617292498679 1026.633461515469 360.50497136226727 # Ar
499 499 1 0.0 18.95588684666981 1313.5225432764396 1145.9907871631349 # Ar
500 500 1 0.0 929.9314022148584 375.5219090734657 1280.0778504235475 # Ar
501 501 1 0.0 573.4178089333672 879.261214550161 104.70713284877505 # Ar
502 502 1 0.0 1148.0186530147464 162.43586032173752 1231.3123214296702 # Ar
503 503 1 0.0 195.3802088557197 1066.089303336294 1236.8756110975437 # Ar
504 504 1 0.0 1257.7917420362548 757.8954501018504 1069.9982278630184 # Ar
505 505 1 0.0 256.272240843676 1123.791037761472 348.50842490779064 # Ar
506 506 1 0.0 566.2697019574688 529.503012164846 940.4903738383042 # Ar
507 507 1 0.0 97.76398130801773 518.1304431942925 385.25576335571606 # Ar
508 508 1 0.0 1072.6549187124135 857.6245174027988 101.47121981900474 # Ar
509 509 1 0.0 390.33261930619784 760.9976473368885 551.5180222923256 # Ar
510 510 1 0.0 339.39149554841026 687.6955045323407 598.1063579487648 # Ar
511 511 1 0.0 150.9564802894937 343.93541867854475 34.351739816750055 # Ar
512 512 1 0.0 262.0402229406369 403.7068122644273 826.1167600022873 # Ar
513 513 1 0.0 1015.3908578326021 359.9388852104458 113.2680051851246 # Ar
514 514 1 0.0 1103.6039578394348 1285.0401476219918 1072.2902643498915 # Ar
515 515 1 0.0 421.2375887876872 1033.4751267067961 374.49009827255037 # Ar
516 516 1 0.0 1260.8694613543057 1312.646304293906 134.49972650496312 # Ar
517 517 1 0.0 758.40544741652 109.98827928890272 369.2894177569283 # Ar
518 518 1 0.0 213.20664350209995 268.04865534713696 303.7814311076471 # Ar
519 519 1 0.0 1254.3054907115604 1172.4391484831858 1165.5810682581396 # Ar
520 520 1 0.0 310.3911249215407 231.5721234208764 1312.4913372313724 # Ar
521 521 1 0.0 1235.776167585245 840.5998875358615 1129.657850347739 # Ar
522 522 1 0.0 743.5910495405521 1055.0322802443952 302.2520239016833 # Ar
523 523 1 0.0 1153.2663792588796 174.30565022952456 890.1038075467462 # Ar
524 524 1 0.0 188.42582288103216 1235.280416047216 734.5946504484846 # Ar
525 525 1 0.0 1227.0398658383756 670.2718806527249 291.0733132918244 # Ar
526 526 1 0.0 205.8801863720936 1066.386781165954 1154.861573167095 # Ar
527 527 1 0.0 1062.715850613607 1245.4146766765905 322.0033545030542 # Ar
528 528 1 0.0 627.2741563533381 12.523862368373855 367.87912813547945 # Ar
529 529 1 0.0 161.14130074485172 933.6261341860945 543.1400517923626 # Ar
530 530 1 0.0 1274.4090970248212 677.4507399275218 1204.8105980010905 # Ar
531 531 1 0.0 114.80585187416018 688.5410675827958 1207.1912011353709 # Ar
532 532 1 0.0 798.4446658385332 622.0025741839156 561.0737683280162 # Ar
533 533 1 0.0 169.5660635878548 256.19207171527705 1274.2447559979673 # Ar
534 534 1 0.0 292.234226093747 167.7573190353702 1221.4554302698145 # Ar
535 535 1 0.0 349.91789926596186 263.55428444620435 1015.837487036608 # Ar
536 536 1 0.0 691.8690487950998 236.33846862254387 474.4432682951565 # Ar
537 537 1 0.0 127.59321411757821 1149.190460279119 222.4589672690538 # Ar
538 538 1 0.0 698.8300287730785 1105.1248775290724 1267.4686780834365 # Ar
539 539 1 0.0 719.1425822606789 372.68365570696835 849.4427826755577 # Ar
540 540 1 0.0 16.13830706048388 182.04094652576057 608.5104546781432 # Ar
541 541 1 0.0 1052.4430059985857 812.5678588366276 699.732989519969 # Ar
542 542 1 0.0 941.6102005087171 362.4208764364287 847.2261193181753 # Ar
543 543 1 0.0 900.5750483814791 411.15071380768376 1279.141900773578 # Ar
544 544 1 0.0 770.5261683765451 423.7637012217823 323.5074189767608 # Ar
545 545 1 0.0 327.8641956375042 192.58880055963024 985.9371137632822 # Ar
546 546 1 0.0 313.19030495240185 1203.9018601639734 1079.7079439467377 # Ar
547 547 1 0.0 1002.9323641730176 434.1223175721128 1011.9245450506576 # Ar
548 548 1 0.0 340.741328367032 589.8511054616814 128.1782806544062 # Ar
549 549 1 0.0 1026.5821496651909 243.36943909421632 739.3815874071348 # Ar
550 550 1 0.0 1262.7524879826435 13.737980828023854 601.3437545081111 # Ar
551 551 1 0.0 1089.7979195987828 165.95936656392135 435.42712426225046 # Ar
552 552 1 0.0 245.05930020047168 1154.2004524588879 840.6720166958834 # Ar
553 553 1 0.0 369.3589665687023 101.77498160736526 961.9546891918117 # Ar
554 554 1 0.0 1086.2397410756366 63.23034721076626 631.1759996085324 # Ar
555 555 1 0.0 979.1795500076537 1010.9670408175168 302.7693978964292 # Ar
556 556 1 0.0 1168.1576030722829 945.538932865642 12.827243127128394 # Ar
557 557 1 0.0 1208.7783639564902 666.9872222591061 863.6846599702806 # Ar
558 558 1 0.0 500.5056472397614 870.3988793641064 1336.299791494526 # Ar
559 559 1 0.0 1012.8491059723623 1096.19327092365 1299.6012181329884 # Ar
560 560 1 0.0 259.9814052853845 27.501852733278096 1203.7856523947535 # Ar
561 561 1 0.0 510.481776056671 1079.3387960588714 667.8119231455656 # Ar
562 562 1 0.0 131.86217731972417 670.7875364904413 161.3633328307126 # Ar
563 563 1 0.0 708.5529182467745 221.85773507512502 367.4003847705078 # Ar
564 564 1 0.0 875.9963437893967 1062.0759057833304 512.7531348120278 # Ar
565 565 1 0.0 1135.8945018159548 51.72573389981361 637.6170095043723 # Ar
566 566 1 0.0 598.647453799901 213.2625163844072 271.4910806533301 # Ar
567 567 1 0.0 468.4320311937179 727.7368240141983 849.71838751017 # Ar
568 568 1 0.0 1209.6285809125097 553.2702705192079 1271.3892021518618 # Ar
569 569 1 0.0 815.6636696227378 634.2329862078889 1251.7665917352617 # Ar
570 570 1 0.0 536.9851161794046 152.34119070305744 30.739794920757753 # Ar
571 571 1 0.0 164.72194983919124 992.3126950055866 504.75372285517767 # Ar
572 572 1 0.0 18.79179519640507 216.7066965437338 978.811582243176 # Ar
573 573 1 0.0 1115.861318077726 586.0935521282997 1305.5826596295615 # Ar
574 574 1 0.0 207.99465097543913 281.7522076108083 919.7062010793561 # Ar
575 575 1 0.0 55.02031907397284 32.72530698117295 611.7668556724082 # Ar
576 576 1 0.0 685.5806496170369 679.9193197497673 509.0524680139419 # Ar
577 577 1 0.0 13.440007369199188 565.8501225565935 2.902901734036723 # Ar
578 578 1 0.0 927.1637667956728 727.4014125832081 868.8505079932518 # Ar
579 579 1 0.0 357.7767601770312 33.73356606526945 1169.353459960959 # Ar
580 580 1 0.0 1151.8381175659963 429.50522231154844 19.82270213755285 # Ar
581 581 1 0.0 1160.07174276924 731.6575773675587 279.4742227722484 # Ar
582 582 1 0.0 848.2387933796524 554.168554095336 2.525113361636829 # Ar
583 583 1 0.0 743.4381995649334 1341.4354637410001 251.92602967625731 # Ar
584 584 1 0.0 544.9523029612262 1105.0795251734608 416.5962905231394 # Ar
585 585 1 0.0 248.28980442652977 339.2973393666179 966.0745189545902 # Ar
586 586 1 0.0 1201.8714565922844 638.0864636887818 14.107443849097981 # Ar
587 587 1 0.0 745.4487245336724 800.3475033335333 258.93974830088985 # Ar
588 588 1 0.0 813.9961097479346 175.81646251984014 170.64538411583513 # Ar
589 589 1 0.0 497.198785740094 384.66192298953 707.2305176229983 # Ar
590 590 1 0.0 987.7187383670075 984.6906049212425 1093.997543371169 # Ar
591 591 1 0.0 1026.823862095609 379.30940596692807 1075.993347771162 # Ar
592 592 1 0.0 597.0777339486182 821.9070104067388 1052.3438708571714 # Ar
593 593 1 0.0 694.3443960151689 386.76703310022145 146.68560110558224 # Ar
594 594 1 0.0 1023.34030632241 934.3182099528848 187.21996346080658 # Ar
595 595 1 0.0 443.88255934412126 1293.8475082031907 186.48621615932672 # Ar
596 596 1 0.0 1333.532594895617 743.688131454778 580.8932013936816 # Ar
597 597 1 0.0 954.0525104675196 234.42061919644095 22.448409384266856 # Ar
598 598 1 0.0 647.5695653658793 551.9036555594486 884.2359087399182 # Ar
599 599 1 0.0 972.6971983129819 327.17420838171586 978.2645297692679 # Ar
600 600 1 0.0 406.10116591315926 1022.3039219300257 659.7192870026614 # Ar
601 601 1 0.0 211.78831018119584 1123.6402700559197 346.22966541829265 # Ar
602 602 1 0.0 216.68112633008084 668.2643803279954 290.41071312344405 # Ar
603 603 1 0.0 447.0837898794899 519.8880268568585 972.2690878323051 # Ar
604 604 1 0.0 965.5472893355603 472.12849725686857 1097.151412770482 # Ar
605 605 1 0.0 615.3973248587293 968.0065553366062 1288.3717173816028 # Ar
606 606 1 0.0 192.2734933097984 13.964760239822642 794.0164593217124 # Ar
607 607 1 0.0 803.935398243522 475.8084786017296 376.27286330879804 # Ar
608 608 1 0.0 640.9108147858128 1109.6496002913282 1174.3048827435523 # Ar
609 609 1 0.0 852.5323653576226 1294.3013768695719 192.14795441802204 # Ar
610 610 1 0.0 200.2325579669884 1172.5428449957121 288.1499470150761 # Ar
611 611 1 0.0 546.1697234294573 341.99323494797335 798.9745276840908 # Ar
612 612 1 0.0 810.1081489642329 220.06155807018823 381.3727192448646 # Ar
613 613 1 0.0 541.4944102098801 373.4124965946761 1255.1695585456941 # Ar
614 614 1 0.0 415.5218938348537 1343.9868406310554 882.8545977744702 # Ar
615 615 1 0.0 309.61015795174643 425.17423380926215 775.7111615040645 # Ar
616 616 1 0.0 78.40129052006847 337.8518636205898 218.08314065427405 # Ar
617 617 1 0.0 1168.6462311275882 505.8548962963065 31.62241880842719 # Ar
618 618 1 0.0 59.18313229672263 1182.185378072316 768.7814408029676 # Ar
619 619 1 0.0 1148.0850659996156 540.9429057405913 1309.9986168722064 # Ar
620 620 1 0.0 93.01404171593923 216.1241485388129 1304.7659584032306 # Ar
621 621 1 0.0 354.8790271494127 1283.6540570870482 433.3868843065209 # Ar
622 622 1 0.0 287.458520864593 1160.447911834812 1300.3730920608828 # Ar
623 623 1 0.0 1194.3912198786743 338.9492750135716 1165.7427781364088 # Ar
624 624 1 0.0 789.2307578442345 757.3876057106061 613.6763964570274 # Ar
625 625 1 0.0 129.85721891497087 751.4435537169815 639.5366392842069 # Ar
626 626 1 0.0 804.9151865164639 1254.8661676178913 1082.086191561246 # Ar
627 627 1 0.0 984.9898608973014 1067.8618620327566 350.64471649243245 # Ar
628 628 1 0.0 666.0811404839968 924.4501515319507 1221.6934033408384 # Ar
629 629 1 0.0 1230.9232452162596 359.97395213063385 863.0104463742164 # Ar
630 630 1 0.0 802.0515235740949 205.9621333918522 918.3218110729216 # Ar
631 631 1 0.0 1036.6182745501842 74.60726737954116 105.66082652706368 # Ar
632 632 1 0.0 1330.3612522807693 1016.1970444756718 1033.1272579615047 # Ar
633 633 1 0.0 65.14300965293017 1150.2151104217132 273.6523014355468 # Ar
634 634 1 0.0 831.1404384746778 778.6603040743466 196.6707227662512 # Ar
635 635 1 0.0 584.0899245346895 157.42346013275073 745.0540626622588 # Ar
636 636 1 0.0 1175.1361730050935 15.562327681602472 140.25956638482316 # Ar
637 637 1 0.0 100.56915690847143 1003.3415213732659 736.8368458115988 # Ar
638 638 1 0.0 999.3338239532835 1058.47328606045 1334.0683980082304 # Ar
639 639 1 0.0 203.76534033769013 1319.639082748675 521.951388323374 # Ar
640 640 1 0.0 671.5664417796279 1134.303070805224 3.6763335628728706 # Ar
641 641 1 0.0 930.3079391440874 356.57797499564 580.5336988547806 # Ar
642 642 1 0.0 315.03126172956206 1126.4164424976789 337.9849742717776 # Ar
643 643 1 0.0 602.264945620485 265.8454243461485 10.61614980797853 # Ar
644 644 1 0.0 984.3048689817865 226.37316854574692 463.87348000354825 # Ar
645 645 1 0.0 909.7340588258139 102.78963289138326 686.0722444856447 # Ar
646 646 1 0.0 57.70742774690038 1338.8522934540408 139.07691848462133 # Ar
647 647 1 0.0 115.72272128806623 275.58591575687376 299.0180201077665 # Ar
648 648 1 0.0 1255.2495606206342 1177.7806989452429 1238.2796734108617 # Ar
649 649 1 0.0 1299.4027938869965 1006.0014980223142 198.16169903991693 # Ar
650 650 1 0.0 349.3780966110139 1311.5806734406729 997.1423270282576 # Ar
651 651 1 0.0 292.6520990973107 583.7446578976352 1202.7840222942732 # Ar
652 652 1 0.0 1308.8976709516473 385.99093302458823 1334.778624397169 # Ar
653 653 1 0.0 1311.3996784300548 1187.465574247392 1209.5172710063566 # Ar
654 654 1 0.0 927.2236711667622 1029.5747584479507 1243.934805094363 # Ar
655 655 1 0.0 448.3773049396075 559.5690797060814 1228.928021757027 # Ar
656 656 1 0.0 67.39764189630999 390.56798632069865 1029.3984179010708 # Ar
657 657 1 0.0 1044.2482934235347 614.7033124365297 607.2755405450262 # Ar
658 658 1 0.0 382.79704617620627 112.58520282307991 937.1456925789433 # Ar
659 659 1 0.0 543.9852817093516 234.91605692902039 489.4104930377083 # Ar
660 660 1 0.0 451.89637417464866 603.5279043680226 489.15800725745385 # Ar
661 661 1 0.0 849.409496420343 1094.81310066282 460.23369934017563 # Ar
662 662 1 0.0 995.9276206611645 867.5433800734103 1013.3934335388115 # Ar
663 663 1 0.0 1051.084530993904 351.8161764467708 1098.0562249986394 # Ar
664 664 1 0.0 656.3803884789725 860.645187045186 247.63143666074663 # Ar
665 665 1 0.0 433.55460125001207 980.318983471491 1060.0348768773897 # Ar
666 666 1 0.0 1196.3354808069244 727.4373256784606 704.6562349176019 # Ar
667 667 1 0.0 745.5273815952712 269.9330641521848 321.1196574492142 # Ar
668 668 1 0.0 701.3010269115346 553.4714422097072 308.0222017769421 # Ar
669 669 1 0.0 814.255829658241 1144.1726540745967 547.87336941714 # Ar
670 670 1 0.0 93.77058753296716 1183.782865795979 769.8136173625228 # Ar
671 671 1 0.0 1104.9450520178327 96.63964357584749 272.93871153075014 # Ar
672 672 1 0.0 337.2511144199619 835.086991363839 1067.6700584935393 # Ar
673 673 1 0.0 721.1790678505572 563.0233610246079 826.8465907450505 # Ar
674 674 1 0.0 59.42506352622628 1262.833732698514 420.15019991783436 # Ar
675 675 1 0.0 898.3073837222856 1219.7174260942388 218.21046663185393 # Ar
676 676 1 0.0 67.96398918131695 1331.160346838615 538.2795947801363 # Ar
677 677 1 0.0 377.11828426075556 581.4367620014511 563.1746862152726 # Ar
678 678 1 0.0 961.2616480808597 813.3715857096305 118.28626866164217 # Ar
679 679 1 0.0 1286.3929331572792 1053.0253990808833 1057.0467858313257 # Ar
680 680 1 0.0 551.5662559354346 538.1066175332068 131.451985728517 # Ar
681 681 1 0.0 1299.0727868696374 419.02899010026005 819.3396552303443 # Ar
682 682 1 0.0 1227.998256299084 1256.282075947112 254.4180303327371 # Ar
683 683 1 0.0 877.2655210643586 593.0725259013363 1087.5378820601754 # Ar
684 684 1 0.0 846.7213383322492 69.28279089656013 409.220534923757 # Ar
685 685 1 0.0 412.07361643384854 392.45668969598785 43.072298265670256 # Ar
686 686 1 0.0 971.2772812320882 598.7323874555585 490.5494428610842 # Ar
687 687 1 0.0 922.8731664166316 588.2733787085144 835.9583058858601 # Ar
688 688 1 0.0 243.23994174665125 550.4473057871154 1281.1972227461072 # Ar
689 689 1 0.0 404.2605829518766 317.22315323554915 456.4111503326947 # Ar
690 690 1 0.0 6.6826291306005325 1241.6734581446124 300.1879546769866 # Ar
691 691 1 0.0 352.7872158107563 677.0955839185243 1037.1545916134392 # Ar
692 692 1 0.0 574.933468104412 1137.778936764342 1186.3846905833973 # Ar
693 693 1 0.0 821.3073207214888 569.5318570337402 1105.5480474013646 # Ar
694 694 1 0.0 175.2765600544934 677.4928534775325 240.17807046752318 # Ar
695 695 1 0.0 1.1226408807884125 234.76063103030188 557.4506744039685 # Ar
696 696 1 0.0 880.5923293217479 663.6118907459014 487.0761603388258 # Ar
697 697 1 0.0 429.31650805465466 781.7646868470548 887.1387579402628 # Ar
698 698 1 0.0 936.078923429819 289.9233050496622 646.9618364307 # Ar
699 699 1 0.0 745.662281537224 705.5245445783701 1150.1472773390783 # Ar
700 700 1 0.0 1270.8905584748316 171.66343688727204 319.7681599449432 # Ar
701 701 1 0.0 57.87700911345274 524.7951147486463 941.8200367111841 # Ar
702 702 1 0.0 1049.3495596892008 1136.8657413658475 1237.0107398037408 # Ar
703 703 1 0.0 1121.9655599969635 410.8759350689109 563.2451089203106 # Ar
704 704 1 0.0 492.4264187394746 950.2799460708503 357.0693473071629 # Ar
705 705 1 0.0 919.1682113703422 1064.7193771805821 1321.547657648528 # Ar
706 706 1 0.0 978.630975191946 474.0371973071282 302.8251609572231 # Ar
707 707 1 0.0 365.69257612499626 1229.3245109015713 1078.969272901564 # Ar
708 708 1 0.0 533.5951323963387 22.666884218306095 1327.027891103208 # Ar
709 709 1 0.0 506.23228840433967 810.196924156249 476.85871579964703 # Ar
710 710 1 0.0 1221.5583813310889 211.8696556438266 1132.0775235192257 # Ar
711 711 1 0.0 441.6131925456877 816.880991580242 1272.6693484987866 # Ar
712 712 1 0.0 185.45192367103775 328.05571867919383 518.9157531377629 # Ar
713 713 1 0.0 517.8690171047654 1305.315492290102 189.97906764101515 # Ar
714 714 1 0.0 706.6771545323318 19.645858842437978 4.225185264965703 # Ar
715 715 1 0.0 1179.7322040786573 812.7879138567345 555.7068015099455 # Ar
716 716 1 0.0 980.2668571197081 758.2336022828097 1063.6436709931702 # Ar
717 717 1 0.0 908.2636397565703 507.5720340374616 750.9174220123409 # Ar
718 718 1 0.0 1123.7575166840743 632.8173211610398 1173.0990262648086 # Ar
719 719 1 0.0 36.16859897953466 504.39879005481185 51.58450718408802 # Ar
720 720 1 0.0 1266.9779178732542 1054.9213188955666 1045.2269885228443 # Ar
721 721 1 0.0 784.5025290945473 1049.5483200508756 404.970687748254 # Ar
722 722 1 0.0 1017.6139997728872 233.4232100913268 1185.1817199031887 # Ar
723 723 1 0.0 1321.8763855903487 116.96772161330342 616.3815442616657 # Ar
724 724 1 0.0 1317.9365715555552 393.91222671989266 617.8344408855975 # Ar
725 725 1 0.0 1116.8821033447045 882.0951152667255 1258.3569681047863 # Ar
726 726 1 0.0 243.2481393948545 634.0251320543925 860.3817036703507 # Ar
727 727 1 0.0 1168.4652081536806 448.30148549092246 242.64636468320893 # Ar
728 728 1 0.0 781.8173647878787 1107.6060042915199 1127.7039825593183 # Ar
729 729 1 0.0 457.9039144982241 101.31871938427676 1298.8668470124824 # Ar
730 730 1 0.0 360.58621751756027 1024.728252790486 1068.9551082875935 # Ar
731 731 1 0.0 1339.0365164396217 1038.6494570369885 652.9637686159597 # Ar
732 732 1 0.0 1065.3424859439929 670.1368073151766 656.2719017217798 # Ar
733 733 1 0.0 313.8783277815631 1232.7818112471834 731.2780259888841 # Ar
734 734 1 0.0 299.8938773624738 919.0910314770722 283.85819899058725 # Ar
735 735 1 0.0 301.87111318997336 156.60812035728677 707.7287521381696 # Ar
736 736 1 0.0 195.50957791711562 922.9469661817865 287.5158061004138 # Ar
737 737 1 0.0 1317.679730862261 734.602900381768 1347.7414648129163 # Ar
738 738 1 0.0 349.9806658961155 526.2745062514234 553.0055218583988 # Ar
739 739 1 0.0 1114.96255223455 527.7604343816606 119.97823187243483 # Ar
740 740 1 0.0 831.6486773508991 1347.056240086284 506.329983589968 # Ar
741 741 1 0.0 1327.172634274044 492.0226571250077 236.8968366588773 # Ar
742 742 1 0.0 247.27640477674674 1276.6250877030106 1045.5132652212621 # Ar
743 743 1 0.0 430.7466683458319 1337.0975711810938 914.4061505440993 # Ar
744 744 1 0.0 1176.2110623182134 908.4511686640004 1084.89837139366 # Ar
745 745 1 0.0 936.445375912079 648.4387205459623 286.0170437289612 # Ar
746 746 1 0.0 30.90989650202754 358.8725174153106 265.8900560856076 # Ar
747 747 1 0.0 9.15084679276309 677.2684754741263 1130.8757122766424 # Ar
748 748 1 0.0 1309.0291984001246 1318.8175566492241 682.5712779774072 # Ar
749 749 1 0.0 495.33019510830337 518.5469111710042 930.5591800568428 # Ar
750 750 1 0.0 822.2980645925102 521.1232768189353 273.34886354530335 # Ar
751 751 1 0.0 227.1518129381614 349.0080845926193 1110.1063970136358 # Ar
752 752 1 0.0 563.5023911581302 738.2888703250145 639.3604916063784 # Ar
753 753 1 0.0 1036.8665001390457 223.21220060518314 372.36595397147016 # Ar
754 754 1 0.0 753.0862048494549 490.0698533298159 1011.4694015629796 # Ar
755 755 1 0.0 7.974945012324555 285.57949241488035 45.117632217629684 # Ar
756 756 1 0.0 699.9017169366368 678.9261391846943 690.6592696111992 # Ar
757 757 1 0.0 461.6318031032058 769.7287521474487 650.1579705593176 # Ar
758 758 1 0.0 509.13642392540345 307.764123412764 1181.6344665886363 # Ar
759 759 1 0.0 991.6969192536958 187.86205173086753 866.590179022996 # Ar
760 760 1 0.0 405.2519705696654 1347.9885441650829 51.05606992110433 # Ar
761 761 1 0.0 881.2219129945822 401.6159055402589 1346.7168447910444 # Ar
762 762 1 0.0 1144.9087060838824 1195.0515457085137 584.5359905568748 # Ar
763 763 1 0.0 8.560882262393193 573.063255888111 38.126495006033046 # Ar
764 764 1 0.0 969.3030002337099 909.0380750657184 358.6791725360853 # Ar
765 765 1 0.0 235.19725002116755 249.20303450973842 17.333825367054043 # Ar
766 766 1 0.0 618.8387856340346 1185.174479555478 782.2181922245037 # Ar
767 767 1 0.0 143.47515701075673 1104.1778377611497 728.0396303173654 # Ar
768 768 1 0.0 1247.4472351470604 0.9455966492370511 463.19393387655384 # Ar
769 769 1 0.0 694.2034456563441 886.1491515709719 791.7416115954632 # Ar
770 770 1 0.0 1111.1322739728826 1328.0147461221095 1173.7564815913454 # Ar
771 771 1 0.0 950.7900181917502 783.6433556412854 312.90057785015944 # Ar
772 772 1 0.0 623.8733648096317 654.5504724702395 154.7760196436015 # Ar
773 773 1 0.0 241.5912661847114 402.98232168801866 112.20462149409312 # Ar
774 774 1 0.0 952.617210692988 973.0865651771785 462.6648021505301 # Ar
775 775 1 0.0 353.61485247845627 932.4154309928192 510.06518302240204 # Ar
776 776 1 0.0 1135.3394269381427 936.8790462309785 1256.9410518466789 # Ar
777 777 1 0.0 270.90163806488994 1006.3972305136015 37.201606477971744 # Ar
778 778 1 0.0 902.617120063756 226.4162069704535 604.4272532074281 # Ar
779 779 1 0.0 991.76494658463 903.0940790315777 1292.2630048947578 # Ar
780 780 1 0.0 987.1674813561565 976.8409794912149 1144.28938087779 # Ar
781 781 1 0.0 442.85062590175824 815.3687225407607 521.6591857423097 # Ar
782 782 1 0.0 8.247932178704906 953.3814495003944 68.82936233926986 # Ar
783 783 1 0.0 157.78730255780394 178.8819629761472 1294.6696797310656 # Ar
784 784 1 0.0 1032.786213044016 408.24228804960615 96.10568430376566 # Ar
785 785 1 0.0 1140.4257120127913 1062.410596938004 465.1259236793811 # Ar
786 786 1 0.0 887.3733552689145 1236.085908207435 1014.5088753066613 # Ar
787 787 1 0.0 1310.850101080192 699.6875996681341 457.36337095677084 # Ar
788 788 1 0.0 1340.1489168156131 1256.9278270742216 938.4897304448076 # Ar
789 789 1 0.0 530.3289800799002 533.6279293314942 53.510615657427174 # Ar
790 790 1 0.0 265.53475770582514 1212.379997383002 981.5729308934725 # Ar
791 791 1 0.0 583.7905397666852 297.26054041687263 241.94202615205438 # Ar
792 792 1 0.0 871.7002115270582 596.944763366307 747.7278051502324 # Ar
793 793 1 0.0 1061.7980526026656 507.0839941058769 1023.4096343153117 # Ar
794 794 1 0.0 455.83583920080315 834.3147796958614 1026.2761115190747 # Ar
795 795 1 0.0 152.56940619725196 591.9897783485039 786.4952124088131 # Ar
796 796 1 0.0 346.50478043401665 537.8238215242278 564.782349882318 # Ar
797 797 1 0.0 111.16414956093107 504.3585385919099 486.0241787870861 # Ar
798 798 1 0.0 64.32670890356374 549.3069999311062 1057.722222996287 # Ar
799 799 1 0.0 1286.6795468153 1201.9562474738314 1059.2406625504582 # Ar
800 800 1 0.0 125.44372272139961 592.0016511349221 713.2113658234247 # Ar
801 801 1 0.0 220.75786726813575 1174.5120442775371 996.4005408733285 # Ar
802 802 1 0.0 834.9900515238172 944.5539239007608 239.94104702341977 # Ar
803 803 1 0.0 986.8099069658527 347.7530419492368 934.1969349491819 # Ar
804 804 1 0.0 709.5022785883448 562.7608090128429 1083.3849747757124 # Ar
805 805 1 0.0 805.6786969012134 894.6380322012056 611.9855474148868 # Ar
806 806 1 0.0 172.93850949662277 520.4086323414102 1059.8985701963363 # Ar
807 807 1 0.0 1030.9638069704743 1028.9729391480128 944.3269739393015 # Ar
808 808 1 0.0 737.9651205652767 632.8615101573685 1018.3782498466156 # Ar
809 809 1 0.0 1179.4903069984798 1310.9112505931682 1214.4760064118534 # Ar
810 810 1 0.0 6.420379633997807 292.21522533534477 1004.3078947804803 # Ar
811 811 1 0.0 800.9963224527975 941.0468130562062 416.10585953371736 # Ar
812 812 1 0.0 159.22538388495192 1074.7539977518798 1182.158168436718 # Ar
813 813 1 0.0 378.41196683251775 1217.2955509871485 782.6213137798997 # Ar
814 814 1 0.0 96.30419980377576 651.1064250508053 860.0350482557343 # Ar
815 815 1 0.0 1182.8237115588138 80.32326666784988 477.62920185020266 # Ar
816 816 1 0.0 790.8768488484887 966.4876553176331 309.89195832717087 # Ar
817 817 1 0.0 1203.8564002207984 336.5302266263734 894.4219343036787 # Ar
818 818 1 0.0 185.43441146198174 304.7095762802544 202.5459496864345 # Ar
819 819 1 0.0 266.7445252750811 1123.3876812828082 1048.114456454405 # Ar
820 820 1 0.0 96.6878937377593 512.9649672400166 1043.6769698615672 # Ar
821 821 1 0.0 163.73427036757553 275.8943006652857 497.3484993149373 # Ar
822 822 1 0.0 203.51494326486005 769.2364089156106 71.57672769302229 # Ar
823 823 1 0.0 97.25687416509265 702.8244709416995 1072.6503520322592 # Ar
824 824 1 0.0 660.4363593741808 750.6245826414757 980.6572557026235 # Ar
825 825 1 0.0 98.66391479609469 57.11347977363673 1301.36394175095 # Ar
826 826 1 0.0 1226.9641780282986 439.9083386580349 914.9855324839438 # Ar
827 827 1 0.0 996.4490921113189 975.7561684548457 923.7210459170109 # Ar
828 828 1 0.0 1038.68017845481 96.67478981105992 1219.404704196753 # Ar
829 829 1 0.0 73.82192433741278 897.4339373301787 1039.6740314633464 # Ar
830 830 1 0.0 957.9414586549062 56.183484064715685 787.9942673506162 # Ar
831 831 1 0.0 889.8015813974147 1077.8823180478832 592.3613128945342 # Ar
832 832 1 0.0 826.1216418131713 664.8211598832893 511.81960782021514 # Ar
833 833 1 0.0 138.95360672288052 694.9208056760718 1011.2198628829427 # Ar
834 834 1 0.0 1136.7854844252213 45.79167414920012 1294.2341123932022 # Ar
835 835 1 0.0 773.9277712411028 461.00581711426963 369.5754805822046 # Ar
836 836 1 0.0 1292.2813632937175 41.172664969436255 245.10958032845778 # Ar
837 837 1 0.0 1192.6162601821645 699.5946609563483 63.14958232494115 # Ar
838 838 1 0.0 349.3019163790202 1039.609558675489 1271.024470718253 # Ar
839 839 1 0.0 105.92702805627516 1072.8218143412362 156.6501640958971 # Ar
840 840 1 0.0 1068.2889420581912 673.8974484511975 41.96974018741902 # Ar
841 841 1 0.0 926.8074927032138 1035.7897134464426 347.6682687833502 # Ar
842 842 1 0.0 1144.58263448365 267.0139823389644 978.7417548661426 # Ar
843 843 1 0.0 58.67604516951105 1136.0406027791062 1273.394489089246 # Ar
844 844 1 0.0 799.6141302137833 1319.589813179837 186.43592192669152 # Ar
845 845 1 0.0 848.7332646895089 1159.4569902875603 1034.9155158974327 # Ar
846 846 1 0.0 643.7035176838407 537.3416737540279 223.07267704987075 # Ar
847 847 1 0.0 1244.679843231682 911.8446851661671 781.5985162085849 # Ar
848 848 1 0.0 512.6968115260923 638.1466405688994 51.434926046671904 # Ar
849 849 1 0.0 710.6338464348354 165.55626558453594 534.2872586418368 # Ar
850 850 1 0.0 434.93149307641073 1150.5678876182453 302.3027026585008 # Ar
851 851 1 0.0 32.998430100184805 88.73432306088532 695.1017608438696 # Ar
852 852 1 0.0 751.8040742434221 1244.4319829659873 566.4338485052785 # Ar
853 853 1 0.0 1128.61305472953 426.1737653454697 902.7674961376784 # Ar
854 854 1 0.0 1003.699103759456 357.90250840369595 1141.332155196351 # Ar
855 855 1 0.0 383.69042000363044 682.6661755564185 919.1420379360077 # Ar
856 856 1 0.0 657.3843688366909 680.0736642316843 1317.3751412748306 # Ar
857 857 1 0.0 581.8373845840089 309.05677656526586 423.93450750893504 # Ar
858 858 1 0.0 619.7164854165932 1217.9485784037904 239.75133370670633 # Ar
859 859 1 0.0 249.38019501396528 356.0845617158543 499.1419545095109 # Ar
860 860 1 0.0 181.85855394299392 1077.1274441688463 305.10863238591133 # Ar
861 861 1 0.0 1269.8794919266666 1326.1276312385855 1037.6297459538996 # Ar
862 862 1 0.0 1187.255789613319 106.25693889892206 1048.3227201902248 # Ar
863 863 1 0.0 907.9253296964033 1204.4902701913206 863.0814842753421 # Ar
864 864 1 0.0 160.56274860200244 249.49850693493818 1047.2152188898158 # Ar
865 865 1 0.0 129.38277796565896 936.4673608270117 1117.7335623531749 # Ar
866 866 1 0.0 340.09819685018147 892.573942184125 382.7499815168605 # Ar
867 867 1 0.0 388.9989968957872 397.8924507028665 795.416810188857 # Ar
868 868 1 0.0 1049.7406233266136 32.28413964270855 279.509939333513 # Ar
869 869 1 0.0 457.0174947269423 579.9874914935449 1283.8921955020728 # Ar
870 870 1 0.0 208.09718717472026 7.092466366318767 931.3678836948924 # Ar
871 871 1 0.0 101.04139484226877 65.841119073391 1029.8045149792224 # Ar
872 872 1 0.0 1212.9774573467012 1165.6613700538487 761.7356326423594 # Ar
873 873 1 0.0 386.71827056048335 305.72645975533055 638.2426421349566 # Ar
874 874 1 0.0 1166.316343417749 561.8158491570557 456.68227467284544 # Ar
875 875 1 0.0 460.65859367538434 309.08941681551505 201.44320534817328 # Ar
876 876 1 0.0 500.6273831461641 44.95155080247101 1317.907234531595 # Ar
877 877 1 0.0 1241.9037247237948 269.39323274985526 877.7604275279891 # Ar
878 878 1 0.0 819.220430120582 1075.9879869280558 699.4264028402921 # Ar
879 879 1 0.0 858.8266177253158 349.8319743577534 347.7987493038578 # Ar
880 880 1 0.0 1135.251341657082 925.9342744914867 525.1271231775626 # Ar
881 881 1 0.0 568.3349522045797 525.015102426728 358.0322305890756 # Ar
882 882 1 0.0 478.93174744487874 1191.9227341521039 836.8797255613171 # Ar
883 883 1 0.0 742.771399859452 947.5167558911206 871.8945278519691 # Ar
884 884 1 0.0 77.00472693097447 392.9788464449887 54.284826196903964 # Ar
885 885 1 0.0 524.7108884824178 1227.018441162429 971.7154744065192 # Ar
886 886 1 0.0 204.78587289643247 1245.4492458982897 938.4389052324738 # Ar
887 887 1 0.0 329.22589160554884 206.40314705991238 567.6459979729655 # Ar
888 888 1 0.0 67.76631535566482 96.2000431548032 659.6584593535418 # Ar
889 889 1 0.0 1332.1401919746743 465.59273429505134 1171.5417881219141 # Ar
890 890 1 0.0 1023.0751726729287 362.6358857233328 560.6727620576702 # Ar
891 891 1 0.0 1258.405073983474 1111.913986956529 1050.0752285031108 # Ar
892 892 1 0.0 1186.2975814689692 200.29818772772163 485.1822544284921 # Ar
893 893 1 0.0 523.2632480645067 239.3136941877824 1138.98816723369 # Ar
894 894 1 0.0 314.23032298240406 998.5483590684523 193.3978486161113 # Ar
895 895 1 0.0 959.1833717973683 1018.4991390874047 98.27317732112232 # Ar
896 896 1 0.0 1128.4941646535199 437.34605057433276 881.1477530601562 # Ar
897 897 1 0.0 670.7956285382913 694.5514576739859 1053.0926090467515 # Ar
898 898 1 0.0 426.0326041935291 292.71893203935304 855.1473641360836 # Ar
899 899 1 0.0 547.470048057322 885.456305081334 1111.97965557752 # Ar
900 900 1 0.0 80.7518462573816 786.4821106360515 381.50575973237625 # Ar
901 901 1 0.0 1139.2437298501986 485.0537788717401 1036.1076108923328 # Ar
902 902 1 0.0 111.60450245027532 537.277415264268 54.03629556954214 # Ar
903 903 1 0.0 1339.4902777960078 340.3679265782044 124.36316826820523 # Ar
904 904 1 0.0 1081.8248453061592 371.1453312419061 1199.5306015957378 # Ar
905 905 1 0.0 701.4113769859778 1301.3509222869345 475.83291120914674 # Ar
906 906 1 0.0 652.2978628481413 612.6449020804 1318.4904056482796 # Ar
907 907 1 0.0 1320.7186087387222 80.47249491350476 326.27203721394056 # Ar
908 908 1 0.0 837.667755506427 17.683328914764864 99.34359634341205 # Ar
909 909 1 0.0 1025.8203796874461 863.0147993612919 387.14298647872823 # Ar
910 910 1 0.0 689.0688672473076 842.372057849301 1324.7062194772768 # Ar
911 911 1 0.0 633.8537800937764 237.79005967225228 275.3005744078878 # Ar
912 912 1 0.0 791.7238878617119 1001.1066622035434 770.8295786775701 # Ar
913 913 1 0.0 1235.7229196667895 211.6785484196385 678.8516161739695 # Ar
914 914 1 0.0 376.3826972889579 661.9805651899328 427.0363895125853 # Ar
915 915 1 0.0 39.05478365997391 530.2421601006987 378.7827849065168 # Ar
916 916 1 0.0 537.0202217262864 13.938433004436702 65.684586380719 # Ar
917 917 1 0.0 392.61574106261423 1328.410271854108 1308.90929766534 # Ar
918 918 1 0.0 264.4212587195804 1116.561874611175 1046.907054839086 # Ar
919 919 1 0.0 774.0348797815824 924.3144093415125 200.05064532652278 # Ar
920 920 1 0.0 1100.8731303092077 297.66443062200085 806.5148363612972 # Ar
921 921 1 0.0 1305.4815142953319 1097.3637014749577 961.4261336700241 # Ar
922 922 1 0.0 783.6648483333063 1292.8153531943105 435.6650941390667 # Ar
923 923 1 0.0 600.1275000711336 1332.5857544356686 1266.3560440440176 # Ar
924 924 1 0.0 371.2520618501596 1135.2240756899898 1228.8644611031311 # Ar
925 925 1 0.0 173.3769849553565 534.9217172922213 58.29644172412842 # Ar
926 926 1 0.0 847.058720880206 1013.3388867018967 1136.5988600802677 # Ar
927 927 1 0.0 764.2290486888273 663.8405135183003 671.0090038101027 # Ar
928 928 1 0.0 1132.8800279902625 1321.7071950623376 1123.8637359127638 # Ar
929 929 1 0.0 58.9450309413465 443.31935081299207 565.677241969661 # Ar
930 930 1 0.0 678.4918691986302 644.6135733526003 229.46777326373524 # Ar
931 931 1 0.0 1113.432720030722 1070.1703790352583 755.8661371904673 # Ar
932 932 1 0.0 349.60211078376045 959.1487829955609 293.92974218520095 # Ar
933 933 1 0.0 78.89876025581347 434.88414049433845 366.1107393944977 # Ar
934 934 1 0.0 778.4595001584279 824.8961180651272 132.7258485858556 # Ar
935 935 1 0.0 659.2263005573976 1048.3239736914945 763.3696181767654 # Ar
936 936 1 0.0 562.7209381021295 748.1024109527947 696.7823838465173 # Ar
937 937 1 0.0 1173.150311225017 1197.9421470181312 179.4826221185897 # Ar
938 938 1 0.0 743.4093848688822 1301.8716303079293 222.2019251017134 # Ar
939 939 1 0.0 1208.5212989954096 1346.3688302719222 802.6204884481584 # Ar
940 940 1 0.0 488.9079549236537 1202.8310661592554 124.7682503064492 # Ar
941 941 1 0.0 111.77214874811601 53.331913556419025 866.9438622708644 # Ar
942 942 1 0.0 500.9523678845604 1317.4586844733767 863.0215056425967 # Ar
943 943 1 0.0 1314.5886607533728 544.4199466087525 1067.0383730571614 # Ar
944 944 1 0.0 1220.684265578945 1122.6444269470232 991.7518147742618 # Ar
945 945 1 0.0 915.185774834068 637.3608101191674 664.2031701946689 # Ar
946 946 1 0.0 724.6893402069644 536.5463059658701 83.30084435959738 # Ar
947 947 1 0.0 288.9201961613102 72.761809818788 399.6477239505622 # Ar
948 948 1 0.0 640.6096415542697 677.6893198241524 834.7269837556728 # Ar
949 949 1 0.0 972.1738620624061 758.8371027782039 1133.5608829907108 # Ar
950 950 1 0.0 1028.097644700362 662.1044316942777 544.4237475044586 # Ar
951 951 1 0.0 353.8936638770689 1048.6445173629818 1309.1386810578974 # Ar
952 952 1 0.0 21.136505659947492 1036.1533773682856 275.07797625695673 # Ar
953 953 1 0.0 686.0423871666961 160.35236974116708 371.16662644659164 # Ar
954 954 1 0.0 1050.6551972544094 165.5533268113732 179.32781361702624 # Ar
955 955 1 0.0 524.4727385652658 135.57049213918566 854.4491665601562 # Ar
956 956 1 0.0 285.39513045784884 777.0857993736857 171.09678230476686 # Ar
957 957 1 0.0 40.039992064214054 862.7827254671768 729.8919821847687 # Ar
958 958 1 0.0 1168.1882251658694 332.57672706291487 1243.9066929125192 # Ar
959 959 1 0.0 320.7786672155928 401.5150633056727 828.423965503663 # Ar
960 960 1 0.0 777.7121141404143 439.98006805325286 977.29419394846 # Ar
961 961 1 0.0 327.647115870125 154.6701569661524 710.961448355815 # Ar
962 962 1 0.0 1311.318035476774 1265.0963598487945 410.6748737748058 # Ar
963 963 1 0.0 713.5412256985893 357.24155090507446 1316.8334233209623 # Ar
964 964 1 0.0 611.0987110016072 1041.2546839970805 1070.8857933623426 # Ar
965 965 1 0.0 181.693275433337 636.068662048699 537.5756884351658 # Ar
966 966 1 0.0 106.90495078180086 861.5301182840357 333.6444732860482 # Ar
967 967 1 0.0 1032.179491741071 1291.4506217337737 1290.4810906737437 # Ar
968 968 1 0.0 600.3692862560484 1059.3528691856034 450.66755197846874 # Ar
969 969 1 0.0 176.30720977828489 992.6263164956482 149.12550653288017 # Ar
970 970 1 0.0 589.8582905387339 440.85005176325245 881.6047597158548 # Ar
971 971 1 0.0 697.3845059468305 726.2050688011192 1263.5210375573517 # Ar
972 972 1 0.0 1035.4835233761887 305.86903815500807 110.35622164721308 # Ar
973 973 1 0.0 794.9938427312389 1240.3872559349786 998.1714098942467 # Ar
974 974 1 0.0 313.37491173930675 754.7806213750467 1123.4653154531231 # Ar
975 975 1 0.0 812.9462054015285 912.7874577855874 675.5856031579492 # Ar
976 976 1 0.0 1141.6057082285156 218.94707761078607 799.1647618734996 # Ar
977 977 1 0.0 723.8733256684394 420.6854650389746 768.1155180420277 # Ar
978 978 1 0.0 239.4963703303357 1107.4514260432547 920.3177008809134 # Ar
979 979 1 0.0 162.78947495787332 160.5372898862569 929.0976914852037 # Ar
980 980 1 0.0 1217.0391586526407 1296.452023360276 1011.0985549717208 # Ar
981 981 1 0.0 1078.5403771408305 660.2348248622908 803.3736643600067 # Ar
982 982 1 0.0 315.5531359572299 694.4853607158506 219.7088147476837 # Ar
983 983 1 0.0 1012.3506842924979 1006.0842946042658 1084.0394031653868 # Ar
984 984 1 0.0 25.077007978929498 294.010802789817 656.905552715651 # Ar
985 985 1 0.0 1204.5885443044997 785.7196434688844 771.5528457377566 # Ar
986 986 1 0.0 1073.176581398365 757.4878017353572 191.97313099725815 # Ar
987 987 1 0.0 118.0713689149674 189.98223249586735 1301.0857980336707 # Ar
988 988 1 0.0 901.2192954888081 650.1304226839629 580.0635417080354 # Ar
989 989 1 0.0 989.1612110555527 692.7500434790977 125.68136507599206 # Ar
990 990 1 0.0 858.1254996586828 611.71453648594 921.768443178336 # Ar
991 991 1 0.0 940.9670159855286 621.3108252955351 1307.2895805904982 # Ar
992 992 1 0.0 1099.9240380347662 1106.4216546273158 273.8916791192307 # Ar
993 993 1 0.0 1257.280931948161 969.8075723199557 1320.6419858905786 # Ar
994 994 1 0.0 780.5954187956698 378.5304450443258 387.9090092603651 # Ar
995 995 1 0.0 445.86800644650504 231.4386137496754 580.6483493643035 # Ar
996 996 1 0.0 751.8906451458525 554.5084858962061 613.1526397778218 # Ar
997 997 1 0.0 622.7028691592798 520.2559865462131 172.20366950150998 # Ar
998 998 1 0.0 507.46500757092804 823.7028323018178 453.694077212614 # Ar
999 999 1 0.0 742.8228352748433 1269.4167094413588 692.3043349508511 # Ar
1000 1000 1 0.0 1233.756633766577 610.9870235075063 1172.083439227996 # Ar
1001 1001 1 0.0 1255.9514638086189 449.9668855094006 120.63623228935299 # Ar
1002 1002 1 0.0 501.432139309725 410.06139892479325 141.74695761921393 # Ar
1003 1003 1 0.0 1069.9399954463322 301.75389109593874 406.84738498222094 # Ar
1004 1004 1 0.0 1285.0340413719687 570.641446714267 265.6379352546505 # Ar
1005 1005 1 0.0 641.9453499518537 1064.8612554192475 524.3751366954293 # Ar
1006 1006 1 0.0 292.33416153631225 313.0187762184553 449.8618709145448 # Ar
1007 1007 1 0.0 215.01289464530507 619.9608796355634 224.85008415998266 # Ar
1008 1008 1 0.0 234.75324481348142 701.6055101473764 207.8994848202968 # Ar
1009 1009 1 0.0 430.16751015343874 149.32905830361574 167.8747989215399 # Ar
1010 1010 1 0.0 3.8135550858673537 1187.7131404633592 266.3510199649179 # Ar
1011 1011 1 0.0 402.77972001012654 15.558482690644722 870.774796775338 # Ar
1012 1012 1 0.0 1139.8197874714392 1161.3062029288646 1261.477463870023 # Ar
1013 1013 1 0.0 207.21805561005402 1011.6177194487071 899.508661267786 # Ar
1014 1014 1 0.0 752.7862676465523 498.5784401454039 836.6532985186635 # Ar
1015 1015 1 0.0 1065.2218615153402 637.485026968927 217.97918986985445 # Ar
1016 1016 1 0.0 125.83130558891973 6.754013095128033 689.3939136656029 # Ar
1017 1017 1 0.0 590.6108357260975 973.8053740079783 740.6361105223114 # Ar
1018 1018 1 0.0 446.24600121784516 128.90890960293785 675.5184549719429 # Ar
1019 1019 1 0.0 1118.3735855874168 104.48238887718705 396.710609830848 # Ar
1020 1020 1 0.0 235.7750776906453 1095.6645418568007 58.419295468254305 # Ar
1021 1021 1 0.0 1307.119238238622 898.035853147809 582.583410130878 # Ar
1022 1022 1 0.0 918.3182548636048 1017.7998143616085 204.32352573678284 # Ar
1023 1023 1 0.0 1214.6914241971576 243.4815252243286 30.32188355302767 # Ar
1024 1024 1 0.0 498.79278636258226 336.57527491806815 929.1778692616459 # Ar
1025 1025 1 0.0 1116.0436816918698 537.9068046501061 591.7780777454024 # Ar
1026 1026 1 0.0 339.93542645911043 408.8486918487565 65.85421374732739 # Ar
1027 1027 1 0.0 407.97648549073085 589.3984324141014 1054.5925873660176 # Ar
1028 1028 1 0.0 463.9099692357601 733.7705691855596 344.3172179936287 # Ar
1029 1029 1 0.0 905.7296811089111 618.2447629537177 1062.0388641866214 # Ar
1030 1030 1 0.0 1279.848684521796 726.7309600219389 910.4177907042556 # Ar
1031 1031 1 0.0 1077.1743590794822 1268.1456724453615 766.1705609839181 # Ar
1032 1032 1 0.0 215.18293820804305 626.9706787101192 1199.5921479433177 # Ar
1033 1033 1 0.0 65.0954344838699 645.8179782679046 239.0249305684077 # Ar
1034 1034 1 0.0 776.1290442783776 474.11024921185765 498.2825076414999 # Ar
1035 1035 1 0.0 384.8649227738041 761.9563635919712 1030.7050714538318 # Ar
1036 1036 1 0.0 820.2101584774354 395.65435634395925 739.4847732752346 # Ar
1037 1037 1 0.0 912.8545859718001 32.22523242321295 460.41692219537777 # Ar
1038 1038 1 0.0 282.68801954711574 359.16430119964787 700.7682559536072 # Ar
1039 1039 1 0.0 1301.752470263661 1199.6080680273903 872.0580333763158 # Ar
1040 1040 1 0.0 1102.914976676602 1132.2228764067822 67.28697498770174 # Ar
1041 1041 1 0.0 172.6911389284041 749.597058376176 488.31546985528104 # Ar
1042 1042 1 0.0 747.7568580580532 572.9265538324858 323.7165827971969 # Ar
1043 1043 1 0.0 75.45890146415667 1243.5508868324637 434.0225465857772 # Ar
1044 1044 1 0.0 781.9566921703157 558.0621074792052 180.0687752673845 # Ar
1045 1045 1 0.0 278.4302357164427 1101.551808388478 1301.8450303319337 # Ar
1046 1046 1 0.0 457.14483602685226 585.7971067226441 526.3196835272686 # Ar
1047 1047 1 0.0 54.577508353319736 221.1936352300692 889.8773627285872 # Ar
1048 1048 1 0.0 761.1199082574351 71.84604246386813 1288.531144521329 # Ar
1049 1049 1 0.0 777.3433982822211 626.3018760652878 125.35101232371412 # Ar
1050 1050 1 0.0 9.971045946440427 770.7656350104191 365.77760736883016 # Ar
1051 1051 1 0.0 587.6829040902691 257.06295988418117 888.7698520256642 # Ar
1052 1052 1 0.0 1290.048400159126 888.2308926990368 80.2767669386962 # Ar
1053 1053 1 0.0 981.0144330426803 99.43797436129196 1259.0492135717525 # Ar
1054 1054 1 0.0 400.84444851009664 1289.0450381848266 579.9805069603667 # Ar
1055 1055 1 0.0 329.5194515635859 887.0463033679159 602.3953579596107 # Ar
1056 1056 1 0.0 952.4471471881774 401.85577328062226 1012.9672499193941 # Ar
1057 1057 1 0.0 293.08452708105824 538.0195679196744 993.0360210892981 # Ar
1058 1058 1 0.0 406.5349534336971 1250.1118448881646 1096.0435241921864 # Ar
1059 1059 1 0.0 1088.8484380654659 545.7810818163435 428.174749119107 # Ar
1060 1060 1 0.0 81.88244795612154 507.66506891802493 84.95763312935524 # Ar
1061 1061 1 0.0 794.357556883654 1009.8670071392933 1323.755364520435 # Ar
1062 1062 1 0.0 709.7798125122922 723.1824050029168 278.01127648396584 # Ar
1063 1063 1 0.0 301.9163764880478 1010.67511293468 134.47555545626778 # Ar
1064 1064 1 0.0 78.4190699903261 685.8507660757379 1122.1109436401912 # Ar
1065 1065 1 0.0 801.6869171953659 1039.7323329476042 93.3391310861593 # Ar
1066 1066 1 0.0 166.9491648583932 1144.7609114251452 235.0644798007971 # Ar
1067 1067 1 0.0 35.9007462884261 1212.9129121484439 778.150954080268 # Ar
1068 1068 1 0.0 1203.8741103123339 1345.15741627655 1034.5984792141323 # Ar
1069 1069 1 0.0 667.2741535191394 1254.7832822422527 1307.2225120589844 # Ar
1070 1070 1 0.0 922.0492204490131 737.5537492191314 550.5451162230241 # Ar
1071 1071 1 0.0 766.602011057198 132.5770940496455 966.7445679894512 # Ar
1072 1072 1 0.0 292.43961916185924 237.47142467528403 429.2606445525049 # Ar
1073 1073 1 0.0 77.31909010246821 895.6410367767644 1347.486939458085 # Ar
1074 1074 1 0.0 709.5375758309954 969.4802526678866 761.7405107897059 # Ar
1075 1075 1 0.0 1057.7554457730746 821.7895903575544 580.0567215335192 # Ar
1076 1076 1 0.0 1253.2742088788225 296.3556777636734 214.96670822755203 # Ar
1077 1077 1 0.0 315.0129197915269 557.2604228021393 185.20328264492713 # Ar
1078 1078 1 0.0 265.5309837486056 334.39264096954537 201.8004799658436 # Ar
1079 1079 1 0.0 133.80109033697346 349.1131265751891 643.4267852461794 # Ar
1080 1080 1 0.0 875.3812040684943 762.7356533841298 874.0584516613945 # Ar
1081 1081 1 0.0 293.86407857000256 150.82024390555915 863.6562955160828 # Ar
1082 1082 1 0.0 903.8658152864075 536.0634306721644 921.5821299661208 # Ar
1083 1083 1 0.0 814.139552660701 2.7125515056045657 1160.1271142508554 # Ar
1084 1084 1 0.0 507.72425276377896 933.9309265941647 835.1970582338674 # Ar
1085 1085 1 0.0 1102.3113737384463 640.3616684704151 494.195561361376 # Ar
1086 1086 1 0.0 1282.4759903965742 98.80170279172467 315.067321570823 # Ar
1087 1087 1 0.0 1116.5172955287815 1290.921428115554 619.9424230875209 # Ar
1088 1088 1 0.0 1296.9540752572757 527.788107801177 564.903266882379 # Ar
1089 1089 1 0.0 1082.773818291927 314.99404495745614 1296.241388639892 # Ar
1090 1090 1 0.0 3.3749397780329273 954.3083961646229 1024.8850893227923 # Ar
1091 1091 1 0.0 673.31200810442 593.5027031191005 359.0552682161579 # Ar
1092 1092 1 0.0 1235.2585935452657 10.411762330272223 752.4564499871951 # Ar
1093 1093 1 0.0 796.6207415395048 658.5427494314464 58.48009984617991 # Ar
1094 1094 1 0.0 884.1727009927929 807.0727818872882 306.45071154778196 # Ar
1095 1095 1 0.0 1192.1692134433783 1154.776097210812 54.28718129109401 # Ar
1096 1096 1 0.0 1093.0436958349044 1143.2787282182521 252.1695138146579 # Ar
1097 1097 1 0.0 297.4720850955867 1101.1637443378497 675.8301342192101 # Ar
1098 1098 1 0.0 286.2615404948306 435.2470901789603 1288.955619483793 # Ar
1099 1099 1 0.0 169.3676456669448 235.58130002520582 702.7977605955399 # Ar
1100 1100 1 0.0 1267.14709194649 26.638305791095256 326.5621587376621 # Ar
1101 1101 1 0.0 341.7596324076929 683.9143800224948 640.3453440008702 # Ar
1102 1102 1 0.0 837.0931664481535 257.6637861752408 442.26487739469695 # Ar
1103 1103 1 0.0 267.1327695871257 989.4398370480494 489.1441052940339 # Ar
1104 1104 1 0.0 1347.4698048009084 1179.9952160875348 579.8994070398737 # Ar
1105 1105 1 0.0 336.7493882203295 288.06725864138184 266.52480138622394 # Ar
1106 1106 1 0.0 599.8471400293477 448.3287476251439 861.7317128865085 # Ar
1107 1107 1 0.0 796.910439309286 57.58287116302408 417.94338927874685 # Ar
1108 1108 1 0.0 1069.964580599354 400.0181404447991 166.9791288040456 # Ar
1109 1109 1 0.0 385.7072166579224 1112.940414174714 297.18286247510866 # Ar
1110 1110 1 0.0 1027.6678516424763 726.0961699052567 44.52580892449331 # Ar
1111 1111 1 0.0 510.64016335099257 633.25331209184 1277.0760160498478 # Ar
1112 1112 1 0.0 1083.6156579460628 188.01524412085126 857.229321395325 # Ar
1113 1113 1 0.0 220.4205995658216 1308.3986182795722 1227.7470593387675 # Ar
1114 1114 1 0.0 863.7497236536257 1017.8286583261889 357.11154705046886 # Ar
1115 1115 1 0.0 86.74143639883347 206.7116140136708 284.9219133670402 # Ar
1116 1116 1 0.0 179.31101522550856 300.3868372821569 900.49265089605 # Ar
1117 1117 1 0.0 652.3405918316779 1095.561908792041 540.2904324053221 # Ar
1118 1118 1 0.0 322.2903988164097 1187.1137733745882 397.32961350729465 # Ar
1119 1119 1 0.0 456.56652854666544 288.9310293504933 117.29776261885141 # Ar
1120 1120 1 0.0 255.14902586732683 287.84421471411343 775.248084415048 # Ar
1121 1121 1 0.0 840.0086369356292 196.9204496016369 158.63124218287268 # Ar
1122 1122 1 0.0 521.2280592223358 1219.1854370571143 628.3135722492606 # Ar
1123 1123 1 0.0 1266.1209765640413 1257.1206610166992 361.5474929218759 # Ar
1124 1124 1 0.0 277.7280689807175 487.427409582816 266.11469314313945 # Ar
1125 1125 1 0.0 221.32883896188815 415.0958099554065 216.28625252091257 # Ar
1126 1126 1 0.0 694.6878135270221 589.1654870932086 1022.9934142057715 # Ar
1127 1127 1 0.0 42.84843263224701 443.58904368763183 100.2897844702916 # Ar
1128 1128 1 0.0 388.150238735019 1078.3837533743983 1169.590282042643 # Ar
1129 1129 1 0.0 326.6035350677216 928.8012781175704 464.05850502842014 # Ar
1130 1130 1 0.0 355.84127631035085 355.8380011026441 1072.4521772603557 # Ar
1131 1131 1 0.0 492.34016774000816 684.9020942162605 908.6053002937383 # Ar
1132 1132 1 0.0 1155.9225649649568 898.8913017596061 1326.454213176501 # Ar
1133 1133 1 0.0 257.14160516334704 1283.3975572991442 1182.124795256332 # Ar
1134 1134 1 0.0 776.1186551052002 1155.4373471953434 1013.473186185853 # Ar
1135 1135 1 0.0 1071.9999789644487 651.9538258423598 512.1092948516568 # Ar
1136 1136 1 0.0 437.4400315546831 1192.7119087851554 716.0685739025346 # Ar
1137 1137 1 0.0 1254.1806175302745 745.2368307912975 1183.854633967079 # Ar
1138 1138 1 0.0 1204.5038139258713 885.1941169679578 1294.4295142229523 # Ar
1139 1139 1 0.0 262.988082431924 999.8740658805298 1166.8968498913325 # Ar
1140 1140 1 0.0 722.06970559209 1150.6709279630866 556.0037099770416 # Ar
1141 1141 1 0.0 1057.8438701980588 699.2899448563172 228.9732377074457 # Ar
1142 1142 1 0.0 372.57451294863034 958.1703782960643 1233.3358483780098 # Ar
1143 1143 1 0.0 298.3539546164829 793.432584957702 555.8781003796694 # Ar
1144 1144 1 0.0 1090.9549521848658 727.5790671358513 431.0808015871713 # Ar
1145 1145 1 0.0 976.0632220172939 369.5265878439776 1293.8088390003818 # Ar
1146 1146 1 0.0 457.23911679708755 49.16234876772939 599.6980160223859 # Ar
1147 1147 1 0.0 1335.2111601102756 538.6868688221643 34.416624004404326 # Ar
1148 1148 1 0.0 670.4987958466817 1174.1752530001963 475.48866588954996 # Ar
1149 1149 1 0.0 810.0207933464476 917.0534078766428 676.2330604509777 # Ar
1150 1150 1 0.0 1011.5411781600834 376.87093914960974 389.7783890837302 # Ar
1151 1151 1 0.0 630.6745326535525 748.6420232867704 666.3501984468467 # Ar
1152 1152 1 0.0 502.55935931432714 1279.5697990872254 93.56759295920165 # Ar
1153 1153 1 0.0 902.0646403957755 105.80317051219335 605.1741284018744 # Ar
1154 1154 1 0.0 1000.4098011055527 1011.6325924678372 352.5430958747456 # Ar
1155 1155 1 0.0 157.10741981926967 191.97377203403357 1037.749422717639 # Ar
1156 1156 1 0.0 651.8416342415194 376.96093386545033 696.4995725497448 # Ar
1157 1157 1 0.0 1016.4164181122593 742.9142473792252 398.9180507847056 # Ar
1158 1158 1 0.0 1094.5575952236682 900.1640329189553 937.5693880657378 # Ar
1159 1159 1 0.0 200.2425668379808 269.75993173936376 1292.6424699790477 # Ar
1160 1160 1 0.0 38.23972118225819 273.4000669379034 595.774135935498 # Ar
1161 1161 1 0.0 66.15043608091453 1286.5033043678693 1013.9074429060344 # Ar
1162 1162 1 0.0 431.61019218561677 119.2470237122422 1114.8954736723997 # Ar
1163 1163 1 0.0 1169.1617088384444 491.9098388181041 1079.8371916748804 # Ar
1164 1164 1 0.0 647.534682844387 748.8390908319909 71.12705566516716 # Ar
1165 1165 1 0.0 609.1503898171183 472.1806305209411 1164.7104944014573 # Ar
1166 1166 1 0.0 1217.4909619280143 375.19153662991204 943.9494553998512 # Ar
1167 1167 1 0.0 1014.8164613981293 990.8147030765307 8.053207417890347 # Ar
1168 1168 1 0.0 464.336462471684 186.0246599856883 169.48184505337218 # Ar
1169 1169 1 0.0 336.5934289831244 68.9121027748253 73.65754924262869 # Ar
1170 1170 1 0.0 45.05441204280742 1144.5733985128297 1320.2140644777542 # Ar
1171 1171 1 0.0 623.2110991244858 1318.725413144183 947.2986184359365 # Ar
1172 1172 1 0.0 1087.2982751663951 51.70191449301384 718.5609751560055 # Ar
1173 1173 1 0.0 60.60101671738943 1183.2329766181306 450.9918725338469 # Ar
1174 1174 1 0.0 1335.9814759642545 1200.833403698561 114.90148369708383 # Ar
1175 1175 1 0.0 831.1696518514179 288.311862809461 188.8309820279074 # Ar
1176 1176 1 0.0 1233.1209137343762 145.22096147602866 79.08811403516906 # Ar
1177 1177 1 0.0 1212.458649319972 247.71838330970846 585.7909922339032 # Ar
1178 1178 1 0.0 21.797201995216614 1345.0581075579585 373.9631224344381 # Ar
1179 1179 1 0.0 530.0911039757348 976.7808120949726 1251.8194569011837 # Ar
1180 1180 1 0.0 165.37276333476132 102.10148312472748 841.058558628078 # Ar
1181 1181 1 0.0 774.1720640069921 827.5009051243856 1088.3610905167743 # Ar
1182 1182 1 0.0 758.9475332021464 1118.0264315254267 681.7715685561998 # Ar
1183 1183 1 0.0 973.6531951342862 332.9174753033819 55.85989349489118 # Ar
1184 1184 1 0.0 807.0698930649085 322.332196835388 1289.4579942517362 # Ar
1185 1185 1 0.0 950.9797764306702 139.75394707393 1265.7714624443654 # Ar
1186 1186 1 0.0 163.2863721747048 368.54282995801935 468.77783520875397 # Ar
1187 1187 1 0.0 499.7859443269036 914.9604706660828 663.1040165205424 # Ar
1188 1188 1 0.0 512.32653157952 1309.439267656315 413.43197312300754 # Ar
1189 1189 1 0.0 948.5945247561796 1055.8064617497457 424.1249888158533 # Ar
1190 1190 1 0.0 443.6008140135613 283.6913449779478 679.4889505191526 # Ar
1191 1191 1 0.0 67.5856889622167 1074.0929221674185 1207.744829294713 # Ar
1192 1192 1 0.0 55.17392947742381 579.138393876705 656.6818034870998 # Ar
1193 1193 1 0.0 70.92658493093367 719.5821807236257 853.1041802509901 # Ar
1194 1194 1 0.0 1090.7618350335965 280.7817420453517 528.8584836558349 # Ar
1195 1195 1 0.0 338.62792803228416 930.8584913433391 268.60952069540417 # Ar
1196 1196 1 0.0 241.25777434456225 1076.6691213732108 650.1247000602037 # Ar
1197 1197 1 0.0 1139.6690832152199 370.89833125972126 1192.1287427572597 # Ar
1198 1198 1 0.0 142.2389285707083 539.1568736489802 1225.9463146025837 # Ar
1199 1199 1 0.0 88.92859924306609 505.1257392734674 166.7178528152894 # Ar
1200 1200 1 0.0 463.66992606113627 582.2520187386775 1065.3791245472707 # Ar
1201 1201 1 0.0 1268.3251962141887 1086.3335182884239 4.605604948353109 # Ar
1202 1202 1 0.0 968.9165479563364 772.7631778764724 786.7107951613184 # Ar
1203 1203 1 0.0 1139.6098657087427 166.060657116724 216.97180837567072 # Ar
1204 1204 1 0.0 99.33693873793555 766.7645469833863 808.1338143008502 # Ar
1205 1205 1 0.0 460.9303578343214 775.4228770781092 531.166709791367 # Ar
1206 1206 1 0.0 224.32230113155097 914.5811334718618 834.746093354956 # Ar
1207 1207 1 0.0 1038.8592927537682 1054.1990388677716 635.2462861198123 # Ar
1208 1208 1 0.0 152.6559657506025 1088.1288474942992 342.4229271616813 # Ar
1209 1209 1 0.0 368.07931726472634 755.2821908660926 219.970722770768 # Ar
1210 1210 1 0.0 1168.6471708572567 531.4488486508077 490.27314764423784 # Ar
1211 1211 1 0.0 73.58221017046831 850.5244433462948 524.7161817965967 # Ar
1212 1212 1 0.0 184.8742890625703 577.792120857792 192.81956755139763 # Ar
1213 1213 1 0.0 647.1235119748135 1276.1785869645248 1055.6137267464446 # Ar
1214 1214 1 0.0 1248.3211919332853 1287.8299638984436 1258.69783187429 # Ar
1215 1215 1 0.0 1148.2051074347296 453.2361297367823 784.8474382710184 # Ar
1216 1216 1 0.0 397.7656970893884 1167.9768042821524 925.2256807712039 # Ar
1217 1217 1 0.0 441.6359503166328 1278.3212284849826 884.353066976284 # Ar
1218 1218 1 0.0 1097.4197081977725 605.5625417837114 257.8009985348415 # Ar
1219 1219 1 0.0 1189.1423381275492 369.4226638719281 1053.0243874838686 # Ar
1220 1220 1 0.0 1097.9986845173432 1320.0077336978684 603.3158338129424 # Ar
1221 1221 1 0.0 1012.2653131905598 1110.877152608302 1075.9588815182397 # Ar
1222 1222 1 0.0 1332.715777970699 561.0499418224418 524.4860364043893 # Ar
1223 1223 1 0.0 1077.3350569620666 998.4385969823838 545.8880929037456 # Ar
1224 1224 1 0.0 223.26488821513627 962.0059032603979 672.6955359459046 # Ar
1225 1225 1 0.0 1084.1046967008451 821.2985306322146 43.35953211134032 # Ar
1226 1226 1 0.0 401.6306471641893 998.0882440038769 283.0259557903168 # Ar
1227 1227 1 0.0 357.07215595454295 110.27810242120084 1268.9967245951555 # Ar
1228 1228 1 0.0 384.892608142816 547.3954705620162 1181.2248563473897 # Ar
1229 1229 1 0.0 376.1353116812746 7.65042768696275 1251.0425119418048 # Ar
1230 1230 1 0.0 950.2978434229952 429.1087380208659 44.387178236549246 # Ar
1231 1231 1 0.0 922.4709695206068 1296.3946281981982 730.6451530835367 # Ar
1232 1232 1 0.0 318.73649849745175 1290.1595764289475 13.783874775885298 # Ar
1233 1233 1 0.0 1128.6628538291861 764.8988721333991 849.2887437532967 # Ar
1234 1234 1 0.0 640.7465301545827 61.35643821318057 1045.9122714039324 # Ar
1235 1235 1 0.0 1169.9138812279016 553.6187266901513 859.5915830929304 # Ar
1236 1236 1 0.0 462.4706665356556 534.3854479851354 905.8152400831532 # Ar
1237 1237 1 0.0 633.1519103932828 747.5338433002253 763.590631160713 # Ar
1238 1238 1 0.0 819.5138557765936 457.623550188273 717.0425636258374 # Ar
1239 1239 1 0.0 556.9381899657516 433.5184817585968 910.6607977077698 # Ar
1240 1240 1 0.0 520.5369854011657 110.7953639426153 425.4337948029662 # Ar
1241 1241 1 0.0 646.4840292576976 1007.6716323180103 339.04954381573435 # Ar
1242 1242 1 0.0 980.6220084885372 212.16628479908823 1180.705396938267 # Ar
1243 1243 1 0.0 1212.9520438585453 876.5483894752846 703.7669803738055 # Ar
1244 1244 1 0.0 1035.0122594429224 762.1853915122302 498.926538276005 # Ar
1245 1245 1 0.0 939.2587952300555 1270.4414804819717 1068.0122533098242 # Ar
1246 1246 1 0.0 584.2128443843142 359.569027024405 1134.5132166331116 # Ar
1247 1247 1 0.0 467.5699923150832 593.4074350506504 1129.044815830813 # Ar
1248 1248 1 0.0 181.92543261678702 622.6588646090205 1327.9364689635397 # Ar
1249 1249 1 0.0 795.8290778563177 898.9126306758516 612.4808281236154 # Ar
1250 1250 1 0.0 392.9071538456409 18.93949114174757 1176.080510478393 # Ar
1251 1251 1 0.0 448.5331535054827 750.9824554409374 755.8040488673042 # Ar
1252 1252 1 0.0 531.1828978250162 151.1425498200106 961.8955154991398 # Ar
1253 1253 1 0.0 1037.700461431653 1288.614218351404 805.8874814228858 # Ar
1254 1254 1 0.0 1015.0992260062309 664.8346635828472 937.1541615049963 # Ar
1255 1255 1 0.0 239.57197859791387 795.0824738961803 497.86957907191436 # Ar
1256 1256 1 0.0 4.715385916754901 1314.3377703355945 622.2117371105871 # Ar
1257 1257 1 0.0 262.48934472415687 540.7321274585603 778.7527353934931 # Ar
1258 1258 1 0.0 862.3938155379594 168.66057276967723 1240.0012621041824 # Ar
1259 1259 1 0.0 658.1231651874157 55.98604328670734 1050.1084955052343 # Ar
1260 1260 1 0.0 14.823399241194512 1106.3395632067875 212.167729951786 # Ar
1261 1261 1 0.0 541.8954459909452 835.2565174117989 141.51462514379105 # Ar
1262 1262 1 0.0 1099.8102550690878 1253.3326672990777 594.5930627073226 # Ar
1263 1263 1 0.0 800.3096195652707 396.26438870787547 527.3192356639936 # Ar
1264 1264 1 0.0 368.16752602815274 31.235726905328086 1142.8451499205248 # Ar
1265 1265 1 0.0 978.1948035063984 676.2194427567323 747.5716345427899 # Ar
1266 1266 1 0.0 1106.3309164347138 130.54727606168413 1023.4779285621466 # Ar
1267 1267 1 0.0 119.27432088360813 139.57040168569083 497.5139454599099 # Ar
1268 1268 1 0.0 276.2171096983249 1314.369827909073 829.5277970246659 # Ar
1269 1269 1 0.0 406.3954172328528 1121.6187371467738 600.422922765098 # Ar
1270 1270 1 0.0 643.6892604523231 860.4376379637273 1148.5461396367327 # Ar
1271 1271 1 0.0 157.72673309116686 1117.912435137799 1031.781972393696 # Ar
1272 1272 1 0.0 456.15522365014715 986.6628036838163 795.6987106582988 # Ar
1273 1273 1 0.0 1011.6154196629398 882.4654459919118 557.328757140267 # Ar
1274 1274 1 0.0 533.336396337424 588.1551696509327 1033.37290040491 # Ar
1275 1275 1 0.0 462.2942564614889 200.7572583656763 986.9361057833996 # Ar
1276 1276 1 0.0 443.27449261946 851.4423655421821 178.44456562362603 # Ar
1277 1277 1 0.0 305.60198130556853 137.52614493679638 364.47899243812253 # Ar
1278 1278 1 0.0 610.4056481730479 1234.5458678775126 982.3299819703768 # Ar
1279 1279 1 0.0 406.5770348883457 295.40027664005385 2.7894376187067644 # Ar
1280 1280 1 0.0 371.8315375689751 334.64086555040427 103.34431053515956 # Ar
1281 1281 1 0.0 1157.4522627202284 262.9766294404001 102.79727978748733 # Ar
1282 1282 1 0.0 1102.2319931154657 479.19351422368237 251.58154491335983 # Ar
1283 1283 1 0.0 410.646925684475 991.7658406009388 1061.122520024297 # Ar
1284 1284 1 0.0 443.4656053142016 872.8612409843192 274.11645512787123 # Ar
1285 1285 1 0.0 1180.3773381084113 282.0789339953434 690.0056871818775 # Ar
1286 1286 1 0.0 154.37124997054087 593.7361932624807 746.4904256701755 # Ar
1287 1287 1 0.0 1209.459802982509 990.994779684716 351.68632537102854 # Ar
1288 1288 1 0.0 209.84040617832886 296.25686282822215 647.4651871104169 # Ar
1289 1289 1 0.0 695.5707999293668 620.5806087600259 604.8894776015551 # Ar
1290 1290 1 0.0 182.52186701072705 883.1631255241451 57.15281630861365 # Ar
1291 1291 1 0.0 256.32873580461757 807.9730687366819 378.00188496161024 # Ar
1292 1292 1 0.0 469.79908750304975 739.006176920246 901.0932343127223 # Ar
1293 1293 1 0.0 1136.4419477586507 983.9867089027881 1122.1020579535455 # Ar
1294 1294 1 0.0 239.89032098912637 561.633188431308 999.2519985727266 # Ar
1295 1295 1 0.0 1020.4020542598275 1174.9447553507457 528.6405471469211 # Ar
1296 1296 1 0.0 681.4251321081098 1068.3576103722958 117.26256408263467 # Ar
1297 1297 1 0.0 551.1637511455972 549.3496378326856 1228.0467066400402 # Ar
1298 1298 1 0.0 1063.8144475214697 555.661870392317 1012.325236731144 # Ar
1299 1299 1 0.0 873.4446450303419 1331.5029311962167 963.5741700282665 # Ar
1300 1300 1 0.0 128.52080741423785 947.6847142298162 503.8130981198362 # Ar
1301 1301 1 0.0 620.3869739492883 1135.9997849571566 533.7301842929419 # Ar
1302 1302 1 0.0 927.0736182286048 191.69639168855483 858.3492853185104 # Ar
1303 1303 1 0.0 707.2278941257429 304.6899538529442 402.2980287961714 # Ar
1304 1304 1 0.0 1064.5877103805417 424.22157181509726 181.5541095568815 # Ar
1305 1305 1 0.0 22.883733921244893 1278.812620218963 554.5119825733749 # Ar
1306 1306 1 0.0 1227.5199823774756 319.8987918873213 414.9643699443439 # Ar
1307 1307 1 0.0 236.08925565476952 144.72929219432436 597.2691534501823 # Ar
1308 1308 1 0.0 549.6355605672643 236.9010702336537 488.50438319098697 # Ar
1309 1309 1 0.0 20.22459923000434 505.72532717178774 1052.7282985889153 # Ar
1310 1310 1 0.0 187.8736674191031 1147.5038178224934 776.1226530901869 # Ar
1311 1311 1 0.0 865.7704324870695 1051.7530340805183 857.2719176256047 # Ar
1312 1312 1 0.0 162.06907342181256 444.19734555328574 98.01367473592978 # Ar
1313 1313 1 0.0 1313.4449229199447 366.3541633679864 861.2807712743481 # Ar
1314 1314 1 0.0 685.4364963635052 1037.7122389933108 765.9419260931642 # Ar
1315 1315 1 0.0 1316.1024911689642 308.09791281844497 1300.5647817584543 # Ar
1316 1316 1 0.0 386.9247367970413 368.7695869095035 515.834538352878 # Ar
1317 1317 1 0.0 1229.5634027416627 713.3387033518568 525.8783495349812 # Ar
1318 1318 1 0.0 889.2206814245691 874.7113106292445 119.14975639332907 # Ar
1319 1319 1 0.0 274.58830862436247 924.2127631099493 870.4871615210318 # Ar
1320 1320 1 0.0 268.38407936627175 901.6805717466787 180.29099363950084 # Ar
1321 1321 1 0.0 1335.7328093091676 254.65320855390908 509.24525733974326 # Ar
1322 1322 1 0.0 1256.0954507530873 892.2711448799745 1186.4599119661473 # Ar
1323 1323 1 0.0 1150.6319320669716 174.66418948233652 1021.0223901444122 # Ar
1324 1324 1 0.0 650.5143825054721 447.50508128120947 116.8601291018923 # Ar
1325 1325 1 0.0 1210.865546157291 836.4385554429145 1319.858406727975 # Ar
1326 1326 1 0.0 1210.3764784384462 672.4500633940306 1108.9659392633473 # Ar
1327 1327 1 0.0 570.8536564560679 946.3928660249483 384.9399705418069 # Ar
1328 1328 1 0.0 456.8988067939855 235.2077641692208 100.45391032417389 # Ar
1329 1329 1 0.0 262.92781107728365 1049.0903921674894 116.61329068223633 # Ar
1330 1330 1 0.0 922.8124254800708 297.21006756802643 117.79194335718188 # Ar
1331 1331 1 0.0 778.144679594395 1143.1952351452367 299.0983798389614 # Ar
1332 1332 1 0.0 146.54806695257093 198.5225126727167 154.58108289705464 # Ar
1333 1333 1 0.0 274.1806991421953 1264.2276239566509 431.29015621818905 # Ar
1334 1334 1 0.0 282.3465677406498 255.27776055156286 631.8311413558855 # Ar
1335 1335 1 0.0 1080.6851111482235 1145.2630439726163 26.152329540288143 # Ar
1336 1336 1 0.0 960.2741609028819 522.547146542768 188.98710007785965 # Ar
1337 1337 1 0.0 442.72854494725675 295.5463544242071 1107.7279155293425 # Ar
1338 1338 1 0.0 28.85252124346643 1161.8559083187354 148.74279870814235 # Ar
1339 1339 1 0.0 12.676559810921997 590.0432509508764 1258.0986147949548 # Ar
1340 1340 1 0.0 524.1152130311322 623.5363065637686 1154.6439774904657 # Ar
1341 1341 1 0.0 811.2539006772184 901.2813102392527 617.7077912897352 # Ar
1342 1342 1 0.0 498.7019837324108 1000.6404133700468 855.5506853107619 # Ar
1343 1343 1 0.0 667.7413568828765 206.68127632185048 1201.2125395208852 # Ar
1344 1344 1 0.0 280.0086255841194 450.56910863244667 424.7346362671105 # Ar
1345 1345 1 0.0 282.76945185572714 17.30738856332174 38.77332389855337 # Ar
1346 1346 1 0.0 1088.4592668671523 438.643622831228 1325.1104344446417 # Ar
1347 1347 1 0.0 1045.054207498975 953.4054168108795 186.25337915239172 # Ar
1348 1348 1 0.0 55.4527243549588 318.2969981223163 393.005726666931 # Ar
1349 1349 1 0.0 158.44440061157417 1058.0937852980685 619.5176331333694 # Ar
1350 1350 1 0.0 526.3176344827436 980.7049545573293 490.6234344118163 # Ar
1351 1351 1 0.0 1054.258218841521 489.5444610104335 518.4142136524689 # Ar
1352 1352 1 0.0 68.42216414721219 180.76308370077413 921.0751671085808 # Ar
1353 1353 1 0.0 1328.5854681569747 834.255063674415 759.652693739432 # Ar
1354 1354 1 0.0 740.7093324845116 1046.2372699548328 820.9447527848508 # Ar
1355 1355 1 0.0 83.01135879339576 521.1692475295399 441.46536979559164 # Ar
1356 1356 1 0.0 280.9478025434101 714.171725937618 741.2223800648995 # Ar
1357 1357 1 0.0 366.6779292192637 275.44003867404786 442.3479055951399 # Ar
1358 1358 1 0.0 468.56958570283444 408.53663401325156 286.9604108801386 # Ar
1359 1359 1 0.0 1344.283051631637 55.87435419181882 685.5923937594948 # Ar
1360 1360 1 0.0 667.6946972569353 587.2135853069323 722.2453650038335 # Ar
1361 1361 1 0.0 36.362222392279534 846.3151049082278 647.6697978724044 # Ar
1362 1362 1 0.0 1135.892754091585 280.61142824371535 746.969158724897 # Ar
1363 1363 1 0.0 180.20395615833473 453.89673544803185 1316.759193563377 # Ar
1364 1364 1 0.0 66.90372287097298 427.33921438072133 504.8047999181302 # Ar
1365 1365 1 0.0 234.21360017400886 544.9187042202394 1148.2843776725715 # Ar
1366 1366 1 0.0 754.9013370940573 55.61984316101851 1319.8429355268413 # Ar
1367 1367 1 0.0 331.05343906436457 121.55983914200188 244.4760755751583 # Ar
1368 1368 1 0.0 1109.5602248828761 1298.152203545992 573.0080329399979 # Ar
1369 1369 1 0.0 531.6649387643769 420.49223313030143 327.3082368368426 # Ar
1370 1370 1 0.0 503.065622783117 1252.6528551750312 43.00126708838306 # Ar
1371 1371 1 0.0 244.36858451985063 160.9545965000222 211.8441413983836 # Ar
1372 1372 1 0.0 573.6818702351932 149.392845768702 604.006610105891 # Ar
1373 1373 1 0.0 884.1015762583215 1034.1043865139957 292.9137748300149 # Ar
1374 1374 1 0.0 350.3539034926335 882.7310182336005 92.4816879565301 # Ar
1375 1375 1 0.0 203.78231366348962 181.13405882289257 1278.1160572909657 # Ar
1376 1376 1 0.0 518.7985546079731 68.98930457530513 1066.9486372024212 # Ar
1377 1377 1 0.0 898.066598106085 780.7459466624462 879.9517740485068 # Ar
1378 1378 1 0.0 68.18598214051913 1134.7497669313711 1099.5419904891094 # Ar
1379 1379 1 0.0 386.1604815302817 1325.856820533144 1005.2409475579708 # Ar
1380 1380 1 0.0 624.9348790508822 932.292840408335 140.51431315188245 # Ar
1381 1381 1 0.0 763.7286579222362 46.41038700263893 1199.9572182267407 # Ar
1382 1382 1 0.0 301.0532649983771 952.7513008509353 165.84184372668403 # Ar
1383 1383 1 0.0 1167.000218972957 936.1369447485962 882.0864157855804 # Ar
1384 1384 1 0.0 330.26789521606395 94.44766702272464 1155.9969211267942 # Ar
1385 1385 1 0.0 484.77598679188446 1219.7733708088087 789.5631323565784 # Ar
1386 1386 1 0.0 704.9463810876492 902.9491482897755 1204.5282104961336 # Ar
1387 1387 1 0.0 170.25571790995164 509.95545247539883 665.7950731271578 # Ar
1388 1388 1 0.0 851.2483004455374 573.8188318119197 564.0491237127225 # Ar
1389 1389 1 0.0 1120.1943005593582 375.7474164648198 388.7559220760298 # Ar
1390 1390 1 0.0 816.1349042603474 561.5557922538866 838.9325765602008 # Ar
1391 1391 1 0.0 928.4441744732959 1077.220732421519 864.6369887327596 # Ar
1392 1392 1 0.0 1103.345217922974 420.93946591786414 459.08798047318425 # Ar
1393 1393 1 0.0 642.3836960210564 166.37710602287555 859.7167883050173 # Ar
1394 1394 1 0.0 592.7638245002533 751.4047203246372 1293.7065922772256 # Ar
1395 1395 1 0.0 575.8067483893735 759.284187215183 545.4197864262765 # Ar
1396 1396 1 0.0 1095.5747851884512 206.52230853700573 619.1442003820604 # Ar
1397 1397 1 0.0 743.0305741634623 535.5477132189449 1095.866374167686 # Ar
1398 1398 1 0.0 849.6077098035926 827.8401278579125 1305.7485228322228 # Ar
1399 1399 1 0.0 696.7128008810305 1268.5456317481205 792.9446369689513 # Ar
1400 1400 1 0.0 252.84720475378623 443.1591020607234 360.09051667327753 # Ar
1401 1401 1 0.0 1178.9655982646952 61.1915788126198 129.05266120157435 # Ar
1402 1402 1 0.0 811.7257057346087 13.646683347627334 935.920877096601 # Ar
1403 1403 1 0.0 102.57648499883803 1010.3395183225399 1321.3756728833 # Ar
1404 1404 1 0.0 602.3923164377543 615.1925500719153 188.42967543973654 # Ar
1405 1405 1 0.0 819.0666299325666 937.4169546865821 458.7785805168867 # Ar
1406 1406 1 0.0 1253.6409933949906 919.8672446784171 1208.0790681303326 # Ar
1407 1407 1 0.0 1193.5194529567045 899.5901107309284 646.6310155048187 # Ar
1408 1408 1 0.0 301.8033460482539 137.95563365489207 254.10254108918014 # Ar
1409 1409 1 0.0 1235.8962684799585 361.3842718314188 1054.7237488028243 # Ar
1410 1410 1 0.0 1120.5064420595531 376.4770932247302 659.993965767607 # Ar
1411 1411 1 0.0 618.0589816617654 670.1352440318776 378.85460411229946 # Ar
1412 1412 1 0.0 190.87133196012232 1020.9008208319495 1339.3127253713476 # Ar
1413 1413 1 0.0 940.6115333977558 825.9828105527972 489.7321307160687 # Ar
1414 1414 1 0.0 828.3485440993817 178.04986601882973 548.4872966591504 # Ar
1415 1415 1 0.0 1244.2390002735715 643.6208648662196 826.4128692439241 # Ar
1416 1416 1 0.0 1006.3028375699317 652.223925723451 551.7958347396336 # Ar
1417 1417 1 0.0 35.06870246642121 1275.8942349266438 467.0886132016819 # Ar
1418 1418 1 0.0 528.0625774559635 528.879333194343 997.0895021527662 # Ar
1419 1419 1 0.0 683.5515642601189 783.460679149417 673.2666110483924 # Ar
1420 1420 1 0.0 906.8639467115726 387.39280236447553 1046.9777177452613 # Ar
1421 1421 1 0.0 391.90741390598436 1196.9769344098497 415.736092454382 # Ar
1422 1422 1 0.0 490.0577368620284 522.4677655872781 954.4565654204586 # Ar
1423 1423 1 0.0 808.7539431991963 1142.031256492827 522.7573300178708 # Ar
1424 1424 1 0.0 1181.7897574236465 248.96477770829927 786.9487632739863 # Ar
1425 1425 1 0.0 476.3950570115357 480.4858093321793 270.23197918671707 # Ar
1426 1426 1 0.0 112.86453716959569 133.36646231338486 497.0759440711407 # Ar
1427 1427 1 0.0 1038.2965506615474 1163.9402106457567 585.3214330199029 # Ar
1428 1428 1 0.0 420.6534044585103 381.5606185530676 410.6571328601187 # Ar
1429 1429 1 0.0 1193.8838135287695 951.4422990595148 586.3275211512906 # Ar
1430 1430 1 0.0 336.87323500346287 1082.2069619819988 75.34746749114201 # Ar
1431 1431 1 0.0 721.3213118688319 1346.0512040827252 266.83832448252235 # Ar
1432 1432 1 0.0 1047.8639843393744 143.68595470253686 241.9252120351577 # Ar
1433 1433 1 0.0 136.706336862671 16.26876893088574 480.67119988943404 # Ar
1434 1434 1 0.0 1207.8217761280232 494.2930369125632 482.0210506771348 # Ar
1435 1435 1 0.0 805.6677555662914 1269.3053815359171 422.829093335241 # Ar
1436 1436 1 0.0 953.8812080276693 1232.9638802510785 361.69661365786334 # Ar
1437 1437 1 0.0 519.8373109915807 1122.4734040593794 1064.546354595889 # Ar
1438 1438 1 0.0 128.31634893631747 1181.7108775875997 619.9373023813628 # Ar
1439 1439 1 0.0 1021.0336005204604 130.3507187247273 1100.2393429334988 # Ar
1440 1440 1 0.0 882.4845870880882 813.0499895115174 903.3711592280225 # Ar
1441 1441 1 0.0 293.53194329313476 1335.6288183334163 757.1371286968736 # Ar
1442 1442 1 0.0 386.7507784039349 5.863066329849579 425.4058093579189 # Ar
1443 1443 1 0.0 779.0023883733934 1111.790571220448 42.64362817161533 # Ar
1444 1444 1 0.0 976.0127125051386 952.3707951600087 673.8311982598541 # Ar
1445 1445 1 0.0 1252.4358264726104 1343.5363468556354 448.5801903425051 # Ar
1446 1446 1 0.0 588.9908012474033 79.08844078326173 169.25077478280014 # Ar
1447 1447 1 0.0 384.727725419182 25.58356373449688 705.4603640677723 # Ar
1448 1448 1 0.0 353.92775752571436 491.04436843688245 581.1763912562393 # Ar
1449 1449 1 0.0 752.181792336092 646.6676585323102 1222.1370620879438 # Ar
1450 1450 1 0.0 1133.41999970419 356.6052403980608 562.6004751691962 # Ar
1451 1451 1 0.0 855.9043624064008 759.1902027929086 1220.6774476236026 # Ar
1452 1452 1 0.0 1197.3824371230276 727.9261551861978 1005.1281760875797 # Ar
1453 1453 1 0.0 271.5689316249875 968.9249008877144 1001.0188081893574 # Ar
1454 1454 1 0.0 1029.9414334521878 849.2519943313307 1173.7333908495232 # Ar
1455 1455 1 0.0 514.4860840952629 672.2336453153004 1286.625866427612 # Ar
1456 1456 1 0.0 941.7984905569529 123.28049940376468 349.5065430970336 # Ar
1457 1457 1 0.0 1147.493986267965 902.8942520457655 18.187199806697226 # Ar
1458 1458 1 0.0 927.505840671072 911.8952608382097 816.0394272850195 # Ar
1459 1459 1 0.0 308.92268617280627 174.87890163908028 231.8293153756771 # Ar
1460 1460 1 0.0 1086.8622919258262 835.229473334916 640.7915512746107 # Ar
1461 1461 1 0.0 240.44007196829475 741.201055368336 588.2397839588051 # Ar
1462 1462 1 0.0 901.2111521252707 1274.0618722457023 815.7628557811441 # Ar
1463 1463 1 0.0 204.92397207548635 663.2022620664796 825.3030901301191 # Ar
1464 1464 1 0.0 139.96285469781037 452.24816026765967 743.0154099904937 # Ar
1465 1465 1 0.0 799.567327268478 52.842337168182205 1002.0891792575504 # Ar
1466 1466 1 0.0 1077.4338774658656 795.0587720993343 263.4489947597176 # Ar
1467 1467 1 0.0 1051.9007531935908 1067.2350005897913 403.10203658193944 # Ar
1468 1468 1 0.0 625.4503570459561 375.76728562153687 1340.1528003260257 # Ar
1469 1469 1 0.0 875.3386902906057 48.8081633167071 405.5146570822337 # Ar
1470 1470 1 0.0 1170.5919296026573 1087.154055384251 120.45928629221287 # Ar
1471 1471 1 0.0 159.27701570965988 470.9757888599525 681.8216010158192 # Ar
1472 1472 1 0.0 818.0141976698336 424.9893359565752 239.43150427732914 # Ar
1473 1473 1 0.0 1236.5480432083452 1214.2846350301422 988.1854909290074 # Ar
1474 1474 1 0.0 1316.5883076452326 586.9630099392666 270.136237393859 # Ar
1475 1475 1 0.0 793.7495065707358 754.6024059399931 415.06050106922066 # Ar
1476 1476 1 0.0 1196.5263701239878 1302.982291769658 603.6780420949237 # Ar
1477 1477 1 0.0 1205.935700729601 1198.263381196783 275.7607066923046 # Ar
1478 1478 1 0.0 988.8363116585807 223.6071504812003 72.55013318676914 # Ar
1479 1479 1 0.0 653.3781861638433 1095.8681673380233 916.719928651106 # Ar
1480 1480 1 0.0 710.2488921462151 362.4754489129942 1012.226140495955 # Ar
1481 1481 1 0.0 948.3641788731397 518.5293770289046 807.5534929938376 # Ar
1482 1482 1 0.0 94.51095511280946 377.1615780533606 935.7013441704734 # Ar
1483 1483 1 0.0 772.5191098790722 1018.4664877408281 503.2806606175314 # Ar
1484 1484 1 0.0 596.3505213630032 618.9856583527426 585.4085419223591 # Ar
1485 1485 1 0.0 14.32735851735804 665.6762622033373 199.60339302326346 # Ar
1486 1486 1 0.0 923.0309863270434 1226.0418346961078 169.74481732584988 # Ar
1487 1487 1 0.0 1176.3558290660833 322.3652368462709 477.5019308469394 # Ar
1488 1488 1 0.0 188.90682892846326 317.84787190993364 1267.2609313684943 # Ar
1489 1489 1 0.0 641.7804486263809 768.5786562189786 1046.4445985848847 # Ar
1490 1490 1 0.0 351.66284062602665 972.7154769925135 102.37942511137175 # Ar
1491 1491 1 0.0 1278.2069663425355 1321.8337470450167 718.6023083512416 # Ar
1492 1492 1 0.0 799.6432727716684 840.4989201390403 972.9042078056473 # Ar
1493 1493 1 0.0 70.88279498285817 895.1150558582777 1252.0367168151836 # Ar
1494 1494 1 0.0 350.76949402663166 148.33832400428633 267.9663204299048 # Ar
1495 1495 1 0.0 6.626012819588679 22.126120875965483 1016.8926750497488 # Ar
1496 1496 1 0.0 178.60242874085395 1088.3646342696757 507.6747010486679 # Ar
1497 1497 1 0.0 1085.540090998837 1039.9670179017348 1132.7545639674352 # Ar
1498 1498 1 0.0 1155.1523558215138 87.80242877972928 978.9880118242814 # Ar
1499 1499 1 0.0 1164.3884598189366 935.5263186996667 507.55909009758653 # Ar
1500 1500 1 0.0 1333.5293082747128 176.20259586941938 344.93007505984536 # Ar
1501 1501 1 0.0 1235.5592514350549 646.3365738638503 1131.0118931628358 # Ar
1502 1502 1 0.0 433.15001575978107 56.07635651578253 663.3408506747569 # Ar
1503 1503 1 0.0 419.9011626336815 521.4316161381599 971.8812206027544 # Ar
1504 1504 1 0.0 22.084138706864508 105.51927930048663 88.77488196491674 # Ar
1505 1505 1 0.0 1265.7230521430895 822.9649011146519 1152.8996863845227 # Ar
1506 1506 1 0.0 835.3217277651241 406.5491033924064 58.99286514663434 # Ar
1507 1507 1 0.0 551.5826753174164 1217.3450180101913 330.9355718029167 # Ar
1508 1508 1 0.0 136.20226254566455 1175.7282803830694 581.0253549422648 # Ar
1509 1509 1 0.0 1102.1220988467228 522.7948853630156 301.78745256710107 # Ar
1510 1510 1 0.0 305.6137541183386 832.2855129700707 760.5853723948561 # Ar
1511 1511 1 0.0 790.8627719702959 512.4604737720686 588.8659459755506 # Ar
1512 1512 1 0.0 525.340780524094 145.7447304068488 583.9714791846523 # Ar
1513 1513 1 0.0 1208.5191387122331 1080.1398062268038 382.08988361198374 # Ar
1514 1514 1 0.0 133.47751235470437 1075.1236390709262 925.7601598092915 # Ar
1515 1515 1 0.0 826.1583324235626 518.23503872054 1104.74158008631 # Ar
1516 1516 1 0.0 803.5985717929507 896.8415291487534 868.477203251888 # Ar
1517 1517 1 0.0 352.96172361026817 1289.4656246909103 481.74111093704425 # Ar
1518 1518 1 0.0 65.92082640308621 1117.7862208362433 522.7256302796878 # Ar
1519 1519 1 0.0 1311.0398573971763 823.2429944376859 1171.6866623636076 # Ar
1520 1520 1 0.0 796.9432075016309 543.8148420626942 607.0296451313876 # Ar
1521 1521 1 0.0 812.6698444188648 697.8548777695614 1280.722124188915 # Ar
1522 1522 1 0.0 66.77744845251058 679.6956144265905 134.94217402913398 # Ar
1523 1523 1 0.0 643.9892750490413 1306.2420265538378 1173.8664247865331 # Ar
1524 1524 1 0.0 550.8407268403741 613.5643597265965 614.6371379544642 # Ar
1525 1525 1 0.0 1283.9340309488011 1099.7280874601602 327.3966261920631 # Ar
1526 1526 1 0.0 987.5402905893305 1055.7540135309796 104.84391284288535 # Ar
1527 1527 1 0.0 1158.6200043849306 146.68012762579667 14.420072907362114 # Ar
1528 1528 1 0.0 715.3394240893309 706.0558826339975 204.59967289340128 # Ar
1529 1529 1 0.0 1268.1732155339832 728.7175376779572 480.2995975699242 # Ar
1530 1530 1 0.0 198.8782835836979 376.90376991582946 222.9078130939529 # Ar
1531 1531 1 0.0 1207.4975345609816 650.1108284861015 218.18136392303157 # Ar
1532 1532 1 0.0 246.70939836193696 391.83555245512736 116.48379091673563 # Ar
1533 1533 1 0.0 668.4826341571272 1332.7820277413311 1215.591926100806 # Ar
1534 1534 1 0.0 133.31606632593184 984.0212190272089 393.68364707224947 # Ar
1535 1535 1 0.0 1315.005960949686 1316.5428364880959 91.65760005447368 # Ar
1536 1536 1 0.0 607.3694659151325 988.523070193397 772.0470283367109 # Ar
1537 1537 1 0.0 1171.3636647645058 772.90502039845 57.36939520376656 # Ar
1538 1538 1 0.0 764.0552436782159 315.1728034127721 1189.5417528541002 # Ar
1539 1539 1 0.0 102.5194483813174 110.64635140218513 1095.9338639169894 # Ar
1540 1540 1 0.0 62.416131030118116 1064.8577115153184 138.4241673540154 # Ar
1541 1541 1 0.0 557.6692769597123 1322.246529524945 489.2408146793176 # Ar
1542 1542 1 0.0 244.47200819826665 780.1090272517332 195.03073406034073 # Ar
1543 1543 1 0.0 69.69172431594458 111.2388287915609 487.22845599876734 # Ar
1544 1544 1 0.0 387.7831245207218 904.4585171191236 1075.8771208787614 # Ar
1545 1545 1 0.0 1206.3770786751024 1230.5465335273148 662.9405369731078 # Ar
1546 1546 1 0.0 790.973747653629 108.44073511497751 1163.4786008283263 # Ar
1547 1547 1 0.0 692.9136933879621 1074.29092366822 398.85888418982535 # Ar
1548 1548 1 0.0 611.4353245284922 398.7408288142021 153.35497525322714 # Ar
1549 1549 1 0.0 51.421097338975066 56.16525240493601 470.9903819710301 # Ar
1550 1550 1 0.0 233.6224186339281 831.738459926459 263.83932727830927 # Ar
1551 1551 1 0.0 911.5990938819782 789.755174685277 166.20066299052547 # Ar
1552 1552 1 0.0 861.065588570484 1104.8380432045888 45.67552525860479 # Ar
1553 1553 1 0.0 1034.1960289132792 349.59838640981815 717.6687892597906 # Ar
1554 1554 1 0.0 928.6164219267648 315.4068013865536 1098.1811461661935 # Ar
1555 1555 1 0.0 1035.6098620058176 151.33703869670765 637.0318116326144 # Ar
1556 1556 1 0.0 962.4070761378987 401.47848722260085 349.9453304887984 # Ar
1557 1557 1 0.0 128.34312726165012 420.65520229166214 412.5598035448512 # Ar
1558 1558 1 0.0 1313.5691921297293 1106.054511801713 1243.605214784745 # Ar
1559 1559 1 0.0 38.610078841224805 1178.4803791930535 1272.8497030914893 # Ar
1560 1560 1 0.0 1288.5392204245059 874.7876131414442 989.6604479217066 # Ar
1561 1561 1 0.0 409.56366456432835 1333.8249499260312 232.28650520538966 # Ar
1562 1562 1 0.0 1098.45232343659 989.715646130215 149.02129081960604 # Ar
1563 1563 1 0.0 294.8496942562359 733.0260628437112 1142.396409028823 # Ar
1564 1564 1 0.0 45.30693671835421 807.7224716634597 503.0127678040168 # Ar
1565 1565 1 0.0 680.7773241236604 234.15129456155407 1099.297526061695 # Ar
1566 1566 1 0.0 682.6082900637745 722.0046106640026 928.8137168694226 # Ar
1567 1567 1 0.0 281.70011177150485 498.6909131345887 395.25060871564693 # Ar
1568 1568 1 0.0 905.8114036148348 852.6883466772153 843.6385965260413 # Ar
1569 1569 1 0.0 232.98398037826536 411.39272511198095 786.8953731262383 # Ar
1570 1570 1 0.0 122.03851121593512 735.5668214974071 550.1153092669402 # Ar
1571 1571 1 0.0 1091.4432324678435 401.7517993518684 871.963531300316 # Ar
1572 1572 1 0.0 1057.238139551574 967.2674337788108 97.85827695208307 # Ar
1573 1573 1 0.0 970.0761702215344 801.1875964307646 499.2912169485116 # Ar
1574 1574 1 0.0 170.8770451697877 1205.4718239224749 982.2405274279458 # Ar
1575 1575 1 0.0 1201.6327274907699 1031.8780407503941 1087.479891103656 # Ar
1576 1576 1 0.0 910.6302547671252 736.5473727380611 698.8192210645925 # Ar
1577 1577 1 0.0 460.3263917887524 1064.45321360888 987.8762633329166 # Ar
1578 1578 1 0.0 563.4960906094356 617.3932525516042 288.8226541316657 # Ar
1579 1579 1 0.0 1335.5623187500898 392.71999355919894 1036.5769976499596 # Ar
1580 1580 1 0.0 4.206352821222208 1335.8655963681476 808.640069518982 # Ar
1581 1581 1 0.0 637.4063660276511 1281.2332153091177 432.8348257462348 # Ar
1582 1582 1 0.0 416.14540352541366 46.73816225520009 367.41470122482576 # Ar
1583 1583 1 0.0 1233.8946731199921 633.7395038150382 1109.2367741125597 # Ar
1584 1584 1 0.0 1189.1471774614322 525.4651388566441 29.64910600491998 # Ar
1585 1585 1 0.0 595.7677130450016 316.0702285550491 205.12960629056323 # Ar
1586 1586 1 0.0 156.48552690087024 1264.3477763505014 744.5385189831214 # Ar
1587 1587 1 0.0 544.394425324404 323.87742574023076 792.2576868351781 # Ar
1588 1588 1 0.0 101.48328444296851 895.539388600028 58.35393612325512 # Ar
1589 1589 1 0.0 600.528559528752 990.3085313935644 400.64100536466384 # Ar
1590 1590 1 0.0 1323.8190522403142 1279.0456475339745 511.6771733294159 # Ar
1591 1591 1 0.0 468.28752702299624 598.8076455123221 1103.080792124348 # Ar
1592 1592 1 0.0 1268.9957298753504 768.9692308725457 345.0870433065713 # Ar
1593 1593 1 0.0 1178.8587104570395 587.0927119626928 4.539636130168976 # Ar
1594 1594 1 0.0 310.4575977728497 1160.6360368622088 726.6396927721453 # Ar
1595 1595 1 0.0 476.51607449558935 307.22545757725516 991.3057377511718 # Ar
1596 1596 1 0.0 775.0753444230724 475.9865333053982 1005.7853584884117 # Ar
1597 1597 1 0.0 327.44907188575695 1244.847614575789 522.1313682216035 # Ar
1598 1598 1 0.0 1033.731496253934 800.3522285399547 972.1040870198754 # Ar
1599 1599 1 0.0 661.9701253897488 549.2416035467375 280.7268989045898 # Ar
1600 1600 1 0.0 919.4555836552844 1339.2038714264688 688.9675332327989 # Ar
1601 1601 1 0.0 512.5043884782019 1078.9625632958912 206.7586253444257 # Ar
1602 1602 1 0.0 903.5933436683738 1109.9524690827745 963.3394765591818 # Ar
1603 1603 1 0.0 16.781913766837583 209.65948193106166 602.6486349284098 # Ar
1604 1604 1 0.0 181.55336795613684 202.9349170704911 981.8371465722315 # Ar
1605 1605 1 0.0 15.563970791051263 744.1514507764475 746.9845182199952 # Ar
1606 1606 1 0.0 515.0876835118075 235.98605480839007 520.7016243728573 # Ar
1607 1607 1 0.0 235.52589550451145 862.4717501782129 415.7106113137111 # Ar
1608 1608 1 0.0 149.05597858312183 272.3529142517561 822.6563632798951 # Ar
1609 1609 1 0.0 603.2200842554267 566.7800865711456 878.4225512986948 # Ar
1610 1610 1 0.0 311.77623023539803 516.766874335864 454.4148141923731 # Ar
1611 1611 1 0.0 1058.1533134836093 1053.6666152271107 1017.8509184518709 # Ar
1612 1612 1 0.0 699.4021838997635 207.94558234991365 394.9591765167545 # Ar
1613 1613 1 0.0 901.2098179395961 1054.5665972345832 353.5951824037056 # Ar
1614 1614 1 0.0 47.49406220899327 45.62921018584761 714.5063611437565 # Ar
1615 1615 1 0.0 971.3535923565444 1035.0865011730352 1170.3144560840742 # Ar
1616 1616 1 0.0 975.3901269040207 123.24806267485548 808.0344102658132 # Ar
1617 1617 1 0.0 117.46071288327269 1316.0006883915162 45.041711903955296 # Ar
1618 1618 1 0.0 772.8555812980235 435.0249474901152 75.25138816995742 # Ar
1619 1619 1 0.0 166.36465575237 298.2168823049948 1342.8528354829114 # Ar
1620 1620 1 0.0 1042.450357650523 425.1219494155202 1109.4469571634845 # Ar
1621 1621 1 0.0 884.4841087942231 1086.2239562129332 743.3019879987813 # Ar
1622 1622 1 0.0 1347.1411180071455 455.3854264663 271.76202791016993 # Ar
1623 1623 1 0.0 1308.1363115987906 96.17894829767984 1177.1376489224667 # Ar
1624 1624 1 0.0 281.07699135496074 640.2219075984891 747.6325327951671 # Ar
1625 1625 1 0.0 666.818071371024 368.6837836778114 114.339111247191 # Ar
1626 1626 1 0.0 767.9938566194575 663.655803928892 576.2437037204975 # Ar
1627 1627 1 0.0 1158.916526249289 1339.9678083766441 416.14232939629073 # Ar
1628 1628 1 0.0 830.4758921154612 352.68374647201404 285.6717428619336 # Ar
1629 1629 1 0.0 947.2211632684119 627.7459334547937 1143.4827551302262 # Ar
1630 1630 1 0.0 955.9052910070292 1237.8195073978402 617.3575397598705 # Ar
1631 1631 1 0.0 96.89714753432237 543.3802468219269 578.6430129482073 # Ar
1632 1632 1 0.0 252.36821291784523 1199.275704849368 63.685259804611775 # Ar
1633 1633 1 0.0 143.46924412405562 1302.2654454483272 856.8325967479652 # Ar
1634 1634 1 0.0 711.0433444650276 1239.713939217833 831.8775243489716 # Ar
1635 1635 1 0.0 937.7963759728813 1099.9290625251374 124.24165107463686 # Ar
1636 1636 1 0.0 1334.5891829169843 196.27120276568328 770.1393018761337 # Ar
1637 1637 1 0.0 426.4961818924307 905.0598371553599 891.2409182106529 # Ar
1638 1638 1 0.0 1189.8890913293708 1100.9573489743339 379.36015714947854 # Ar
1639 1639 1 0.0 438.61204811627573 1059.0808890714927 921.6131302099068 # Ar
1640 1640 1 0.0 998.8626857425339 3.9369828505045135 201.197422915218 # Ar
1641 1641 1 0.0 1157.556824731507 352.4768299940503 975.097077650935 # Ar
1642 1642 1 0.0 995.6685193171386 1101.39309508784 427.0719094115001 # Ar
1643 1643 1 0.0 761.4726383879176 347.4347133758695 1252.0323320993966 # Ar
1644 1644 1 0.0 611.7642796510373 240.90927502899723 281.68813414302497 # Ar
1645 1645 1 0.0 214.5646698962725 1029.7163543667914 1065.2649057110036 # Ar
1646 1646 1 0.0 555.5478350373617 173.20248475378142 1058.5174083686366 # Ar
1647 1647 1 0.0 1343.5432669905254 483.8119968492564 1207.535091294417 # Ar
1648 1648 1 0.0 582.7916514251543 424.82496440287554 1199.4020121374836 # Ar
1649 1649 1 0.0 1209.5948026810104 717.813038323914 129.68226130499528 # Ar
1650 1650 1 0.0 1098.9784298504235 465.88460136313694 872.1928046146556 # Ar
1651 1651 1 0.0 1143.6700527822775 494.024681659659 841.1526700956538 # Ar
1652 1652 1 0.0 521.4492129142923 481.4388389818028 1281.3037011162382 # Ar
1653 1653 1 0.0 1267.471370949372 466.3549014613826 429.68195465681106 # Ar
1654 1654 1 0.0 328.2494597379781 626.3681173135833 31.321026119905945 # Ar
1655 1655 1 0.0 306.9719523542049 1064.4614975557813 982.2024279288757 # Ar
1656 1656 1 0.0 1248.8543357708427 471.2220218975116 1301.8967534373019 # Ar
1657 1657 1 0.0 1028.1101715026016 873.6796668606381 711.3691370123285 # Ar
1658 1658 1 0.0 637.3857974463682 1191.9808417170532 593.056545957734 # Ar
1659 1659 1 0.0 540.3301837326094 701.972686361689 263.4954475623848 # Ar
1660 1660 1 0.0 1299.0699800126715 84.8426318311652 247.36905473175088 # Ar
1661 1661 1 0.0 885.9881591772431 190.550031767904 109.4120359229223 # Ar
1662 1662 1 0.0 705.1354894938814 714.0189908010623 1056.705006748454 # Ar
1663 1663 1 0.0 985.8822562992135 1164.4683479305518 59.338673006725166 # Ar
1664 1664 1 0.0 1308.157638313725 930.499898320941 447.56740955078106 # Ar
1665 1665 1 0.0 1290.3846925121015 1121.9313889631771 936.036551187618 # Ar
1666 1666 1 0.0 1053.7034711389463 1026.6875553632071 988.2529346332626 # Ar
1667 1667 1 0.0 1137.5805620900599 1039.6735359300183 1179.3269473357332 # Ar
1668 1668 1 0.0 222.87360165254188 1016.509830187501 1195.9228797093776 # Ar
1669 1669 1 0.0 194.92067630279138 607.8511927391589 1333.3622421896212 # Ar
1670 1670 1 0.0 1307.7880570605837 102.52532100324191 1137.2064016186694 # Ar
1671 1671 1 0.0 801.5868917777666 500.7260596933317 895.8906996490222 # Ar
1672 1672 1 0.0 902.465688798739 755.6066245836809 21.000038844028712 # Ar
1673 1673 1 0.0 327.9598095411886 1049.0638232029091 1049.5134170960544 # Ar
1674 1674 1 0.0 1180.2377686924733 24.549583481015485 1030.8924673475863 # Ar
1675 1675 1 0.0 820.6313233648573 872.0488601373751 1115.7066635070814 # Ar
1676 1676 1 0.0 1280.2610030612477 533.9412892951442 526.1209680245875 # Ar
1677 1677 1 0.0 1022.6796378316486 675.5553869987745 1243.4050719338527 # Ar
1678 1678 1 0.0 484.20762772638057 354.0094208596153 8.211972171834015 # Ar
1679 1679 1 0.0 619.9630225178864 834.2219148287934 701.0037854044238 # Ar
1680 1680 1 0.0 289.1213453469693 625.8487709449699 1118.9554748270548 # Ar
1681 1681 1 0.0 410.1093647800642 1292.176993443543 983.238600650781 # Ar
1682 1682 1 0.0 751.0460793037354 523.0758292839004 539.3213499167994 # Ar
1683 1683 1 0.0 1107.2802068845247 813.5080411959194 1127.3463409352025 # Ar
1684 1684 1 0.0 389.8106762584914 920.9870940970123 1262.5349056737577 # Ar
1685 1685 1 0.0 632.8870537480182 204.37530558458442 281.4393766396034 # Ar
1686 1686 1 0.0 406.9125717837159 362.4592373818241 189.45798627310327 # Ar
1687 1687 1 0.0 993.3293018002541 643.1441920559888 565.504403735709 # Ar
1688 1688 1 0.0 1274.689200681286 587.090067754892 304.9528791698546 # Ar
1689 1689 1 0.0 851.7362726246107 216.8894466461423 328.9036905999664 # Ar
1690 1690 1 0.0 366.07193100623687 100.54916166780865 707.1475723266582 # Ar
1691 1691 1 0.0 315.6840799703633 410.4441259142999 111.35575978075119 # Ar
1692 1692 1 0.0 282.3658804770737 343.3329028878734 915.7236215280002 # Ar
1693 1693 1 0.0 1254.4938399424898 966.191640144643 342.00673771698797 # Ar
1694 1694 1 0.0 1342.3692723004265 235.06596279980386 796.2762328611542 # Ar
1695 1695 1 0.0 936.7324933526163 892.5300305318018 336.494154657427 # Ar
1696 1696 1 0.0 1049.2539983986742 902.652623434132 1039.7252914490307 # Ar
1697 1697 1 0.0 635.3258190312297 1154.0576742435273 415.3055982977343 # Ar
1698 1698 1 0.0 82.10472935965659 887.0327729376635 880.157952352222 # Ar
1699 1699 1 0.0 319.39629483043126 54.567543633341174 441.5265381616065 # Ar
1700 1700 1 0.0 1128.4662314522343 949.0225111149596 1059.5103129687116 # Ar
1701 1701 1 0.0 933.2319790894253 1107.7346414309288 361.64509779671397 # Ar
1702 1702 1 0.0 574.165426418146 1035.9551820567608 1108.3704075912756 # Ar
1703 1703 1 0.0 639.1567311147344 672.8276727135468 543.2935863706178 # Ar
1704 1704 1 0.0 226.64170714571955 1321.408777777466 1074.431289693867 # Ar
1705 1705 1 0.0 74.15067358587267 687.7674834614279 747.4130525626775 # Ar
1706 1706 1 0.0 746.5887442937925 1111.662299260159 1251.7829336362345 # Ar
1707 1707 1 0.0 583.64694927532 606.9925311550003 65.1826144727151 # Ar
1708 1708 1 0.0 1273.261270257253 412.60310801419234 308.9508466120164 # Ar
1709 1709 1 0.0 805.7586086602837 875.9966074761307 1186.4177550468337 # Ar
1710 1710 1 0.0 627.8131661599994 1014.1643251096696 746.038686675251 # Ar
1711 1711 1 0.0 1225.5602005781736 738.5418454099517 645.2293861690086 # Ar
1712 1712 1 0.0 541.281108686754 736.3502264580289 478.6487434174163 # Ar
1713 1713 1 0.0 1129.877636472116 1100.8417004274747 413.7516706156814 # Ar
1714 1714 1 0.0 95.40034562239835 352.66083983663424 192.76603989606585 # Ar
1715 1715 1 0.0 418.0073375847612 467.6177192293442 1152.9407421389237 # Ar
1716 1716 1 0.0 869.198359837274 199.76910667681756 192.40892793318906 # Ar
1717 1717 1 0.0 774.7448974827979 706.2770188835891 394.80408586600396 # Ar
1718 1718 1 0.0 1099.3864691697106 294.1117764262818 218.49412316363328 # Ar
1719 1719 1 0.0 434.79632915932035 521.6104591912301 134.41583092818829 # Ar
1720 1720 1 0.0 1274.9821513149454 1196.5581906301356 378.36878561546354 # Ar
1721 1721 1 0.0 993.0067753355638 821.6484616323426 640.4077397872315 # Ar
1722 1722 1 0.0 792.8839010378023 991.6395315749933 1011.8208383441702 # Ar
1723 1723 1 0.0 989.117713683988 1102.9259224510724 424.42293026552136 # Ar
1724 1724 1 0.0 223.3241237149912 948.0429582893373 1102.0209204001292 # Ar
1725 1725 1 0.0 858.2856003178849 88.98859127136252 292.2733158199153 # Ar
1726 1726 1 0.0 966.7906084916438 35.855453026682675 95.98238122589291 # Ar
1727 1727 1 0.0 1154.5039712107252 467.65290567835746 685.88891257818 # Ar
1728 1728 1 0.0 935.7322630951496 285.92630650669105 732.935514700481 # Ar
1729 1729 1 0.0 72.0897714144879 373.50616023425715 552.6964842729286 # Ar
1730 1730 1 0.0 1155.6169781960423 424.7096509761756 1276.2116491895183 # Ar
1731 1731 1 0.0 140.31262717727589 800.1358361494592 316.24075461515446 # Ar
1732 1732 1 0.0 1121.8194347604776 1207.4717117886023 107.25955759946005 # Ar
1733 1733 1 0.0 341.51946634787475 1054.545711009488 311.5879016754159 # Ar
1734 1734 1 0.0 355.0062787416803 401.1610630522055 166.84550866835187 # Ar
1735 1735 1 0.0 102.9092635653536 1186.7670734841072 197.42901310257818 # Ar
1736 1736 1 0.0 829.1986792936939 382.0242585258597 980.1668214638289 # Ar
1737 1737 1 0.0 695.6333507622802 53.22521460884213 1031.2960188436339 # Ar
1738 1738 1 0.0 268.8207453940834 997.6418656577199 1220.23648911545 # Ar
1739 1739 1 0.0 127.59090753778574 138.93587466441772 1026.5802649696252 # Ar
1740 1740 1 0.0 912.3840244860344 170.96605588167276 1304.5014449926007 # Ar
1741 1741 1 0.0 234.87102072230962 85.9962098653062 356.74220349935956 # Ar
1742 1742 1 0.0 648.7762251654434 1286.9453459504696 99.56144046640412 # Ar
1743 1743 1 0.0 319.7415131783755 512.448678133215 1160.0965891369292 # Ar
1744 1744 1 0.0 1029.2985322777365 1228.6372564350527 422.3486751068543 # Ar
1745 1745 1 0.0 142.68925506040603 879.958792863816 804.8129205121601 # Ar
1746 1746 1 0.0 955.5422776148949 1018.8828305425218 194.8177490457263 # Ar
1747 1747 1 0.0 558.4817655803585 17.289023188548256 1348.295450353788 # Ar
1748 1748 1 0.0 855.3299888623485 1209.628128472651 879.4020466329722 # Ar
1749 1749 1 0.0 649.988627830523 1261.9566887456199 24.1667586584898 # Ar
1750 1750 1 0.0 1175.1841957349025 353.2574723083783 1129.962918356709 # Ar
1751 1751 1 0.0 350.60059430364976 1009.899299487899 329.6386829216544 # Ar
1752 1752 1 0.0 188.52205023537945 1136.8938042047928 1145.8022729802258 # Ar
1753 1753 1 0.0 688.3543636387086 186.5690960327643 1206.2771007472709 # Ar
1754 1754 1 0.0 926.0480725669609 577.8529306630687 50.64844241701211 # Ar
1755 1755 1 0.0 976.485664163742 1098.8777348343679 203.23697232960467 # Ar
1756 1756 1 0.0 1310.2791614879486 406.25836543180816 1156.0916740065786 # Ar
1757 1757 1 0.0 400.84988558346254 245.21258911569376 1096.1420064912008 # Ar
1758 1758 1 0.0 583.3523183516133 972.6807240497725 243.52272023475922 # Ar
1759 1759 1 0.0 539.6946942006158 939.1648961295342 693.9687180424474 # Ar
1760 1760 1 0.0 479.15685541909863 318.9210711695401 759.055465412574 # Ar
1761 1761 1 0.0 275.5074979852235 287.2459108251309 1327.093682075393 # Ar
1762 1762 1 0.0 1114.1487155856662 487.57642362734873 124.9628288300946 # Ar
1763 1763 1 0.0 381.8658163490592 306.41274466182006 1105.880313981787 # Ar
1764 1764 1 0.0 1075.9384288847887 1029.755487669667 1276.9543943780864 # Ar
1765 1765 1 0.0 1077.6003686829306 290.22128648074386 178.74123499969886 # Ar
1766 1766 1 0.0 186.07949013362648 726.8621133038308 658.6323715991686 # Ar
1767 1767 1 0.0 1275.334405372248 184.88969084549896 24.47118076068407 # Ar
1768 1768 1 0.0 1084.6203633299697 613.438868717823 697.9706285795231 # Ar
1769 1769 1 0.0 378.3354837231975 1339.4435853562195 1030.7277341976894 # Ar
1770 1770 1 0.0 558.5559068446673 1057.992783438115 195.66916530458863 # Ar
1771 1771 1 0.0 22.27938078630676 757.4096044844704 987.580249436655 # Ar
1772 1772 1 0.0 404.2081179930225 492.70142636605544 1220.9688984495028 # Ar
1773 1773 1 0.0 553.2630359929656 281.50319349416037 855.0317812268428 # Ar
1774 1774 1 0.0 1084.7467670174392 330.5164239221315 1153.4162893997302 # Ar
1775 1775 1 0.0 572.5998104751254 1043.0229675447545 896.7053490587484 # Ar
1776 1776 1 0.0 149.73110746638605 193.5092773328512 1209.429051451495 # Ar
1777 1777 1 0.0 65.61336648503016 806.5729391766292 813.7720011063919 # Ar
1778 1778 1 0.0 280.7977991869424 170.3477623018984 228.368085731461 # Ar
1779 1779 1 0.0 868.717213856134 285.4582102466401 659.9657099757919 # Ar
1780 1780 1 0.0 1300.9611588117132 681.8098400064403 873.0590517243054 # Ar
1781 1781 1 0.0 1033.947999236849 718.6592683964803 608.3915862328032 # Ar
1782 1782 1 0.0 941.3907273341039 692.70667848039 752.6392644044353 # Ar
1783 1783 1 0.0 586.7814760052048 1066.7130940383781 718.0982616467714 # Ar
1784 1784 1 0.0 775.2279426125009 480.0939132329482 220.98973981786406 # Ar
1785 1785 1 0.0 1268.566831904844 87.79198592003553 469.06211866421205 # Ar
1786 1786 1 0.0 368.4987876794281 730.4931587582618 136.6699998512041 # Ar
1787 1787 1 0.0 1213.6783591979809 406.7984985855323 1122.1342471416785 # Ar
1788 1788 1 0.0 1225.1285867646895 430.78906632011274 833.3604045572129 # Ar
1789 1789 1 0.0 230.83618026260712 474.2504931809231 703.7795130265225 # Ar
1790 1790 1 0.0 933.7147247533584 434.4094514778623 1093.4212429921251 # Ar
1791 1791 1 0.0 853.460771506026 1092.8018006979785 1291.4071330633058 # Ar
1792 1792 1 0.0 127.3402389597724 103.0223903617988 711.1711443858885 # Ar
1793 1793 1 0.0 517.5817857724998 457.41382233189904 220.07459670016846 # Ar
1794 1794 1 0.0 10.113929363390572 1265.016139954308 216.16107863720418 # Ar
1795 1795 1 0.0 677.9233663166876 1088.130522729516 1035.9211859193417 # Ar
1796 1796 1 0.0 512.2422410708664 1005.5309456888489 686.3352485289291 # Ar
1797 1797 1 0.0 282.4179809380452 1004.8400768568258 1308.0233581192376 # Ar
1798 1798 1 0.0 11.608231936892626 1166.0471010613044 330.11319188105097 # Ar
1799 1799 1 0.0 313.29046934955244 216.97243652953807 1098.4816760347717 # Ar
1800 1800 1 0.0 67.21763946427971 1187.6289519595541 1110.9430667771112 # Ar
1801 1801 1 0.0 1214.8080724832064 530.6816519453162 1292.487312997462 # Ar
1802 1802 1 0.0 751.7044447409685 1153.0302090940058 328.6066111890489 # Ar
1803 1803 1 0.0 621.6196103930935 1280.9687605024526 164.5766450705559 # Ar
1804 1804 1 0.0 1044.6081626182272 140.67142959745897 754.3077544902343 # Ar
1805 1805 1 0.0 81.05747217614095 834.9546723331689 699.525222910816 # Ar
1806 1806 1 0.0 780.1250806345498 732.5693969517752 130.1986663197809 # Ar
1807 1807 1 0.0 1145.9368892984733 1266.4247287436795 957.5505226400483 # Ar
1808 1808 1 0.0 1345.8163837940979 1084.6379200866133 1237.746771910467 # Ar
1809 1809 1 0.0 942.032377428453 789.0766379991642 929.5233466028903 # Ar
1810 1810 1 0.0 4.950416726899157 1038.4652959981372 486.3424549309778 # Ar
1811 1811 1 0.0 262.6045917369204 905.9524933426051 394.8823958105223 # Ar
1812 1812 1 0.0 457.15092970562506 127.25983128358094 329.58693726856495 # Ar
1813 1813 1 0.0 296.03603816152906 1020.0560132813126 843.339486491792 # Ar
1814 1814 1 0.0 89.07160666804677 914.2936863539176 1333.6751144986927 # Ar
1815 1815 1 0.0 866.474761704515 377.8033350458656 255.82157321440192 # Ar
1816 1816 1 0.0 1345.1937240691323 1130.741770337471 565.922926671956 # Ar
1817 1817 1 0.0 578.5432449243041 471.47679608619023 270.2321728134338 # Ar
1818 1818 1 0.0 642.7191999241329 852.3858830267014 1235.7551178132383 # Ar
1819 1819 1 0.0 202.42066087297724 1065.4343989982171 233.105209080152 # Ar
1820 1820 1 0.0 508.3227073926284 1257.667814983141 1270.0939035961062 # Ar
1821 1821 1 0.0 1036.5848469270018 936.3614107798654 186.0001892839447 # Ar
1822 1822 1 0.0 316.644802151345 886.6093997717263 1054.7783353223583 # Ar
1823 1823 1 0.0 527.4847088609724 91.01529853497881 386.2955027451777 # Ar
1824 1824 1 0.0 888.3208127766446 1063.1693980639752 738.4561851258542 # Ar
1825 1825 1 0.0 35.226999479628965 857.9042207971114 43.97435902718302 # Ar
1826 1826 1 0.0 533.4273385630306 908.0952943102709 968.1013957827824 # Ar
1827 1827 1 0.0 964.3668488789368 1277.2144746224178 1323.9925543833513 # Ar
1828 1828 1 0.0 109.15651273716851 263.99323332918857 575.1574201295329 # Ar
1829 1829 1 0.0 893.3231816162371 1117.4219473723986 1203.2690908084794 # Ar
1830 1830 1 0.0 1078.3781455920034 1107.9542461795895 154.3792372213703 # Ar
1831 1831 1 0.0 384.7235704776397 670.4553364156529 342.248716890282 # Ar
1832 1832 1 0.0 1129.3051219048873 894.8029272243047 177.10527297926546 # Ar
1833 1833 1 0.0 58.7122073909296 715.5948319241595 5.999535043171983 # Ar
1834 1834 1 0.0 830.7462766963935 1248.5515265636275 1176.7882089287032 # Ar
1835 1835 1 0.0 113.66603034823066 658.5697495603847 986.8980786613228 # Ar
1836 1836 1 0.0 471.59951790842223 1031.4766028334163 630.7121780099133 # Ar
1837 1837 1 0.0 1079.939452786362 884.2676163131288 537.5725396680035 # Ar
1838 1838 1 0.0 254.31964980680652 506.4714063546333 631.8182750835737 # Ar
1839 1839 1 0.0 499.72167728646104 697.2380585126857 681.2194359944912 # Ar
1840 1840 1 0.0 57.770745871680646 331.74658257445316 628.002740899325 # Ar
1841 1841 1 0.0 846.1667441891664 244.50358822731673 1240.1324718418368 # Ar
1842 1842 1 0.0 584.1006600085552 1172.7955180450713 1320.1775850586366 # Ar
1843 1843 1 0.0 1038.3169141938356 45.91097380867012 1050.4395518995402 # Ar
1844 1844 1 0.0 1037.440550583366 38.111361025746 156.37407813349353 # Ar
1845 1845 1 0.0 732.2373700693927 357.56054845685395 1121.4430149578059 # Ar
1846 1846 1 0.0 361.04486224436783 635.9047895891083 432.3788161767171 # Ar
1847 1847 1 0.0 87.95276352008055 648.6522141043663 898.2783041420521 # Ar
1848 1848 1 0.0 1291.789302621837 45.04107154086388 649.950571811324 # Ar
1849 1849 1 0.0 494.4405126442393 1039.0971823640687 1205.9922608411518 # Ar
1850 1850 1 0.0 1223.9013498375505 615.2967339968734 1228.486677224841 # Ar
1851 1851 1 0.0 1057.1118688974254 318.97442863796994 430.00671884725466 # Ar
1852 1852 1 0.0 427.50643087647234 1216.4672854302892 501.93901705668566 # Ar
1853 1853 1 0.0 812.4282951583343 157.2879410503823 168.9366180679755 # Ar
1854 1854 1 0.0 1105.6150802148052 183.23463821048927 109.03457908532461 # Ar
1855 1855 1 0.0 86.91168489152466 375.38916242448977 463.03235253091935 # Ar
1856 1856 1 0.0 162.64542328044087 738.8058957695742 899.0387219221137 # Ar
1857 1857 1 0.0 518.5962325191808 429.9635652685432 776.1700206157002 # Ar
1858 1858 1 0.0 938.296375971947 1061.1299976977034 608.8786562254062 # Ar
1859 1859 1 0.0 80.69956647438333 623.1420365737894 361.40474824890407 # Ar
1860 1860 1 0.0 1165.0018703017874 1210.7391211941037 61.964285004470256 # Ar
1861 1861 1 0.0 744.6766497978107 1020.591027215231 1010.6566707455065 # Ar
1862 1862 1 0.0 975.1786088662946 826.9812974024771 65.4736020483295 # Ar
1863 1863 1 0.0 1339.9633043196768 913.6094626548305 1044.872337351554 # Ar
1864 1864 1 0.0 1219.0447504009474 409.8127303335678 824.8495465324905 # Ar
1865 1865 1 0.0 641.3592731323972 1144.492408400406 809.1168912100285 # Ar
1866 1866 1 0.0 985.5030010444312 688.3916363034148 323.51337547489175 # Ar
1867 1867 1 0.0 404.6766756145757 1135.033016041873 940.6179585660622 # Ar
1868 1868 1 0.0 76.76962680546613 1013.8518224020214 1190.4968006269364 # Ar
1869 1869 1 0.0 515.7122660080356 1222.3117829398798 253.63417938402026 # Ar
1870 1870 1 0.0 234.3317769762119 961.8762517928747 791.7968351692983 # Ar
1871 1871 1 0.0 1246.6282593282172 1318.219651015763 540.0285461944547 # Ar
1872 1872 1 0.0 1130.7951486676372 264.95571446784254 1075.6857918455514 # Ar
1873 1873 1 0.0 503.0510472801322 177.79591541688308 1224.2294256560153 # Ar
1874 1874 1 0.0 1028.7794778426603 490.3739012596687 289.1708693219767 # Ar
1875 1875 1 0.0 1112.791809976662 1063.9500396203343 414.5896924294593 # Ar
1876 1876 1 0.0 830.4334909672341 55.567976310484745 1334.4576967249359 # Ar
1877 1877 1 0.0 73.70770991735847 856.9516351219211 560.5964380430664 # Ar
1878 1878 1 0.0 907.6285526921428 300.4120475558189 398.7937962406885 # Ar
1879 1879 1 0.0 17.312377452846867 919.5379179168111 1308.6625653567992 # Ar
1880 1880 1 0.0 669.0226687254501 381.5975758616199 519.7631771418298 # Ar
1881 1881 1 0.0 842.1828647654686 1081.0734531608668 397.65989715864384 # Ar
1882 1882 1 0.0 661.1320495405265 360.3980298766779 879.6759526858759 # Ar
1883 1883 1 0.0 129.9298900572757 1099.1946171880957 716.6202397601336 # Ar
1884 1884 1 0.0 589.2395924373116 1089.872757812185 226.5843726933666 # Ar
1885 1885 1 0.0 749.2690945373789 521.5797205633577 32.795258213608804 # Ar
1886 1886 1 0.0 1031.4539586334718 227.5401160094879 724.7054223817914 # Ar
1887 1887 1 0.0 726.0685962306978 49.14613104083134 589.5953982853173 # Ar
1888 1888 1 0.0 890.8621163229226 184.56045162129234 1028.6023596917298 # Ar
1889 1889 1 0.0 281.1460214629638 937.3186743768346 7.988976663116686 # Ar
1890 1890 1 0.0 1058.604624183706 1071.844654587343 1066.3730134581283 # Ar
1891 1891 1 0.0 260.6066883448847 477.3952100785171 60.299123595211604 # Ar
1892 1892 1 0.0 486.1118317731848 1150.7329556696438 647.5013649270752 # Ar
1893 1893 1 0.0 263.84708076689816 356.10156410056607 784.7652969346892 # Ar
1894 1894 1 0.0 877.9490631345437 462.7426570773156 680.0431903222952 # Ar
1895 1895 1 0.0 1006.9273929927194 360.619864614421 573.2632520283233 # Ar
1896 1896 1 0.0 1116.5035655569802 757.8088547188526 263.89671364532524 # Ar
1897 1897 1 0.0 605.4501019220144 1193.8161100679024 181.95567006679858 # Ar
1898 1898 1 0.0 1101.5775903845663 789.7475982928275 469.1288934599014 # Ar
1899 1899 1 0.0 1310.364765234442 74.26027069288038 281.4234282574366 # Ar
1900 1900 1 0.0 1093.0083228259248 500.79905383399444 1228.8747488649105 # Ar
1901 1901 1 0.0 354.4125443467928 376.92303237585173 819.4606606570435 # Ar
1902 1902 1 0.0 690.8297297751163 17.22609542125429 1092.1653575986745 # Ar
1903 1903 1 0.0 627.6822847740104 411.55708389557503 360.1935339286126 # Ar
1904 1904 1 0.0 23.078265748349583 996.4097955720757 392.46303566637107 # Ar
1905 1905 1 0.0 699.3077772613196 1005.4084394926715 846.2475239729215 # Ar
1906 1906 1 0.0 1031.8725181180794 1249.7908075795865 592.0718191232218 # Ar
1907 1907 1 0.0 9.70437170142207 150.86486980601268 258.5277398234318 # Ar
1908 1908 1 0.0 174.36300095626217 723.3031041032184 1118.3763829527597 # Ar
1909 1909 1 0.0 1014.6120228430897 429.47694102312886 20.281578035282813 # Ar
1910 1910 1 0.0 330.5973409595726 756.7838720772759 1010.6408044156874 # Ar
1911 1911 1 0.0 504.7378134917966 566.9672543151942 814.9038711606509 # Ar
1912 1912 1 0.0 1121.1691793670902 50.87541071400901 1236.263649066513 # Ar
1913 1913 1 0.0 705.0056413216578 117.97862791082089 1018.9742289140748 # Ar
1914 1914 1 0.0 963.425006060374 786.1422243927768 992.4160163825054 # Ar
1915 1915 1 0.0 802.4323279196237 1325.129149854877 142.98833702833167 # Ar
1916 1916 1 0.0 326.34823958090163 380.4688673539777 1234.4126441000922 # Ar
1917 1917 1 0.0 692.8226338446004 1186.8266955077927 120.67673746664951 # Ar
1918 1918 1 0.0 243.2765958861809 1341.7113407821232 959.7146845738087 # Ar
1919 1919 1 0.0 1229.2577466278308 1036.447647884259 24.930438844209252 # Ar
1920 1920 1 0.0 1184.4461766927914 4.401669564055494 1282.2128764137592 # Ar
1921 1921 1 0.0 1317.7758369521885 78.97455374267554 1089.554595319487 # Ar
1922 1922 1 0.0 490.3818206908285 697.4088862071288 413.7462546429747 # Ar
1923 1923 1 0.0 1226.3788095616244 1100.9739547499134 711.2635574186545 # Ar
1924 1924 1 0.0 227.67207878353537 720.27597831244 756.3528832268429 # Ar
1925 1925 1 0.0 510.8563942973967 38.86719874200266 556.3578483472794 # Ar
1926 1926 1 0.0 169.07273077390468 1273.2867859783923 104.03997802956638 # Ar
1927 1927 1 0.0 1267.2343109265391 123.94763485258653 525.9316179628973 # Ar
1928 1928 1 0.0 661.3692587916241 460.1450736033223 1202.1771157385872 # Ar
1929 1929 1 0.0 113.29511016430497 1139.0056538521453 1021.9787495135935 # Ar
1930 1930 1 0.0 1296.3828580336017 736.5074196825401 643.7069302868838 # Ar
1931 1931 1 0.0 592.7506224219943 1132.1597677199218 271.15988423852696 # Ar
1932 1932 1 0.0 729.8848656537455 144.38390986741504 112.77135396357227 # Ar
1933 1933 1 0.0 820.7291085192169 1124.3212481904047 304.6505227026078 # Ar
1934 1934 1 0.0 556.4726540179514 1282.0034667351356 441.33210692143655 # Ar
1935 1935 1 0.0 791.7654579721337 1139.9235538469543 721.5218689686831 # Ar
1936 1936 1 0.0 879.1240377588431 367.1157761666814 887.4671875405423 # Ar
1937 1937 1 0.0 478.11694578770835 1293.6096712425224 1114.921596162842 # Ar
1938 1938 1 0.0 1130.817328135731 989.5268513725591 542.1043086445096 # Ar
1939 1939 1 0.0 1336.8274129937793 187.11202844579688 419.2110701221983 # Ar
1940 1940 1 0.0 1099.341844847754 1205.3118434444998 755.2379697619372 # Ar
1941 1941 1 0.0 346.78058613056527 250.33172382563356 444.15012532913886 # Ar
1942 1942 1 0.0 1018.0874680062543 500.6475454673875 468.8254194873297 # Ar
1943 1943 1 0.0 1106.3739170954768 894.2552263217078 860.0806586528241 # Ar
1944 1944 1 0.0 885.261604130751 1225.8133070716635 904.1031605822827 # Ar
1945 1945 1 0.0 287.58954538009226 1071.1036312337533 658.612342663197 # Ar
1946 1946 1 0.0 988.2924737314922 246.48127114134454 490.2089677170068 # Ar
1947 1947 1 0.0 1208.523137507651 733.3048246200324 445.1395103272926 # Ar
1948 1948 1 0.0 133.17183113906523 660.7081089517293 590.6135524802746 # Ar
1949 1949 1 0.0 720.189152442263 45.05287376275037 699.3155260350848 # Ar
1950 1950 1 0.0 175.10557870287906 86.26991763633639 1024.6374908406056 # Ar
1951 1951 1 0.0 938.8046487951684 1175.906118565123 462.8410537934672 # Ar
1952 1952 1 0.0 1173.2437594780658 365.0603119929126 1085.795329240852 # Ar
1953 1953 1 0.0 945.5761609403604 555.7940495873648 980.447530398509 # Ar
1954 1954 1 0.0 414.2872718586867 999.0477074251733 41.21494612549051 # Ar
1955 1955 1 0.0 1153.9712890273229 1055.423036973626 687.8517406172774 # Ar
1956 1956 1 0.0 767.6091937385559 1227.6451333912148 199.40870711571787 # Ar
1957 1957 1 0.0 716.6565431087167 1131.3564039163623 70.0288092847455 # Ar
1958 1958 1 0.0 1335.2018186121231 1345.3648803115086 26.06978316613957 # Ar
1959 1959 1 0.0 1083.5442156852362 123.92398677799976 1311.7623165092461 # Ar
1960 1960 1 0.0 44.23345412009431 593.0431377899238 813.8529349517142 # Ar
1961 1961 1 0.0 767.6333279287089 1045.2683726364962 1324.9840692652017 # Ar
1962 1962 1 0.0 96.69174633320088 556.7830814418894 974.6763690043771 # Ar
1963 1963 1 0.0 402.0214890645499 304.12297525875084 639.4716980128388 # Ar
1964 1964 1 0.0 792.8324211801292 1274.3644545171276 970.7977430930823 # Ar
1965 1965 1 0.0 613.575614787226 1286.08612939203 1239.3898002187616 # Ar
1966 1966 1 0.0 406.3441764192309 1131.3983722614573 907.9352812106728 # Ar
1967 1967 1 0.0 531.9234189888381 1233.2024243605051 397.14923577598995 # Ar
1968 1968 1 0.0 1196.842100433117 638.9622690164837 205.46476298327354 # Ar
1969 1969 1 0.0 1118.2832144111042 1139.8320226079275 1245.1964750776192 # Ar
1970 1970 1 0.0 1287.8036260501588 864.5248775589195 965.7447525796167 # Ar
1971 1971 1 0.0 1219.1875946764783 677.0808352879943 561.085272029228 # Ar
1972 1972 1 0.0 44.74924589614627 916.3777594139128 1092.8602678498685 # Ar
1973 1973 1 0.0 259.46455826038374 105.09660552671993 734.011700372968 # Ar
1974 1974 1 0.0 280.7497684799702 823.6337145915597 1050.6419085375487 # Ar
1975 1975 1 0.0 1066.8711178519884 327.0906555857709 735.8695642719802 # Ar
1976 1976 1 0.0 1330.3746899465455 1221.4832602264376 655.0938215238342 # Ar
1977 1977 1 0.0 819.392004894284 130.61946083654178 535.9199212319792 # Ar
1978 1978 1 0.0 1131.4558169524105 44.19645361524905 932.0339004206946 # Ar
1979 1979 1 0.0 1010.1379342543239 235.64979680302642 681.8235667196885 # Ar
1980 1980 1 0.0 536.3524605268127 1215.2181450953253 801.9970841908832 # Ar
1981 1981 1 0.0 934.8646301972282 1283.7409011712691 783.8153971594447 # Ar
1982 1982 1 0.0 178.16438484557403 686.3874273260283 1138.4514005996318 # Ar
1983 1983 1 0.0 677.4306563723679 541.9823748584096 689.391922200984 # Ar
1984 1984 1 0.0 1047.2009511547376 1008.943594303766 356.137639644971 # Ar
1985 1985 1 0.0 522.2833667154999 573.697088976452 637.7488043288778 # Ar
1986 1986 1 0.0 1206.4769745183683 1196.2398530044945 218.22610167103642 # Ar
1987 1987 1 0.0 842.8732640304839 62.8150625690799 761.2773195652869 # Ar
1988 1988 1 0.0 105.30909125852803 1314.0477027602708 604.8648185114286 # Ar
1989 1989 1 0.0 702.8003470123743 307.596436972058 1274.0078309090527 # Ar
1990 1990 1 0.0 1170.1583472318705 890.463788077562 290.32957746483044 # Ar
1991 1991 1 0.0 494.02519275904643 907.5650487541844 1125.4871412216314 # Ar
1992 1992 1 0.0 1197.9238795273384 972.1729802072551 620.9371528540298 # Ar
1993 1993 1 0.0 412.7976057614381 1045.9454647778584 541.2461251104637 # Ar
1994 1994 1 0.0 262.94633218839704 368.23142051602167 712.3607705612328 # Ar
1995 1995 1 0.0 793.3428909072852 345.5699036738734 626.4641492669024 # Ar
1996 1996 1 0.0 993.6970254198026 376.232200303391 668.730365648981 # Ar
1997 1997 1 0.0 796.8021517696376 185.93915575056482 1045.6131962810066 # Ar
1998 1998 1 0.0 872.7706597524076 159.65362759516992 842.1012585604884 # Ar
1999 1999 1 0.0 484.6693657015006 322.2422703853048 194.2650210870612 # Ar
2000 2000 1 0.0 205.67325505083053 603.2829830646729 928.6107591361135 # Ar
