LAMMPS data file -- atom_style full -- generated by chemfiles
2000 atoms
0 bonds
0 angles
0 dihedrals
0 impropers
1 atom types
0 bond types
0 angle types
0 dihedral types
0 improper types
0.00000000 648.334136 xlo xhi
0.00000000 648.334136 ylo yhi
0.00000000 648.334136 zlo zhi

# Pair Coeffs
# 1 Ar

Masses

1 39.948 # Ar

Atoms # full

1 1 1 0.0 336.2729031582327 221.88177851947873 521.237873770724 # Ar
2 2 1 0.0 137.42050141333672 348.1529163903408 315.10102829946476 # Ar
3 3 1 0.0 351.8560986264232 534.7140455693253 337.6340451729743 # Ar
4 4 1 0.0 518.1195799063947 357.8740179268888 466.2852903526869 # Ar
5 5 1 0.0 632.8226057245162 369.48875728975673 51.931336436843544 # Ar
6 6 1 0.0 318.86746102350475 280.1771328872011 564.9258393818519 # Ar
7 7 1 0.0 350.8141722399303 315.2720060378108 474.6841477659468 # Ar
8 8 1 0.0 579.4363816371558 143.05767837835967 251.82405892421122 # Ar
9 9 1 0.0 533.0787029639177 572.6672150753071 398.8227940110718 # Ar
10 10 1 0.0 373.72862846724416 526.9018536930298 436.9811651807882 # Ar
11 11 1 0.0 120.90141517566273 369.821872692678 550.0267582053302 # Ar
12 12 1 0.0 121.19823720794945 49.29544593932666 343.2796317373984 # Ar
13 13 1 0.0 420.47155705503496 347.76986794449596 76.32015796424639 # Ar
14 14 1 0.0 76.89255079284459 520.9849174553975 454.92612578881983 # Ar
15 15 1 0.0 318.5887034590076 91.02452795898314 55.163036683056845 # Ar
16 16 1 0.0 317.74599381417346 272.3569672662109 72.86943123754521 # Ar
17 17 1 0.0 378.42722522152735 414.6199004027495 144.65091415222938 # Ar
18 18 1 0.0 76.59104948231727 537.7718766758402 625.6677845244147 # Ar
19 19 1 0.0 55.67219839726099 174.8973724106055 96.65825187772093 # Ar
20 20 1 0.0 119.8610580637927 258.59096193286587 511.0614274823232 # Ar
21 21 1 0.0 618.0524023155633 310.09433353260056 279.22323272476774 # Ar
22 22 1 0.0 347.65452857366256 423.99734429127625 76.67591781588371 # Ar
23 23 1 0.0 316.28144899622805 336.7473972491847 233.71213789208883 # Ar
24 24 1 0.0 256.9183337759248 594.8409027548344 558.582596014256 # Ar
25 25 1 0.0 343.8293644243707 29.633194545472936 570.7128502564425 # Ar
26 26 1 0.0 39.92467331579525 73.0437275068111 217.1984124223495 # Ar
27 27 1 0.0 339.6404944392145 50.70489227826976 475.64608578803205 # Ar
28 28 1 0.0 70.80111154590652 569.5655963341676 515.8175994158249 # Ar
29 29 1 0.0 135.46412095097895 64.6861376861975 607.0617930401235 # Ar
30 30 1 0.0 50.25155021333334 404.35294665369554 147.79123622543582 # Ar
31 31 1 0.0 382.8521845773927 232.02490873921874 177.56400229492598 # Ar
32 32 1 0.0 435.2300936977494 348.04953141835216 208.3051420702137 # Ar
33 33 1 0.0 43.06420988729015 45.77742536676066 452.9526822269132 # Ar
34 34 1 0.0 529.2350547218718 116.94059533730281 18.316463484019753 # Ar
35 35 1 0.0 305.2434020815909 531.9570209310938 461.5568216667614 # Ar
36 36 1 0.0 545.5032855632636 33.23292221384776 14.060810195069507 # Ar
37 37 1 0.0 278.1011449923799 215.34050976279485 153.10601442825742 # Ar
38 38 1 0.0 221.4827090245493 270.2153485885986 384.31540489697994 # Ar
39 39 1 0.0 283.69430426211005 197.99728064492413 100.90288293422508 # Ar
40 40 1 0.0 218.05282199657546 531.95227911608 380.93721790005867 # Ar
41 41 1 0.0 344.87348437160006 50.16642568620252 213.66659920917752 # Ar
42 42 1 0.0 81.51097271902464 229.0130225408951 115.74294907256503 # Ar
43 43 1 0.0 316.8026116691436 198.78000251761253 534.6606711775494 # Ar
44 44 1 0.0 144.37675316177874 492.55846318804385 468.0729260417713 # Ar
45 45 1 0.0 644.2763148157592 225.32113714516512 289.7564964388417 # Ar
46 46 1 0.0 179.4401954213455 263.4350180982003 579.4363343052665 # Ar
47 47 1 0.0 77.34998993235727 550.4309642962681 70.51326839052274 # Ar
48 48 1 0.0 463.14869117310684 345.27722621179015 480.6226457280769 # Ar
49 49 1 0.0 132.08329930754635 83.9496877194948 113.05805866178567 # Ar
50 50 1 0.0 472.65113053039755 370.46332650259046 454.64770163393814 # Ar
51 51 1 0.0 503.9166469257168 586.9642160701055 324.0946617586997 # Ar
52 52 1 0.0 636.0235190736935 618.7714165686248 436.8405258831664 # Ar
53 53 1 0.0 517.27830899429 151.02686545152298 449.0627963695049 # Ar
54 54 1 0.0 185.210318825428 123.97363225598902 253.23577121464058 # Ar
55 55 1 0.0 3.70080831126361 501.393874735427 373.46887984442105 # Ar
56 56 1 0.0 292.29223709209697 47.15887249368585 30.786393743545407 # Ar
57 57 1 0.0 83.92931843076029 65.38631123730914 379.58628001064557 # Ar
58 58 1 0.0 252.79236685873977 71.62130524864658 320.9714024019974 # Ar
59 59 1 0.0 68.91456999630567 485.2053540093303 74.70714371000439 # Ar
60 60 1 0.0 207.56590529993656 216.8310033675459 633.2361222205102 # Ar
61 61 1 0.0 362.37767011622753 574.7200649283724 366.3341462066643 # Ar
62 62 1 0.0 307.79330541957285 333.1076573200498 406.54539994338285 # Ar
63 63 1 0.0 467.0795849665818 637.0230701078584 557.5571856245629 # Ar
64 64 1 0.0 504.9083818168778 152.90863427928824 324.62982280712936 # Ar
65 65 1 0.0 211.5302856931598 212.84662437258584 176.7518416524579 # Ar
66 66 1 0.0 309.21006019732124 582.2324951519319 165.44470941800267 # Ar
67 67 1 0.0 99.87107660691503 594.4188008456485 504.5237381581581 # Ar
68 68 1 0.0 517.0446610691123 127.67379206094344 446.94258022276296 # Ar
69 69 1 0.0 102.0201308487618 403.1088904582016 307.3493818795755 # Ar
70 70 1 0.0 81.16326435196274 84.1602549744926 192.42041570943422 # Ar
71 71 1 0.0 181.42960265280217 594.4623656896973 150.87683246247144 # Ar
72 72 1 0.0 577.8149279347473 585.7286360530419 30.110397545864963 # Ar
73 73 1 0.0 178.94890711715664 475.0772052136476 315.6568892804943 # Ar
74 74 1 0.0 149.50262121176328 1.7831050962521462 413.90483978324914 # Ar
75 75 1 0.0 409.55932982456346 507.033219107769 619.0669927435708 # Ar
76 76 1 0.0 323.2856635035638 217.19444111449639 632.8867342832995 # Ar
77 77 1 0.0 621.8663932680106 417.92881876531135 602.403443732356 # Ar
78 78 1 0.0 573.6593572038805 495.2407735628592 319.00343756529065 # Ar
79 79 1 0.0 239.89518601212416 438.6499423542673 195.4356871119866 # Ar
80 80 1 0.0 224.45519095712848 506.0446658620368 70.87845782747549 # Ar
81 81 1 0.0 154.44991502510553 567.6362198495133 376.18617059496887 # Ar
82 82 1 0.0 202.20728152218953 230.0034404907884 159.3465244566634 # Ar
83 83 1 0.0 123.45291754061638 193.88413064737816 268.55638176135983 # Ar
84 84 1 0.0 365.21042899537304 370.1082159930799 16.717937379282493 # Ar
85 85 1 0.0 597.5542452471727 95.2216345728519 121.91822617623552 # Ar
86 86 1 0.0 133.9514485922342 529.745691684385 5.257627100371372 # Ar
87 87 1 0.0 100.6558790053918 210.99263977226548 469.49011373999446 # Ar
88 88 1 0.0 139.66884601005492 408.0434642148867 521.7251706940873 # Ar
89 89 1 0.0 49.65766005087877 235.20396230986216 646.5071476056197 # Ar
90 90 1 0.0 133.74262219754098 132.2711189652931 92.5695982046307 # Ar
91 91 1 0.0 336.7582060585233 26.245808011066107 403.2222702120254 # Ar
92 92 1 0.0 571.574719137558 628.5781526085298 263.2890069549905 # Ar
93 93 1 0.0 229.81642382089345 474.6590182468037 439.2105769851065 # Ar
94 94 1 0.0 242.34750248235665 163.7716354108227 526.0208803441452 # Ar
95 95 1 0.0 645.4455146360425 477.09953521949575 92.48881773960203 # Ar
96 96 1 0.0 628.726740649366 286.97313004630155 635.180564289164 # Ar
97 97 1 0.0 80.54709879374504 484.16656677677406 90.45498755218892 # Ar
98 98 1 0.0 4.196328378299815 310.8642614612023 426.2962505189453 # Ar
99 99 1 0.0 350.7127222893482 77.2537496049414 645.2085362739956 # Ar
100 100 1 0.0 23.359134917837896 187.92313494143693 211.34455625478196 # Ar
101 101 1 0.0 499.23319921567156 626.652223117777 440.50142060599603 # Ar
102 102 1 0.0 9.711000782284707 341.68811942511553 607.1318631282983 # Ar
103 103 1 0.0 35.25199415156983 272.93472923637296 415.01588595988204 # Ar
104 104 1 0.0 164.711957374587 386.15926167983395 205.0162151504349 # Ar
105 105 1 0.0 330.2005552809506 431.5071142086332 292.16827398234545 # Ar
106 106 1 0.0 299.2970294659238 136.767959400126 429.51108285466694 # Ar
107 107 1 0.0 366.1289836220432 370.0113338803877 608.3012886040466 # Ar
108 108 1 0.0 206.88462549538292 117.01571342306407 222.37132871395576 # Ar
109 109 1 0.0 409.3388799957679 209.60521711985714 112.1645626088881 # Ar
110 110 1 0.0 599.1671581756942 182.31162760549833 359.6414991277565 # Ar
111 111 1 0.0 600.4898919053535 155.73634523311094 539.9418565390687 # Ar
112 112 1 0.0 65.52317784933786 533.6769884583307 38.540617925659824 # Ar
113 113 1 0.0 470.21493311531486 261.95650408180575 513.7446051069293 # Ar
114 114 1 0.0 271.4687582156993 379.1303361421052 310.0166025181346 # Ar
115 115 1 0.0 366.4102430909072 95.4638319494366 448.37196317184805 # Ar
116 116 1 0.0 440.6967307257041 17.424328754701538 533.2039999486135 # Ar
117 117 1 0.0 422.6669999199483 405.205161987741 459.0524972758647 # Ar
118 118 1 0.0 93.18389697531131 451.7630512825402 286.0100202610878 # Ar
119 119 1 0.0 20.593149742521142 335.2893640449123 219.81961023746447 # Ar
120 120 1 0.0 84.86421898086874 280.4987254948577 55.187060277869406 # Ar
121 121 1 0.0 127.00498718764645 92.15215937907622 262.0957960849198 # Ar
122 122 1 0.0 426.21651794414095 65.89096320327998 88.11733533937259 # Ar
123 123 1 0.0 526.278714687168 377.22156045436475 215.9391539449507 # Ar
124 124 1 0.0 287.8368373278158 67.51469902771053 645.6543273579198 # Ar
125 125 1 0.0 364.501866030294 369.3518308851952 15.753402005594669 # Ar
126 126 1 0.0 335.0105271001479 445.05759691140236 217.16765259814753 # Ar
127 127 1 0.0 312.5602214693559 135.7534597259765 486.2106646029636 # Ar
128 128 1 0.0 74.14906136633508 542.7265142889189 144.2895070885541 # Ar
129 129 1 0.0 567.6779411564465 50.85391607037151 447.5835846234048 # Ar
130 130 1 0.0 52.880766028974506 277.8376622912442 617.215304542195 # Ar
131 131 1 0.0 183.08053982743135 182.34281536313483 265.9050791978806 # Ar
132 132 1 0.0 117.57582771686393 43.11548245081702 637.5763740245869 # Ar
133 133 1 0.0 620.2628855830251 169.22610997810477 411.4155761147761 # Ar
134 134 1 0.0 270.0070489033742 308.0635888022212 321.80558174357543 # Ar
135 135 1 0.0 500.7672439071349 118.85372992308194 124.01233905204779 # Ar
136 136 1 0.0 141.97355427365363 145.83199444782574 278.4771265799093 # Ar
137 137 1 0.0 482.7213688087156 456.8331473328985 382.7129015339198 # Ar
138 138 1 0.0 63.65557482875157 601.041796569769 610.1827288986227 # Ar
139 139 1 0.0 557.5303734699887 420.625819323987 41.15659097292697 # Ar
140 140 1 0.0 531.1661983257221 554.8935374922997 391.6069115136391 # Ar
141 141 1 0.0 608.9485137706536 159.5153991771866 100.08696448638663 # Ar
142 142 1 0.0 262.6357609556594 482.9718786060693 35.35829091370556 # Ar
143 143 1 0.0 131.63162375359587 111.47422383486523 13.642588669974383 # Ar
144 144 1 0.0 510.92170713591753 346.5643178593828 273.54400348788704 # Ar
145 145 1 0.0 389.8988275644506 91.30645253863555 555.8668835185873 # Ar
146 146 1 0.0 248.72381459428607 447.8619235266484 44.013993394549985 # Ar
147 147 1 0.0 354.4865076145852 5.986219638835667 395.2849811496281 # Ar
148 148 1 0.0 346.2030382996361 583.3946716903582 65.2732413145494 # Ar
149 149 1 0.0 190.682429930512 232.6887355585067 105.960111915663 # Ar
150 150 1 0.0 52.934574721268994 25.349073802804735 400.68861394558866 # Ar
151 151 1 0.0 94.08519014310673 397.6854436559192 553.0143300350276 # Ar
152 152 1 0.0 528.6780735145379 62.61335528129434 552.6135998086094 # Ar
153 153 1 0.0 409.7210452298864 402.047233905576 488.9872730538257 # Ar
154 154 1 0.0 5.034216787460372 313.2108589538393 242.9219017716256 # Ar
155 155 1 0.0 389.91493514982 84.11319738380895 170.10290218678662 # Ar
156 156 1 0.0 252.510768671954 363.0989029903527 256.8309911894719 # Ar
157 157 1 0.0 563.3525502381691 285.86772626032405 301.11364754148633 # Ar
158 158 1 0.0 443.271541977774 238.85890112654644 558.0560319594379 # Ar
159 159 1 0.0 424.325800006477 263.70109643950866 547.0384932441028 # Ar
160 160 1 0.0 308.49184148284144 63.47076274375324 525.9592739681492 # Ar
161 161 1 0.0 589.2927698448523 422.75538818285116 429.1824735694586 # Ar
162 162 1 0.0 149.68339145492922 598.7783885303 132.97617987134223 # Ar
163 163 1 0.0 300.0773103149122 214.81878724897612 579.8548303714923 # Ar
164 164 1 0.0 516.9870268481918 6.785944854621622 295.08864213114026 # Ar
165 165 1 0.0 265.3612326199515 492.73216668795425 139.24406354103894 # Ar
166 166 1 0.0 242.39019762217387 358.4910666562807 204.50063817972458 # Ar
167 167 1 0.0 448.86064004330456 256.1089226460048 452.5640325000754 # Ar
168 168 1 0.0 452.1922520546542 516.1914809075834 502.5274161286328 # Ar
169 169 1 0.0 146.45271396343117 120.15283209086908 249.60889508946653 # Ar
170 170 1 0.0 519.3036996303442 534.1627175569107 98.20544016669444 # Ar
171 171 1 0.0 237.22373063585698 584.6193232237566 619.0316629763144 # Ar
172 172 1 0.0 486.153439626851 548.4096524284095 172.7267926891584 # Ar
173 173 1 0.0 145.7644539839339 428.98348962104615 387.20050008565755 # Ar
174 174 1 0.0 6.806513402303504 417.153987766097 319.1561195596122 # Ar
175 175 1 0.0 521.4176512125763 161.02703368572134 38.73814769543117 # Ar
176 176 1 0.0 171.998357868173 531.6453595010621 195.49770982826013 # Ar
177 177 1 0.0 175.87161177543766 108.62569141480346 79.74015955963532 # Ar
178 178 1 0.0 218.3205946720495 590.9991020323719 386.6287998723372 # Ar
179 179 1 0.0 416.2795020769521 284.51516658734056 314.61924525046584 # Ar
180 180 1 0.0 6.3734444913019335 19.013760169461985 125.31394446436099 # Ar
181 181 1 0.0 348.42282914503835 235.58278626741625 249.23030696783303 # Ar
182 182 1 0.0 163.40584803647215 462.9538200123338 367.61723545455806 # Ar
183 183 1 0.0 438.4983686652489 409.60828900354124 69.3499709635686 # Ar
184 184 1 0.0 602.9200255901761 389.4029768694531 509.0160883421696 # Ar
185 185 1 0.0 76.19870788825176 547.4019221120946 74.89606463197545 # Ar
186 186 1 0.0 302.92839310741925 544.3397617006847 529.0437364183791 # Ar
187 187 1 0.0 422.61037391285106 453.2561050972194 274.51369492811 # Ar
188 188 1 0.0 52.879827109663786 264.0696735572044 233.08995218050939 # Ar
189 189 1 0.0 307.7754199592634 313.22181738016985 426.2488531607642 # Ar
190 190 1 0.0 235.1832781939435 216.4539223017592 590.0720561008029 # Ar
191 191 1 0.0 155.56386446193625 218.71386544651048 283.0483280302724 # Ar
192 192 1 0.0 237.54239016332792 28.313378416170845 500.97035121390326 # Ar
193 193 1 0.0 38.736930612405295 9.001383587459813 516.6028432821465 # Ar
194 194 1 0.0 597.1340184984749 617.4370555252943 450.61668839498077 # Ar
195 195 1 0.0 214.56616351276736 178.48657888893462 343.13858328438636 # Ar
196 196 1 0.0 400.289737704037 464.809626329148 512.696167803552 # Ar
197 197 1 0.0 160.39937120965152 197.9315924266109 406.1400466740293 # Ar
198 198 1 0.0 469.2572047274622 436.2916289909971 497.9185051461201 # Ar
199 199 1 0.0 165.57065387090603 3.332606652979362 155.2249732245471 # Ar
200 200 1 0.0 560.2513337899657 644.2919120138127 64.63144629703007 # Ar
201 201 1 0.0 422.52469360325364 200.74863500703992 430.6417046811049 # Ar
202 202 1 0.0 327.49613711305875 431.5153775183832 537.3687681206427 # Ar
203 203 1 0.0 178.54267092733178 415.4177703428261 500.0198065996981 # Ar
204 204 1 0.0 481.4988072776211 647.6345199083682 297.536673526743 # Ar
205 205 1 0.0 255.47300787822215 443.2689896834415 247.92657532437835 # Ar
206 206 1 0.0 228.44302473481716 42.36593257395014 321.039137198437 # Ar
207 207 1 0.0 194.84552536030355 493.7792150553235 450.1539929671815 # Ar
208 208 1 0.0 135.9537365330259 564.4733148341745 187.67070224724645 # Ar
209 209 1 0.0 182.7252873284158 123.43178674294778 396.7688098524441 # Ar
210 210 1 0.0 503.8869534979618 599.9765253069584 443.8852319871531 # Ar
211 211 1 0.0 42.63876090072381 169.03429840128604 499.4017431646195 # Ar
212 212 1 0.0 378.96442429020664 570.4445675344488 231.1638040336624 # Ar
213 213 1 0.0 439.6892306308174 263.0161244849628 104.43685713532827 # Ar
214 214 1 0.0 316.2552456210442 382.5166875266079 543.1696477966917 # Ar
215 215 1 0.0 393.1332102797653 34.96319410804026 221.60818204761452 # Ar
216 216 1 0.0 266.6107280639617 278.54083364323424 471.5241518572303 # Ar
217 217 1 0.0 470.81878530663033 493.9844922616866 252.190591890869 # Ar
218 218 1 0.0 439.2576214357579 217.12973315639888 418.330925689765 # Ar
219 219 1 0.0 629.990138390044 361.7479370813496 16.66871771530422 # Ar
220 220 1 0.0 216.66680017279106 436.9085222758244 244.34642427389278 # Ar
221 221 1 0.0 570.262810190827 585.3912189567127 377.3011778288735 # Ar
222 222 1 0.0 347.60406375070437 403.72841211851045 89.55606958538198 # Ar
223 223 1 0.0 501.79103399830404 69.58767251757196 427.76487669103716 # Ar
224 224 1 0.0 367.2882713519079 218.7212591944816 529.8696330440046 # Ar
225 225 1 0.0 426.94542914826536 505.2329410645874 11.743207735513865 # Ar
226 226 1 0.0 599.9055928905741 325.61514418840244 521.6759539811951 # Ar
227 227 1 0.0 138.90662612764558 335.088974191942 59.18830893514153 # Ar
228 228 1 0.0 349.94884786297615 319.310992050088 565.4780990869385 # Ar
229 229 1 0.0 647.6411226030524 125.68233815230008 505.77484932339763 # Ar
230 230 1 0.0 639.6746589144452 182.69885708272471 532.4192049827657 # Ar
231 231 1 0.0 79.19026468089689 376.1323176087179 312.3371614489873 # Ar
232 232 1 0.0 14.761246306872643 320.2893133571339 221.1156595627882 # Ar
233 233 1 0.0 488.19083546305615 490.25365560514643 255.4576091891113 # Ar
234 234 1 0.0 24.342303481429628 298.8683556313991 574.6267436335542 # Ar
235 235 1 0.0 240.20418626730026 475.140634428278 74.08501846133396 # Ar
236 236 1 0.0 572.4177071218274 464.02704255922254 248.02321734889009 # Ar
237 237 1 0.0 648.1918638935715 153.33981234594654 212.86766989925508 # Ar
238 238 1 0.0 3.7864744477112384 642.1462517735034 139.15662525123867 # Ar
239 239 1 0.0 344.88986889689187 302.1905425791814 277.17263634212156 # Ar
240 240 1 0.0 486.2837597810298 393.76055641347864 390.3337024564579 # Ar
241 241 1 0.0 43.432706883329686 109.16734513549606 16.21169749886762 # Ar
242 242 1 0.0 257.8237259628118 639.2531631630077 160.3477290970877 # Ar
243 243 1 0.0 89.74171888441367 330.5025034636943 394.115042448162 # Ar
244 244 1 0.0 405.9565168999401 475.3596998848015 387.19031892066363 # Ar
245 245 1 0.0 84.22197145409498 458.36419640611416 625.7882463349082 # Ar
246 246 1 0.0 325.7320743727586 68.03444266215416 497.0896905433119 # Ar
247 247 1 0.0 152.11014396095797 44.189894047113825 437.49428480069696 # Ar
248 248 1 0.0 266.9454914083465 298.1364761704942 545.6530978660456 # Ar
249 249 1 0.0 415.86717057326763 175.86748570858865 300.8952984351767 # Ar
250 250 1 0.0 471.7073226287035 455.0561008923055 251.14894070848013 # Ar
251 251 1 0.0 573.4245685740123 590.80890166355 349.2701733210952 # Ar
252 252 1 0.0 170.1203518300985 96.09905856725675 324.1649046669692 # Ar
253 253 1 0.0 75.39809716089084 387.50251351040663 90.83520884899744 # Ar
254 254 1 0.0 546.9965213750559 541.7613857133904 392.3402213373199 # Ar
255 255 1 0.0 100.54284099753706 326.0917980679806 92.11324806707766 # Ar
256 256 1 0.0 580.6846847601382 414.51900723877145 164.5511836559011 # Ar
257 257 1 0.0 539.7640667981186 180.3190152135956 229.35152745631945 # Ar
258 258 1 0.0 91.8406957840042 231.1916141237982 427.49143135246675 # Ar
259 259 1 0.0 637.8379122537684 138.70287198963047 11.98808753183921 # Ar
260 260 1 0.0 257.16420744958555 364.1334154794317 566.9264359441835 # Ar
261 261 1 0.0 463.85994884321235 157.48829691099436 626.0887441726098 # Ar
262 262 1 0.0 34.209560116712204 510.63020285690374 641.7437955425581 # Ar
263 263 1 0.0 288.6059121875913 387.94959744977825 323.59717634871123 # Ar
264 264 1 0.0 385.031724128706 170.58429496775616 637.234645261334 # Ar
265 265 1 0.0 192.62851071442955 297.44716934356455 149.24995500319068 # Ar
266 266 1 0.0 627.9642777278635 518.0094674541559 337.05311252259577 # Ar
267 267 1 0.0 121.71783680225161 233.05576832005156 187.46391682387454 # Ar
268 268 1 0.0 112.49422927217351 492.8099920103339 268.5092336572779 # Ar
269 269 1 0.0 100.20004334125929 131.83618042280406 84.28709517149595 # Ar
270 270 1 0.0 295.7923542098963 67.20020215150595 460.6885742667128 # Ar
271 271 1 0.0 167.21696336987458 73.8932621340854 249.40821930178777 # Ar
272 272 1 0.0 67.22347967826765 627.5924734787797 58.01257265177031 # Ar
273 273 1 0.0 373.148802514239 272.67186608983417 341.33835714338517 # Ar
274 274 1 0.0 472.26125618079897 305.2864163492239 555.9611896013766 # Ar
275 275 1 0.0 309.84241923138944 54.03418974184255 562.0810258264023 # Ar
276 276 1 0.0 198.7906401315011 348.71797230500135 509.9784002356323 # Ar
277 277 1 0.0 536.1291018910475 410.6336734064697 438.44215886607816 # Ar
278 278 1 0.0 91.30332090845859 485.25244556397524 206.29356133369194 # Ar
279 279 1 0.0 111.20035208267258 420.0384380876904 133.54420414394215 # Ar
280 280 1 0.0 196.72118490858364 19.282790201074622 139.60796475684654 # Ar
281 281 1 0.0 635.6529974353557 259.24448852279284 9.992285518171686 # Ar
282 282 1 0.0 19.494397136611212 542.9505539495501 161.40642356751889 # Ar
283 283 1 0.0 513.3145666912275 93.39025672595675 269.54417088088417 # Ar
284 284 1 0.0 113.09015192943981 300.278650334523 456.6103922455442 # Ar
285 285 1 0.0 389.2555604082981 32.56688694316659 557.3256086745698 # Ar
286 286 1 0.0 297.49689089983553 519.4115118263929 482.8494528903916 # Ar
287 287 1 0.0 9.930783243060777 12.864719465897146 390.5914381233237 # Ar
288 288 1 0.0 430.3095536482497 562.0457530394799 295.6562437841501 # Ar
289 289 1 0.0 102.84057912072731 24.324720046403385 264.16304444926766 # Ar
290 290 1 0.0 90.03675222043695 507.6958677214571 50.821746526915064 # Ar
291 291 1 0.0 484.7889214130149 550.8477241324213 483.418034053821 # Ar
292 292 1 0.0 378.07908679701626 29.881131548605573 51.371753704939024 # Ar
293 293 1 0.0 48.33288533178539 527.1353267399203 113.02977924533731 # Ar
294 294 1 0.0 18.90143008133686 372.4156899021528 15.951426869571517 # Ar
295 295 1 0.0 374.2757330450649 24.55695204700058 573.81228698079 # Ar
296 296 1 0.0 393.6780525522245 563.5497520240999 44.15703041637083 # Ar
297 297 1 0.0 83.08018183895197 567.2647514345234 139.64107818306937 # Ar
298 298 1 0.0 144.61253533121936 412.2699492033582 586.0740950258263 # Ar
299 299 1 0.0 143.89729742947142 99.34089896576714 202.77817588507747 # Ar
300 300 1 0.0 497.9858681125482 399.43519535104855 142.41892573508255 # Ar
301 301 1 0.0 27.130186741568394 100.58565470678232 632.8337694976614 # Ar
302 302 1 0.0 274.3045487838292 189.84876252528582 101.90995927982678 # Ar
303 303 1 0.0 150.2924319932346 93.09358369654367 139.05500559527977 # Ar
304 304 1 0.0 643.3185344179803 634.2991909668754 412.6116813711451 # Ar
305 305 1 0.0 376.66861241377836 632.0750513865007 103.19257263773586 # Ar
306 306 1 0.0 447.06237102161157 335.3043037289263 526.9859809862421 # Ar
307 307 1 0.0 388.07560800452893 90.15448243985631 409.27601301881975 # Ar
308 308 1 0.0 544.6164615810474 67.65619884566512 581.324443707879 # Ar
309 309 1 0.0 210.94275531768852 89.32335682658243 427.8758829565756 # Ar
310 310 1 0.0 28.759800233042544 466.4221729667613 168.55500408567428 # Ar
311 311 1 0.0 563.8169788479972 56.815237383842 200.88361718322048 # Ar
312 312 1 0.0 496.59154481174164 188.9587928207647 174.11374838828272 # Ar
313 313 1 0.0 119.97881511569835 510.43944458807636 90.3000048531643 # Ar
314 314 1 0.0 545.2672465399585 8.864309950959049 269.7467858583598 # Ar
315 315 1 0.0 46.378040133029344 503.61782768811577 149.68601453015958 # Ar
316 316 1 0.0 172.20336262556356 585.5718548584894 158.69395177709748 # Ar
317 317 1 0.0 508.9255661233567 128.39501741476576 383.6438234998416 # Ar
318 318 1 0.0 435.658835106892 630.5723079588507 391.6793378659173 # Ar
319 319 1 0.0 16.627999129229 435.85990332938263 448.01610461039945 # Ar
320 320 1 0.0 16.226204932154307 452.5377912243546 80.47485770179333 # Ar
321 321 1 0.0 150.54312090182032 53.05088525165839 464.7380106903237 # Ar
322 322 1 0.0 205.25852988984855 206.2668206118294 461.4927884916222 # Ar
323 323 1 0.0 436.80319794794207 313.80424389711084 521.9459955184842 # Ar
324 324 1 0.0 251.85712806696463 516.708572664789 86.87017826917871 # Ar
325 325 1 0.0 18.004386392957368 145.04546670404625 448.98855671751255 # Ar
326 326 1 0.0 407.08173616890053 541.8708529340319 58.382614383169646 # Ar
327 327 1 0.0 110.8045199833571 44.25702831391362 457.324602020773 # Ar
328 328 1 0.0 381.78319795411306 541.4875185525568 572.1095881517037 # Ar
329 329 1 0.0 428.5903999299681 148.4450599820858 48.189308632627835 # Ar
330 330 1 0.0 135.30088190958355 510.26684558054114 296.7929276728181 # Ar
331 331 1 0.0 604.2763660222671 26.077670378625736 209.52094701056663 # Ar
332 332 1 0.0 184.74368584001556 464.12817933244577 578.3903310681168 # Ar
333 333 1 0.0 264.39520569786566 272.93912962211704 126.34652205120275 # Ar
334 334 1 0.0 43.08466152530888 100.23241139451898 146.59637050082196 # Ar
335 335 1 0.0 633.1633531053882 609.4293855968294 507.6751551287654 # Ar
336 336 1 0.0 378.60729457667736 121.8319850090296 389.4473427675344 # Ar
337 337 1 0.0 331.9491905797624 549.8243029023462 142.81034786556268 # Ar
338 338 1 0.0 2.954245387449941 267.6908250937676 110.88886896084296 # Ar
339 339 1 0.0 307.4239811560293 454.7097207585378 317.7777340413132 # Ar
340 340 1 0.0 335.4274673394639 437.5595560855827 333.8217286780101 # Ar
341 341 1 0.0 222.21840271041626 618.7137276513781 290.09744690274374 # Ar
342 342 1 0.0 209.36091522257698 127.37205280438931 33.47690525336024 # Ar
343 343 1 0.0 438.7316207645509 55.195731008655805 405.30238567179657 # Ar
344 344 1 0.0 151.16826651427792 334.63928985859746 269.99933395072406 # Ar
345 345 1 0.0 313.84059966469107 375.59213773168034 399.03854108941624 # Ar
346 346 1 0.0 434.8580688875552 98.41868562500662 544.8782648282513 # Ar
347 347 1 0.0 438.3381878803356 296.2159447495958 231.44126653431698 # Ar
348 348 1 0.0 78.70734421532357 251.6776575523704 382.8132119686002 # Ar
349 349 1 0.0 218.849632724611 531.4772737498897 139.90496114907643 # Ar
350 350 1 0.0 96.2747520284636 181.04522830654116 403.4010884736384 # Ar
351 351 1 0.0 301.2153689259938 207.06190430304775 209.28459677698112 # Ar
352 352 1 0.0 530.2542003439195 610.235111308812 110.81457105718876 # Ar
353 353 1 0.0 428.46633644963754 148.3363717429296 265.40870869144555 # Ar
354 354 1 0.0 323.54432902231207 434.4348303458427 572.6122812897189 # Ar
355 355 1 0.0 390.09066571196473 217.79839042803212 410.76578448495 # Ar
356 356 1 0.0 143.9256125048109 72.49208475602597 66.42692495801755 # Ar
357 357 1 0.0 131.340736913039 513.9584659470663 416.2566576465495 # Ar
358 358 1 0.0 26.89922926214725 411.3042498802 544.2320218200163 # Ar
359 359 1 0.0 75.34136654879576 241.3635212565747 276.20650920321117 # Ar
360 360 1 0.0 331.986961723901 179.22197363891107 614.0356344965519 # Ar
361 361 1 0.0 436.17911457527447 15.205800198684733 370.9358181052056 # Ar
362 362 1 0.0 560.9653584588586 409.5810624494741 214.01353510178728 # Ar
363 363 1 0.0 631.1531097725439 328.3427490240004 470.6437371688112 # Ar
364 364 1 0.0 133.48201869082607 535.1595419159703 500.8251846474185 # Ar
365 365 1 0.0 240.42378459173563 218.1647870603666 355.6573288511185 # Ar
366 366 1 0.0 133.6771442957386 370.5872658339264 584.7989356463712 # Ar
367 367 1 0.0 143.68239747085235 490.58671805776186 109.89005761873113 # Ar
368 368 1 0.0 570.370713932458 581.952103780022 26.792947345802983 # Ar
369 369 1 0.0 284.2278875883654 528.1743601737912 454.64266985678285 # Ar
370 370 1 0.0 269.4842849881837 208.77843115838698 6.301685483606903 # Ar
371 371 1 0.0 169.1041624523568 400.9860956755372 628.6353328053041 # Ar
372 372 1 0.0 327.5561040109534 625.4628198621714 473.62259053523553 # Ar
373 373 1 0.0 208.06104854577595 219.6961940949268 334.7069741097004 # Ar
374 374 1 0.0 574.9735582932772 400.74691749331197 615.9039787146637 # Ar
375 375 1 0.0 144.02119339902558 114.59220512283935 32.62456995714872 # Ar
376 376 1 0.0 471.9017290546557 324.12003744324346 503.94283610208566 # Ar
377 377 1 0.0 71.54282020861433 36.062921755272626 385.3837062243742 # Ar
378 378 1 0.0 191.71347369953676 534.9912702566619 473.8318391258377 # Ar
379 379 1 0.0 23.12141586777337 322.4068784105367 460.43655013916157 # Ar
380 380 1 0.0 93.1542625225944 621.5485085568587 297.9549833133389 # Ar
381 381 1 0.0 519.6228796206669 621.5650748032103 238.22651103250988 # Ar
382 382 1 0.0 436.2459437747212 43.8032757279385 159.462419126893 # Ar
383 383 1 0.0 339.39809917736034 33.02673421660848 59.316513859396075 # Ar
384 384 1 0.0 105.3862542454982 423.60459290398023 28.03048713316624 # Ar
385 385 1 0.0 133.4410128027043 0.1131366135969303 120.79436593488657 # Ar
386 386 1 0.0 235.7654472723435 440.02614631205455 263.93545741725467 # Ar
387 387 1 0.0 552.1475648570504 553.1887627931721 251.585948125604 # Ar
388 388 1 0.0 260.68288728005865 12.217829506647586 224.00050576408518 # Ar
389 389 1 0.0 375.02723910640435 557.252819218161 97.22481759101886 # Ar
390 390 1 0.0 490.0343562232105 537.1444728788823 225.9146977470504 # Ar
391 391 1 0.0 319.7162296142631 576.2624446445391 238.97702823287148 # Ar
392 392 1 0.0 47.991800847514796 455.8573736654831 36.602832707829464 # Ar
393 393 1 0.0 347.93219462373264 590.7392319647631 315.1549267421316 # Ar
394 394 1 0.0 240.79863209500468 501.4273046035338 93.51970980130932 # Ar
395 395 1 0.0 461.45389383489777 204.06870110471846 266.4862399363708 # Ar
396 396 1 0.0 0.7474065399481448 479.08058505100524 368.46307180360367 # Ar
397 397 1 0.0 592.4672564641671 52.85624741877901 415.37016090312227 # Ar
398 398 1 0.0 4.6304002694234025 310.81392150223627 373.2058284224309 # Ar
399 399 1 0.0 608.753178094924 366.7982072019098 83.47797706595063 # Ar
400 400 1 0.0 590.2292699679539 404.78287238556396 421.9547440797065 # Ar
401 401 1 0.0 248.67870963510566 370.3885972633997 268.07346921758693 # Ar
402 402 1 0.0 307.70404393374963 211.9949515960558 627.9964961207946 # Ar
403 403 1 0.0 554.6305663417305 53.992916366061465 573.0490136852659 # Ar
404 404 1 0.0 521.0747869763262 313.9306367654813 161.82625061642653 # Ar
405 405 1 0.0 606.1912412991186 68.4968869274569 174.06591248188894 # Ar
406 406 1 0.0 258.8076583428568 627.2884446828715 107.8491475955429 # Ar
407 407 1 0.0 484.4607745232867 280.1275554072142 623.7402825194223 # Ar
408 408 1 0.0 409.93512952369707 399.7932228598839 405.868682513257 # Ar
409 409 1 0.0 411.71862604073976 276.18384605238384 24.27713373573037 # Ar
410 410 1 0.0 435.21038663565554 316.67123330751207 355.8765979620297 # Ar
411 411 1 0.0 28.889491080217823 348.77652131763443 534.3804142043208 # Ar
412 412 1 0.0 236.785413237285 158.54147907863353 394.605603404747 # Ar
413 413 1 0.0 547.1832608801345 366.396450774623 258.07648208855323 # Ar
414 414 1 0.0 161.76454551991685 297.73016383478716 351.7442281850139 # Ar
415 415 1 0.0 175.74592861346466 351.4170290524853 549.7833204537822 # Ar
416 416 1 0.0 580.1475129140787 492.3238123437607 577.6593521017993 # Ar
417 417 1 0.0 159.6230880575004 71.52710458112792 327.6538927022208 # Ar
418 418 1 0.0 101.43588812793419 518.9207922891901 629.2594479501851 # Ar
419 419 1 0.0 46.976051568951114 159.1287777789039 66.72575543123037 # Ar
420 420 1 0.0 170.79442645398564 88.67553285119679 38.19844532071881 # Ar
421 421 1 0.0 189.44448477527817 277.7658806124589 73.18596492028823 # Ar
422 422 1 0.0 639.6198644579574 230.4261639226463 629.2289224179954 # Ar
423 423 1 0.0 53.36514856573662 263.8215525998146 628.4251154057829 # Ar
424 424 1 0.0 52.785057759162655 562.2855790743082 313.4575701046135 # Ar
425 425 1 0.0 293.4591071432432 42.18136870833534 29.91330700730965 # Ar
426 426 1 0.0 130.3666708618583 552.3346366181505 303.23154155076384 # Ar
427 427 1 0.0 312.01800384948416 235.71782082584332 395.03210191383454 # Ar
428 428 1 0.0 244.77628673272005 247.92940310207803 165.39332434279922 # Ar
429 429 1 0.0 629.3602780541229 540.3113497880388 309.4421146649786 # Ar
430 430 1 0.0 237.53082664740808 386.11265122514124 478.1161834111799 # Ar
431 431 1 0.0 451.2734088647582 297.35080036253817 367.555075059831 # Ar
432 432 1 0.0 416.95560615142205 454.62173646155645 416.68735637879337 # Ar
433 433 1 0.0 406.84820149125534 630.3965851362227 453.63212421381746 # Ar
434 434 1 0.0 431.3914956244744 450.81266733924997 65.6838648813985 # Ar
435 435 1 0.0 516.9703753586442 182.2802748161734 351.5127838601554 # Ar
436 436 1 0.0 141.0684672962504 297.20337746165495 486.7689019051942 # Ar
437 437 1 0.0 59.14939706796665 625.0929112622946 335.6932468689018 # Ar
438 438 1 0.0 115.87089542494213 240.14699458754055 480.21776815206834 # Ar
439 439 1 0.0 181.44917123604873 511.02154133638203 437.9581986790024 # Ar
440 440 1 0.0 495.7302221451595 434.55685550792526 184.04211788990122 # Ar
441 441 1 0.0 266.52512751546436 352.5250474220389 285.2972535301175 # Ar
442 442 1 0.0 618.9002593322175 494.09701419102936 428.3059542779161 # Ar
443 443 1 0.0 127.64466120850793 529.9307024625161 65.20457263238329 # Ar
444 444 1 0.0 577.9877385879779 497.30004955619603 550.6906381307882 # Ar
445 445 1 0.0 450.6739864345723 393.06779090692214 123.6256376687913 # Ar
446 446 1 0.0 70.88584214566494 636.2727537934559 252.6948170203848 # Ar
447 447 1 0.0 419.06418980396995 74.73090522849232 136.66790460324054 # Ar
448 448 1 0.0 583.9858877463106 589.574121702711 103.80805762783696 # Ar
449 449 1 0.0 236.39320385367202 301.4031069711304 299.34337857917603 # Ar
450 450 1 0.0 410.24904948720405 466.802946271733 361.0329155422265 # Ar
451 451 1 0.0 420.43884559515845 610.6180356033927 198.85608326730232 # Ar
452 452 1 0.0 536.5737620640205 629.4350916484499 521.0905024932157 # Ar
453 453 1 0.0 363.15862266651794 118.65782925289072 342.24743417840597 # Ar
454 454 1 0.0 637.3430294380129 14.648096965880011 560.5899039208763 # Ar
455 455 1 0.0 465.6468694380975 545.2945057179111 518.6815656786307 # Ar
456 456 1 0.0 37.434311751775454 24.985249741848673 429.49447921751624 # Ar
457 457 1 0.0 433.3272891333822 554.6379230751222 385.8654075266134 # Ar
458 458 1 0.0 145.41558160290765 404.02398085116886 626.0445964080185 # Ar
459 459 1 0.0 189.84749655530118 393.1708703363357 604.5952652785134 # Ar
460 460 1 0.0 89.90282126121382 61.18727222203292 53.70617667778187 # Ar
461 461 1 0.0 236.0663775610146 450.64979255397003 589.7390635522354 # Ar
462 462 1 0.0 616.7605828557267 270.57859443530594 474.83935397786473 # Ar
463 463 1 0.0 317.53454375998973 407.56337177650414 78.29361514911363 # Ar
464 464 1 0.0 147.11122014537736 615.7916120835779 341.42911217032884 # Ar
465 465 1 0.0 420.64135047400254 331.8201268830905 91.82727627050194 # Ar
466 466 1 0.0 228.29606268298397 279.66492654410087 69.35103768824378 # Ar
467 467 1 0.0 266.9664019594357 95.32951172475437 9.19215707240081 # Ar
468 468 1 0.0 257.2694988559121 506.98839357747215 198.67702503575813 # Ar
469 469 1 0.0 54.28098949053811 219.6430713924234 372.96027233984637 # Ar
470 470 1 0.0 128.15307476539564 311.64667676687736 412.24932034111714 # Ar
471 471 1 0.0 73.2117378293652 84.11299045044106 99.8434980694963 # Ar
472 472 1 0.0 508.8348849047801 140.32589340125966 42.19107606926278 # Ar
473 473 1 0.0 269.2561188504979 43.93805464321719 9.556362534564633 # Ar
474 474 1 0.0 44.68985838975834 23.43155411061118 365.0927770574984 # Ar
475 475 1 0.0 465.006551059653 494.36793949173665 429.24351389384395 # Ar
476 476 1 0.0 198.33182048671992 126.69126946244705 71.81647620345578 # Ar
477 477 1 0.0 190.33318337647069 497.55230064271785 175.64629150287095 # Ar
478 478 1 0.0 94.8305917556507 246.3239223310162 593.6756661359352 # Ar
479 479 1 0.0 464.05859006542585 338.9665531090353 20.960438329708722 # Ar
480 480 1 0.0 509.4677826474521 559.5072398456625 559.9728790040864 # Ar
481 481 1 0.0 95.63924656120533 628.7854898519872 96.58681349538453 # Ar
482 482 1 0.0 355.717743918642 369.4815918067242 127.39372369380551 # Ar
483 483 1 0.0 258.98968357545704 624.0490902085876 54.34780979775441 # Ar
484 484 1 0.0 307.0087945767723 15.83704524626711 197.55984228609094 # Ar
485 485 1 0.0 92.56318562845712 549.378562719479 255.3960223950198 # Ar
486 486 1 0.0 641.6390569635631 402.1539295323939 402.26397111173645 # Ar
487 487 1 0.0 455.2080254425145 174.66554107212332 555.5747400897998 # Ar
488 488 1 0.0 72.65716574241083 205.39250026862595 399.7455481800109 # Ar
489 489 1 0.0 365.9234162158206 176.36706983370888 602.2962685070427 # Ar
490 490 1 0.0 385.77208848881327 313.25396801606394 90.57288917369304 # Ar
491 491 1 0.0 173.8256558284606 208.29530143668035 547.9524323194061 # Ar
492 492 1 0.0 406.1184843495131 558.6339957919456 295.040454464582 # Ar
493 493 1 0.0 597.5463768778511 266.46126452284255 386.7264075344359 # Ar
494 494 1 0.0 14.22905480977636 198.60449406713263 181.80703634729258 # Ar
495 495 1 0.0 349.7765261091903 100.74718005325376 116.43941252545905 # Ar
496 496 1 0.0 308.88820583008305 390.3453160358576 436.54337451787814 # Ar
497 497 1 0.0 389.7321860416751 380.54549998153715 547.9468615422362 # Ar
498 498 1 0.0 207.7578527926232 139.09892441192565 3.2107537873775343 # Ar
499 499 1 0.0 521.4054014207394 181.19188401537667 178.7537646793904 # Ar
500 500 1 0.0 335.5331796435628 482.50054197071233 291.78868485838905 # Ar
501 501 1 0.0 390.55806899312705 622.0615085198986 135.99389150196163 # Ar
502 502 1 0.0 603.9359714543143 310.6817935153864 240.12675020055235 # Ar
503 503 1 0.0 327.6529506538841 364.0798686859892 363.6082848244108 # Ar
504 504 1 0.0 72.46416169046555 586.3987321524042 148.138780662693 # Ar
505 505 1 0.0 609.293503192214 486.2084057376242 557.7604183065195 # Ar
506 506 1 0.0 634.0984500654391 196.86337801984752 343.8911116850554 # Ar
507 507 1 0.0 48.93960201327366 372.0498513715341 595.7210695621518 # Ar
508 508 1 0.0 154.3319318607458 91.39359615107297 451.88288485706124 # Ar
509 509 1 0.0 309.19506586025506 528.7854108065874 432.17435740017044 # Ar
510 510 1 0.0 213.13046010088476 254.5445522819921 49.851084633321065 # Ar
511 511 1 0.0 95.7528313740914 47.52774448941205 81.82770770471602 # Ar
512 512 1 0.0 610.4727280035245 41.79743096765691 253.13471963237777 # Ar
513 513 1 0.0 602.2897414402844 310.5913698048475 343.5041346247941 # Ar
514 514 1 0.0 566.5449321685446 624.3367856438956 317.69816926064146 # Ar
515 515 1 0.0 641.2942581471806 210.24204376097828 86.7266285805619 # Ar
516 516 1 0.0 71.81940175922273 373.60943833291867 258.0871673607014 # Ar
517 517 1 0.0 152.6801013003018 437.58857444507265 0.6465492688931243 # Ar
518 518 1 0.0 438.01846135895397 626.2302670312737 416.12606572387153 # Ar
519 519 1 0.0 425.45254336764845 389.96541719326547 133.20420329416976 # Ar
520 520 1 0.0 98.40806664338331 268.3494114044551 342.0081633643906 # Ar
521 521 1 0.0 527.8068050415637 636.8371886440781 421.1162420987743 # Ar
522 522 1 0.0 384.3700551133539 319.89315397175886 262.97892267299096 # Ar
523 523 1 0.0 594.5223377583271 499.0094965943806 76.73483443456644 # Ar
524 524 1 0.0 331.8457036127069 278.91320845139046 220.47206262948578 # Ar
525 525 1 0.0 350.889573965506 188.04447958713433 545.5013899895923 # Ar
526 526 1 0.0 592.6798974975002 244.27511294494553 401.65936453406266 # Ar
527 527 1 0.0 232.93475959040603 586.7044608866373 422.21487949782374 # Ar
528 528 1 0.0 635.6542754221578 504.47883813941974 176.96296585053707 # Ar
529 529 1 0.0 593.1844959022959 322.3723589528483 463.746940260536 # Ar
530 530 1 0.0 63.16516300288205 301.9926541501777 159.08907571430876 # Ar
531 531 1 0.0 197.75263534734867 292.7684251384935 132.70558939968632 # Ar
532 532 1 0.0 397.46334316102497 408.62378545082134 530.3050710373502 # Ar
533 533 1 0.0 66.14095844034448 8.535358040390644 244.09370867590093 # Ar
534 534 1 0.0 428.0975125762627 75.6743683372955 206.94106865086604 # Ar
535 535 1 0.0 89.73480961272581 586.8127473045438 530.7562838496393 # Ar
536 536 1 0.0 167.63832083515845 515.0000329584318 261.96996567790137 # Ar
537 537 1 0.0 51.62493356953297 279.80632721922655 264.13425209191576 # Ar
538 538 1 0.0 632.3648426327361 398.70139716558407 138.47784772995828 # Ar
539 539 1 0.0 450.50621613497157 22.92157746822714 318.0874967330187 # Ar
540 540 1 0.0 508.8714303773138 175.50026198112013 111.0519295488438 # Ar
541 541 1 0.0 210.99393688579264 488.41351485426765 413.29824344582823 # Ar
542 542 1 0.0 227.52900038985604 259.3414954325109 351.5661504610213 # Ar
543 543 1 0.0 506.3544868264378 610.0438290094722 140.8573662509925 # Ar
544 544 1 0.0 645.3252083240011 603.3493424766762 258.01260021193104 # Ar
545 545 1 0.0 33.25282143864698 551.8525516921721 386.23917014764277 # Ar
546 546 1 0.0 292.9622570509574 585.568778664869 92.1775366533602 # Ar
547 547 1 0.0 513.9567593779166 287.64536288982987 589.8618221051648 # Ar
548 548 1 0.0 481.8617882209901 465.1542325382081 36.04458689658068 # Ar
549 549 1 0.0 498.65115213924355 87.68153421951504 245.12171824085075 # Ar
550 550 1 0.0 415.8080470125828 525.7604993301909 38.24877049398645 # Ar
551 551 1 0.0 401.2001340755565 267.27506164979576 391.31208425818505 # Ar
552 552 1 0.0 602.6234424340246 490.89228452150286 252.99860332569745 # Ar
553 553 1 0.0 330.74741653938247 616.3566485010748 129.50980750168705 # Ar
554 554 1 0.0 421.2956795465805 120.70064055978388 158.4567393281274 # Ar
555 555 1 0.0 523.8289673510322 572.2542392853609 400.5283185659763 # Ar
556 556 1 0.0 550.5012193472959 191.19767313507188 636.5754866918533 # Ar
557 557 1 0.0 245.55793474329315 193.17768341505652 129.63553432707897 # Ar
558 558 1 0.0 13.009869202536606 557.0336267612928 322.35282678677476 # Ar
559 559 1 0.0 286.2551851136525 11.628903183556 307.5521981956841 # Ar
560 560 1 0.0 243.9535344870904 37.32023468733505 78.21986521688983 # Ar
561 561 1 0.0 239.9102498993735 544.8227982767106 463.61750083578056 # Ar
562 562 1 0.0 74.57753027331643 229.5951060141334 163.31795569117315 # Ar
563 563 1 0.0 339.56845221707886 360.6240913593137 570.9889510757699 # Ar
564 564 1 0.0 246.78975654165166 316.84930609412976 536.6683989567574 # Ar
565 565 1 0.0 29.94221716810696 417.40350519007876 601.4522068030951 # Ar
566 566 1 0.0 514.2269012275713 325.51401481764043 136.18916198257887 # Ar
567 567 1 0.0 144.48074388714264 396.06952112256863 332.3356140585276 # Ar
568 568 1 0.0 175.7964517896958 55.44046566271152 109.59684812149993 # Ar
569 569 1 0.0 90.95332494339786 237.39177854673713 491.56967582259773 # Ar
570 570 1 0.0 18.508148694861507 160.37120381532185 9.99002179851512 # Ar
571 571 1 0.0 460.6926311664878 459.2399882191967 214.7971860803611 # Ar
572 572 1 0.0 441.6310890874413 503.13731276122144 385.911810589225 # Ar
573 573 1 0.0 132.38701474428007 612.3306441660062 246.86054856000408 # Ar
574 574 1 0.0 485.7958963928885 581.0712653860705 418.02179294583794 # Ar
575 575 1 0.0 341.2959455180646 7.427848820057266 492.6697923680896 # Ar
576 576 1 0.0 329.03729616614635 449.1663334329657 506.357697548459 # Ar
577 577 1 0.0 614.8391792396044 51.11014751191647 154.0051229620655 # Ar
578 578 1 0.0 296.8111374983144 101.1174903503995 439.2907708964464 # Ar
579 579 1 0.0 164.9121729154184 81.93979318231524 563.0454711197415 # Ar
580 580 1 0.0 299.40220782971153 443.97038928089285 472.430640814697 # Ar
581 581 1 0.0 403.60937643401496 42.18543822879858 498.30036011825246 # Ar
582 582 1 0.0 379.0219169584266 444.5538211267151 348.1902678092168 # Ar
583 583 1 0.0 9.759709069377378 47.9004952611132 161.86408922267404 # Ar
584 584 1 0.0 515.0173607808206 38.49823048624477 249.14402501857188 # Ar
585 585 1 0.0 411.9835346954312 490.9205666763984 97.9290767302309 # Ar
586 586 1 0.0 87.47864423890036 558.4926423498272 192.39118853599896 # Ar
587 587 1 0.0 458.88890327012143 155.50236870323343 595.9010482687922 # Ar
588 588 1 0.0 67.51158908049031 131.4653405723592 5.119789134359811 # Ar
589 589 1 0.0 641.33781524329 577.1482719898777 372.2501325502294 # Ar
590 590 1 0.0 277.84254995371083 296.53249272451166 274.3757843690269 # Ar
591 591 1 0.0 210.26239775286194 248.39157185571293 180.66135155113298 # Ar
592 592 1 0.0 536.5817674244691 563.4847367150142 589.6489616486606 # Ar
593 593 1 0.0 107.395203031825 437.56713417891166 40.88626471838789 # Ar
594 594 1 0.0 339.2704374287944 340.3042224479169 483.15961961225565 # Ar
595 595 1 0.0 77.5456742127159 346.80356494799736 553.0308187711512 # Ar
596 596 1 0.0 175.06920621636266 266.85258051918754 168.4356678290896 # Ar
597 597 1 0.0 422.1019387896055 588.6537694073099 268.71214852913 # Ar
598 598 1 0.0 111.89010519300388 596.5236302549886 49.13398705703529 # Ar
599 599 1 0.0 298.4842236405235 420.2897174619948 368.4882828018743 # Ar
600 600 1 0.0 491.9615638789871 172.89687903495553 633.8203743492691 # Ar
601 601 1 0.0 314.55524292792364 421.2581712101713 39.26003672492679 # Ar
602 602 1 0.0 585.2805982708729 614.7726625254368 227.0610815804344 # Ar
603 603 1 0.0 333.6956705417725 196.25944534019771 351.03322907234053 # Ar
604 604 1 0.0 262.5712089636972 14.60402536176542 593.9992910311569 # Ar
605 605 1 0.0 446.57830257327214 411.2496534381773 444.08113551355643 # Ar
606 606 1 0.0 420.2033864672158 525.1140157643888 52.75152895127655 # Ar
607 607 1 0.0 201.11171560099444 442.97157697826765 26.594591515033237 # Ar
608 608 1 0.0 646.5051538073457 51.51829039466418 122.06254292531125 # Ar
609 609 1 0.0 249.3656831328517 607.2295268396507 305.12301952891005 # Ar
610 610 1 0.0 147.89424459400718 443.76983302025775 518.4177298857062 # Ar
611 611 1 0.0 561.0852418042384 463.7982753596943 314.1622478224605 # Ar
612 612 1 0.0 471.46401204640586 317.1309509184991 282.755182432966 # Ar
613 613 1 0.0 330.5979319541744 120.33051994296687 591.1918671090538 # Ar
614 614 1 0.0 167.24177666940983 446.9417914483548 221.8647206620313 # Ar
615 615 1 0.0 528.7708872852659 229.5896313582494 136.18985827958076 # Ar
616 616 1 0.0 0.0502167262950151 511.6855087842619 356.03110260759513 # Ar
617 617 1 0.0 9.237388995730132 351.4305417178623 142.4743320269168 # Ar
618 618 1 0.0 466.99496701434066 326.8096590352147 258.82375963240764 # Ar
619 619 1 0.0 312.4355977515715 245.82006927986347 545.949828641488 # Ar
620 620 1 0.0 195.36657213632608 371.7383412731796 177.2622225834205 # Ar
621 621 1 0.0 256.98521137018935 103.4624286586583 633.173267424688 # Ar
622 622 1 0.0 256.5492159607551 95.4112127760621 95.05285699624757 # Ar
623 623 1 0.0 581.4935064371396 593.9002908295922 590.6725638857228 # Ar
624 624 1 0.0 491.73781132452586 224.2077412075386 138.2917227886122 # Ar
625 625 1 0.0 638.2312472937189 104.94350028919385 204.13515437023875 # Ar
626 626 1 0.0 124.20299169092162 539.395098313757 318.89692759152877 # Ar
627 627 1 0.0 437.74481379013736 330.6616039496212 496.7322108358765 # Ar
628 628 1 0.0 206.23249380941093 40.1233246356773 551.1676329976935 # Ar
629 629 1 0.0 444.6328706308726 461.67060843922496 33.08843635199766 # Ar
630 630 1 0.0 324.7724476195891 177.15074949509045 466.7852620236344 # Ar
631 631 1 0.0 561.5603898471 193.67594798690467 615.221035590095 # Ar
632 632 1 0.0 92.86614661905489 182.44328030303302 270.2464111622706 # Ar
633 633 1 0.0 154.19117810579027 85.1065695258104 593.2613998181557 # Ar
634 634 1 0.0 389.00516097173863 296.10280088092094 359.32234871832713 # Ar
635 635 1 0.0 389.2104481543452 521.5798433441685 22.344009071003455 # Ar
636 636 1 0.0 315.3933523362854 258.2974768294105 2.7527915354659735 # Ar
637 637 1 0.0 246.32784961436096 361.82942760878433 33.526799620597714 # Ar
638 638 1 0.0 239.7043320159069 438.67449911411876 82.46565716743557 # Ar
639 639 1 0.0 215.72736574848983 371.8752667247419 32.521343480175666 # Ar
640 640 1 0.0 446.5420122553398 520.1817522591991 594.3213095278156 # Ar
641 641 1 0.0 273.750150709985 308.4799448007842 42.81293971938852 # Ar
642 642 1 0.0 357.7493414640536 134.0073027071256 627.651096260628 # Ar
643 643 1 0.0 306.883181617734 573.1686217073127 455.15190077779266 # Ar
644 644 1 0.0 98.0419816481431 64.04016747412953 373.0460083398669 # Ar
645 645 1 0.0 503.8864454561402 253.44698415423878 43.63624693684266 # Ar
646 646 1 0.0 515.3743259269631 506.7405576119641 362.43479522783014 # Ar
647 647 1 0.0 443.57823197633445 305.741182993703 326.29628021504857 # Ar
648 648 1 0.0 208.89321542278182 356.8209477935933 7.570186147780979 # Ar
649 649 1 0.0 424.93082447605775 534.1919837072363 230.60665957310042 # Ar
650 650 1 0.0 265.3112211221968 580.1976060183729 455.79150319248953 # Ar
651 651 1 0.0 25.613439414104647 292.60938197980255 263.3381746248183 # Ar
652 652 1 0.0 401.41861097123376 364.455940716643 154.81622569057615 # Ar
653 653 1 0.0 97.56369232129933 182.8416609900521 348.9385412868344 # Ar
654 654 1 0.0 270.18698891732794 472.0482861274469 457.53107317548245 # Ar
655 655 1 0.0 104.88917885592846 304.87753888575577 605.5090684758432 # Ar
656 656 1 0.0 274.6240283136266 304.84842610647974 157.29913811852705 # Ar
657 657 1 0.0 294.8883350618426 474.5795206663378 231.2023314872048 # Ar
658 658 1 0.0 18.368767427311955 7.672528454083415 602.0016585849121 # Ar
659 659 1 0.0 446.3002158889655 370.0070304171478 241.52833140586085 # Ar
660 660 1 0.0 160.96052093275412 407.157327593469 396.94903131015684 # Ar
661 661 1 0.0 241.14875029189326 577.5715614151457 444.2302626375614 # Ar
662 662 1 0.0 208.90346903930526 217.83772896857357 48.203840789440356 # Ar
663 663 1 0.0 407.9901511317471 615.2729784780995 388.4559311651094 # Ar
664 664 1 0.0 332.18340628865775 591.8141495695353 220.95252213184565 # Ar
665 665 1 0.0 206.76964356212207 301.6605844185726 432.43510479260937 # Ar
666 666 1 0.0 430.85503490369314 0.8585877134179887 539.82933824238 # Ar
667 667 1 0.0 168.59823906862945 268.93664031268725 169.05504025458742 # Ar
668 668 1 0.0 366.32600532412715 391.7602249167924 243.98239492975128 # Ar
669 669 1 0.0 546.8488636028555 196.37977498707644 235.77309916598026 # Ar
670 670 1 0.0 514.9434235029339 100.14239567701605 168.97878343190357 # Ar
671 671 1 0.0 212.3474723539174 216.99677117487474 13.222111790734916 # Ar
672 672 1 0.0 268.26912028930735 336.94124942865983 583.305693048399 # Ar
673 673 1 0.0 323.2948077094577 539.9143277700133 515.0854845059865 # Ar
674 674 1 0.0 68.03121141258994 111.04376733294669 463.6152822703073 # Ar
675 675 1 0.0 122.21155615805871 584.0943198813707 410.4389996789904 # Ar
676 676 1 0.0 421.4913289510536 620.7523576017145 365.36212584851904 # Ar
677 677 1 0.0 5.8762192821372805 351.40113506581923 323.44441515017803 # Ar
678 678 1 0.0 462.9132196288812 430.1680078185345 464.4353286376917 # Ar
679 679 1 0.0 599.5973530903841 304.3091939457209 440.2240620273068 # Ar
680 680 1 0.0 464.91872339282764 273.03298747662143 429.8454570470994 # Ar
681 681 1 0.0 28.42474261016638 52.9562837192116 119.3269490512321 # Ar
682 682 1 0.0 51.38207720738336 333.8573750840742 214.09166979063622 # Ar
683 683 1 0.0 224.83983214098444 395.8885044964155 336.1407436195016 # Ar
684 684 1 0.0 80.96656299845434 153.9723817571608 127.7847586242489 # Ar
685 685 1 0.0 209.21816239955257 105.69762972753495 438.92728581483044 # Ar
686 686 1 0.0 564.8802338466405 571.9714356409444 478.17955514199184 # Ar
687 687 1 0.0 84.97656252940193 640.7480337202993 514.1998466029418 # Ar
688 688 1 0.0 271.87415357182795 607.9996675505788 304.2661694832508 # Ar
689 689 1 0.0 573.4282592391473 567.9928325851702 230.0862633885046 # Ar
690 690 1 0.0 187.16250016816122 207.44151107379344 305.55734585067796 # Ar
691 691 1 0.0 530.3517709594776 528.1396560635495 34.955274681873014 # Ar
692 692 1 0.0 426.1341424208665 186.35345561484027 380.09010496128184 # Ar
693 693 1 0.0 465.51769340203776 152.50526153553665 133.32460399261245 # Ar
694 694 1 0.0 108.82015067857765 445.9497469271682 589.1458868188707 # Ar
695 695 1 0.0 263.42046779206487 126.54138720703887 462.9970321879924 # Ar
696 696 1 0.0 457.2108344306586 224.80322742043037 24.489510128503984 # Ar
697 697 1 0.0 17.0990816938974 259.3135184716858 154.76530620154873 # Ar
698 698 1 0.0 310.6728505319408 271.01629892146195 171.52375844406683 # Ar
699 699 1 0.0 85.05348468456698 457.48328779298737 3.4374000014562296 # Ar
700 700 1 0.0 160.81811025231585 401.3121225820696 436.16380977896085 # Ar
701 701 1 0.0 23.495260653232727 124.67756819735382 469.6408316910127 # Ar
702 702 1 0.0 388.88799028410637 372.196693020136 388.96676133213356 # Ar
703 703 1 0.0 457.9137785942063 339.85330006100116 66.17652578082526 # Ar
704 704 1 0.0 524.7397299067821 182.07895068809836 93.16465205170111 # Ar
705 705 1 0.0 25.18535238594882 430.7729889436739 284.8893947630584 # Ar
706 706 1 0.0 404.1208744232389 312.73362184943596 442.8284275917144 # Ar
707 707 1 0.0 49.82531248097637 11.096390916643946 47.583301126882375 # Ar
708 708 1 0.0 637.7867584380112 198.5016671646021 536.8405666677467 # Ar
709 709 1 0.0 478.9506809520512 643.4540010594051 346.75002573339697 # Ar
710 710 1 0.0 405.4895792082852 156.7480106204409 614.9657890622926 # Ar
711 711 1 0.0 571.2455808172564 240.5395798371115 107.72237435008954 # Ar
712 712 1 0.0 571.2250913127984 200.3565055063484 27.62837749029261 # Ar
713 713 1 0.0 275.1436336028599 54.24793180534376 541.0973380335341 # Ar
714 714 1 0.0 175.71438095828728 163.1082416497521 126.4444340157317 # Ar
715 715 1 0.0 450.1305110066914 305.4894959800467 331.15726279509204 # Ar
716 716 1 0.0 77.23877154865384 545.8283746251728 91.11057921636876 # Ar
717 717 1 0.0 25.379431074745817 545.1050095443989 407.42021434819276 # Ar
718 718 1 0.0 163.25803272443 345.79087134843627 466.6162450034267 # Ar
719 719 1 0.0 65.25557781216165 184.20884832655508 441.46783593165895 # Ar
720 720 1 0.0 136.70987997663215 55.34341397879423 14.69002017789905 # Ar
721 721 1 0.0 522.013156871006 503.55719792699193 105.26212868754143 # Ar
722 722 1 0.0 585.8729821395244 358.36801325422414 412.27785493825115 # Ar
723 723 1 0.0 69.28546758800582 537.2510659956437 426.21556745662826 # Ar
724 724 1 0.0 363.54459796272846 232.30696755554848 321.6711688941694 # Ar
725 725 1 0.0 458.65718261716734 171.54946587092164 43.744341188484384 # Ar
726 726 1 0.0 378.3462662988716 595.9929509079759 273.5738800374358 # Ar
727 727 1 0.0 588.9810927097393 34.083274057291895 166.8536872089798 # Ar
728 728 1 0.0 116.37734961117157 16.092304227312535 13.387201078768214 # Ar
729 729 1 0.0 461.8214936409325 438.72669466013446 416.2659110903832 # Ar
730 730 1 0.0 481.4039974054336 57.17171648978491 258.423977091693 # Ar
731 731 1 0.0 17.953515218098158 604.3004091338495 124.17768959611433 # Ar
732 732 1 0.0 235.854908118377 390.2372765521132 347.6578162716259 # Ar
733 733 1 0.0 429.3637140196919 397.64240317546665 598.4147203277743 # Ar
734 734 1 0.0 432.8862851088803 197.19697063749726 287.6146274448984 # Ar
735 735 1 0.0 442.18195355060345 51.52973792183197 199.61412172123505 # Ar
736 736 1 0.0 468.14478840776695 135.19874689820364 419.66989315864794 # Ar
737 737 1 0.0 155.27541586176557 116.35726792703356 502.9617981074769 # Ar
738 738 1 0.0 285.80264941128576 457.62501049136364 6.8520303481512475 # Ar
739 739 1 0.0 608.8701990236111 483.5807696742853 152.75601635979982 # Ar
740 740 1 0.0 516.6372351223622 522.1545306216467 491.9916292035143 # Ar
741 741 1 0.0 133.51649155929258 301.79647924214765 209.0493944614303 # Ar
742 742 1 0.0 358.1263001269412 73.40796218742446 586.066447768588 # Ar
743 743 1 0.0 192.83599106937916 217.27870478881223 131.40986950689188 # Ar
744 744 1 0.0 239.80332162554356 282.94904611935254 352.9176762161198 # Ar
745 745 1 0.0 375.51114378643143 135.743212417596 298.50997028910535 # Ar
746 746 1 0.0 583.1651657260073 612.6280973722858 492.59948186131766 # Ar
747 747 1 0.0 20.811485256461296 557.4134297081252 310.3300399190767 # Ar
748 748 1 0.0 291.60125764503545 436.82159439108045 412.1329460930485 # Ar
749 749 1 0.0 493.4663349863844 113.2119309053102 523.1870830430565 # Ar
750 750 1 0.0 452.6285198687341 106.98047057474204 360.4286331370448 # Ar
751 751 1 0.0 472.1011910639256 492.66745833845783 229.97238305997124 # Ar
752 752 1 0.0 640.4132308673157 16.06741569282884 419.95253216093397 # Ar
753 753 1 0.0 596.1173265240446 38.170912923166036 570.3202161344151 # Ar
754 754 1 0.0 134.08500162651936 75.14426176554393 147.928103483295 # Ar
755 755 1 0.0 266.5012591344304 645.8972985159581 410.06788258660134 # Ar
756 756 1 0.0 497.057273266998 45.671277298878564 24.321558642891862 # Ar
757 757 1 0.0 423.1615574565433 241.64824651173046 221.85541801072873 # Ar
758 758 1 0.0 204.1012831668945 111.38215907359927 456.75484498592635 # Ar
759 759 1 0.0 622.2480405421611 179.81044900553275 485.3315148129952 # Ar
760 760 1 0.0 486.8112173637149 343.85641257371844 22.61516961166244 # Ar
761 761 1 0.0 462.67126644732116 39.04011186373411 633.3331055077641 # Ar
762 762 1 0.0 399.3649733668115 309.6207510633198 272.549458944231 # Ar
763 763 1 0.0 376.84171561632786 554.0192660893248 493.2820198963496 # Ar
764 764 1 0.0 154.58844944664298 392.4444899180925 596.7441306000866 # Ar
765 765 1 0.0 106.58981014457619 130.60848335381047 565.5130987918478 # Ar
766 766 1 0.0 298.6358801509266 142.61926146753788 168.6073184263973 # Ar
767 767 1 0.0 440.54683440667486 348.7627030880957 225.2485720245877 # Ar
768 768 1 0.0 36.62635663222645 164.56135140443564 72.58370092538826 # Ar
769 769 1 0.0 362.7769253814292 501.2985084114183 259.39015300833 # Ar
770 770 1 0.0 375.0129482658056 553.5062109454354 235.95703524280935 # Ar
771 771 1 0.0 166.09298045726376 286.2306035976244 622.8904428304419 # Ar
772 772 1 0.0 321.9030977450128 176.54313375845368 218.20873647117455 # Ar
773 773 1 0.0 168.5878563613222 512.9522301675125 364.1951086844667 # Ar
774 774 1 0.0 169.90969233964978 31.8200837517739 447.7208670919806 # Ar
775 775 1 0.0 36.63978363656684 592.1371059300934 408.8881473364773 # Ar
776 776 1 0.0 266.5512766954163 408.8577875364051 411.05438865669964 # Ar
777 777 1 0.0 283.8644596042143 433.9325334059112 346.73568077529455 # Ar
778 778 1 0.0 597.5533489190448 149.07883712916174 502.67004708689547 # Ar
779 779 1 0.0 546.4101580924553 201.6929700178218 554.4703817144671 # Ar
780 780 1 0.0 308.3126061156079 423.4004413588033 441.9398340226403 # Ar
781 781 1 0.0 553.1001487191766 327.7579318680763 397.11172041266593 # Ar
782 782 1 0.0 47.353703321500305 290.2130975495112 386.74043971497065 # Ar
783 783 1 0.0 504.01445906092744 36.90316919473812 353.5243903194751 # Ar
784 784 1 0.0 404.4735995957003 97.71523263156706 425.41270772437014 # Ar
785 785 1 0.0 307.3470863046594 221.04155325343444 110.74911128352255 # Ar
786 786 1 0.0 291.6442423281994 123.79335678797051 228.10836566385996 # Ar
787 787 1 0.0 392.34290749902533 457.31577152300554 315.0637766375863 # Ar
788 788 1 0.0 319.7757655481639 346.8879181137794 505.18038119914956 # Ar
789 789 1 0.0 484.26841333856083 567.2852088680858 123.87221890571466 # Ar
790 790 1 0.0 596.7990804658076 547.3092855795038 194.45592999329355 # Ar
791 791 1 0.0 345.20412554538495 128.8099331625834 307.6052984244779 # Ar
792 792 1 0.0 612.895530389273 121.47911766726678 591.6375046627824 # Ar
793 793 1 0.0 522.1440574787775 67.06759314711161 572.4139241611352 # Ar
794 794 1 0.0 575.3930638745775 610.6711762591226 328.7198504144093 # Ar
795 795 1 0.0 444.5255812112123 542.1706553387505 195.69821703263767 # Ar
796 796 1 0.0 59.212037156016045 538.2510203729054 628.4124125246157 # Ar
797 797 1 0.0 490.0953341356937 584.4827624354748 105.40399663871446 # Ar
798 798 1 0.0 543.0290151320467 445.53148288348865 213.39648740725457 # Ar
799 799 1 0.0 473.98364886520204 247.55669976807746 280.63525571238984 # Ar
800 800 1 0.0 67.92095477071979 143.29975558065058 574.3207470137389 # Ar
801 801 1 0.0 335.90496188800824 191.7093545419603 123.92674671180224 # Ar
802 802 1 0.0 173.58759865596056 99.79077986717128 603.3074367654156 # Ar
803 803 1 0.0 379.69774091483475 429.2196444244568 328.37754795864527 # Ar
804 804 1 0.0 491.01702065497915 325.44087215162295 580.9558990678568 # Ar
805 805 1 0.0 398.5744598771656 197.3966408140001 441.0485713935774 # Ar
806 806 1 0.0 86.87619746956399 83.292619167917 471.5453669922835 # Ar
807 807 1 0.0 219.96878299955017 57.96962027360359 160.8422223473085 # Ar
808 808 1 0.0 225.35777622527263 126.77904402368715 627.1780243130406 # Ar
809 809 1 0.0 217.938441437874 647.1723959789035 241.4119298172684 # Ar
810 810 1 0.0 347.4158114503129 413.37556883977265 156.59834564090858 # Ar
811 811 1 0.0 102.89433485537417 607.6938579338994 95.46421384565872 # Ar
812 812 1 0.0 197.70495357484396 102.43825437413827 319.41015788228657 # Ar
813 813 1 0.0 99.5833030622289 535.4695071525312 161.29315655556033 # Ar
814 814 1 0.0 386.66646568054756 527.3933272904725 580.9124572337804 # Ar
815 815 1 0.0 364.0597889577541 60.53785166125402 591.507980138542 # Ar
816 816 1 0.0 277.43437685402336 645.2174316677211 530.6376320594128 # Ar
817 817 1 0.0 512.0186112452353 424.7816844524709 447.3378973616611 # Ar
818 818 1 0.0 613.0542308237548 6.351829121688014 212.09296919273805 # Ar
819 819 1 0.0 492.846186733037 74.79541359714156 451.36626195129463 # Ar
820 820 1 0.0 340.5846080012276 411.12803082312485 355.1191838474464 # Ar
821 821 1 0.0 294.53530614470645 551.1273816252101 486.20553729183234 # Ar
822 822 1 0.0 347.3018009458649 94.78874337306698 40.589188711698796 # Ar
823 823 1 0.0 174.13513567089728 523.8953777708471 260.6442964858263 # Ar
824 824 1 0.0 354.1677923064739 100.87899598962454 534.0213452505677 # Ar
825 825 1 0.0 609.4005478679763 492.840011342928 307.55231478381626 # Ar
826 826 1 0.0 555.4687277113762 500.4919603526885 643.4362363220757 # Ar
827 827 1 0.0 417.2127108694831 378.8190483761535 375.5334357912288 # Ar
828 828 1 0.0 419.7253657327213 622.8803920603742 578.1166024711343 # Ar
829 829 1 0.0 101.99621820600126 529.0478949271468 2.6014966954798986 # Ar
830 830 1 0.0 256.12588387744216 405.0767230540205 201.17559040706973 # Ar
831 831 1 0.0 369.86460152147777 437.1941936893093 490.1238259531745 # Ar
832 832 1 0.0 172.27934553917854 408.95725717981253 382.86374261760955 # Ar
833 833 1 0.0 516.3081479094408 547.697113662215 550.4083782244677 # Ar
834 834 1 0.0 387.0537796985572 548.233238381399 26.575146519371728 # Ar
835 835 1 0.0 246.17453439443062 404.6152450443909 318.2457935700565 # Ar
836 836 1 0.0 274.7735533010372 485.7336515571244 45.698922476664706 # Ar
837 837 1 0.0 494.515925164358 286.5141418893439 17.88114230275662 # Ar
838 838 1 0.0 427.49930461329376 581.195757227536 408.47537544702 # Ar
839 839 1 0.0 357.1306553314761 390.1044583965425 354.4040067009955 # Ar
840 840 1 0.0 285.24998116339657 565.9072289289346 627.4260578404975 # Ar
841 841 1 0.0 136.51413545570006 171.94432468076243 290.7632818691113 # Ar
842 842 1 0.0 559.3888009856894 98.39143943969387 62.931708309724776 # Ar
843 843 1 0.0 183.91567620043267 471.3189631478654 342.0547055339326 # Ar
844 844 1 0.0 606.756584231978 378.18060099355597 101.9389660209018 # Ar
845 845 1 0.0 138.84270465122572 16.222931749820635 538.9890644362131 # Ar
846 846 1 0.0 493.9426017884741 583.5378359996465 350.5985172864939 # Ar
847 847 1 0.0 574.0012817233869 41.981904847338946 172.1955842005252 # Ar
848 848 1 0.0 509.4579051960139 239.41416644492426 176.43405759977816 # Ar
849 849 1 0.0 431.4619069034638 524.2668469886777 554.6505381730799 # Ar
850 850 1 0.0 149.25258989210855 118.47261719789088 478.751790079382 # Ar
851 851 1 0.0 75.5898142441241 268.93353417568653 427.0827329267904 # Ar
852 852 1 0.0 55.5865201093906 309.89341996841614 382.63380164149953 # Ar
853 853 1 0.0 263.4636200003257 20.18697593266629 179.52834380375054 # Ar
854 854 1 0.0 246.98778494861347 391.33599763161186 5.012044873326481 # Ar
855 855 1 0.0 82.40730031378997 439.088580643628 548.5436997328253 # Ar
856 856 1 0.0 342.88396216859724 513.8711290442355 73.36701174872448 # Ar
857 857 1 0.0 27.808875850176477 298.16197855440316 76.55346860610393 # Ar
858 858 1 0.0 263.9931258622238 462.74503808990795 517.2561800033089 # Ar
859 859 1 0.0 286.47906307749423 635.4840560705405 30.872492231896302 # Ar
860 860 1 0.0 119.4288362874679 537.9163035351098 608.7197248286564 # Ar
861 861 1 0.0 514.3066295817691 503.4884745665479 262.69021035060854 # Ar
862 862 1 0.0 59.17364251356268 353.6607526283044 361.9981020105634 # Ar
863 863 1 0.0 53.53490337066868 392.16681233241457 632.4286686622322 # Ar
864 864 1 0.0 429.98958145685475 427.64482741742336 633.2785708595605 # Ar
865 865 1 0.0 62.759018120606456 356.37523806136807 531.8177286508984 # Ar
866 866 1 0.0 40.66796313941291 453.1597667987884 388.9618586983102 # Ar
867 867 1 0.0 34.908108553709866 402.32681791225644 166.73886922926633 # Ar
868 868 1 0.0 184.6140138120783 217.25587156748858 166.4166060684657 # Ar
869 869 1 0.0 489.67872162485014 499.4322865368791 619.1026989704427 # Ar
870 870 1 0.0 555.439232988091 374.62284617391185 26.801604249737032 # Ar
871 871 1 0.0 308.81837965806227 382.407316126478 310.1648236104457 # Ar
872 872 1 0.0 375.9619892768898 637.7196706587191 374.9707012977494 # Ar
873 873 1 0.0 204.7254428615505 529.2118228014175 625.4772830233079 # Ar
874 874 1 0.0 521.7713875676816 9.888501768942895 74.09294874343527 # Ar
875 875 1 0.0 476.7521913405571 462.08976896370746 49.22188877665557 # Ar
876 876 1 0.0 65.17507591242779 621.3171340456265 237.9809793511567 # Ar
877 877 1 0.0 47.3257237745045 479.21608987273703 39.757569296499845 # Ar
878 878 1 0.0 414.95236833422865 419.29353889739366 112.32699551285718 # Ar
879 879 1 0.0 252.38333085817638 90.56683579077836 479.3544746629654 # Ar
880 880 1 0.0 479.4599882967832 222.90870128688834 486.1689477828989 # Ar
881 881 1 0.0 438.9911627013491 381.01319266443073 181.4873601653993 # Ar
882 882 1 0.0 277.03910807983476 571.9533604486583 314.3374190431106 # Ar
883 883 1 0.0 374.0406000000479 560.8039127250968 5.654272499195441 # Ar
884 884 1 0.0 569.6895344099698 71.42358536624573 595.3731530291874 # Ar
885 885 1 0.0 509.7106980532259 7.834810112579144 75.26452083556218 # Ar
886 886 1 0.0 263.9282150430747 420.8990233152673 545.196570870437 # Ar
887 887 1 0.0 279.5621403058591 558.5910069060973 15.154004440926073 # Ar
888 888 1 0.0 646.7732030642577 573.2010024228811 10.663509524722208 # Ar
889 889 1 0.0 81.73003390302772 105.1734872747306 372.82093153801634 # Ar
890 890 1 0.0 510.7439835718805 363.6643293034002 554.0282751882119 # Ar
891 891 1 0.0 8.968824295804803 301.558842711223 28.558986514320296 # Ar
892 892 1 0.0 90.00051624612473 512.0379787019117 252.90812320990912 # Ar
893 893 1 0.0 475.1079499288852 115.38439197956014 263.3604256199166 # Ar
894 894 1 0.0 284.13826892848573 600.7483262035569 201.00894756806912 # Ar
895 895 1 0.0 8.384145430759363 277.0668262931769 403.2579040123368 # Ar
896 896 1 0.0 611.6405765885422 59.470133027115885 72.24911844008544 # Ar
897 897 1 0.0 250.6502867649678 403.8965072674999 531.0504461112998 # Ar
898 898 1 0.0 568.9823293519058 281.8587993320082 11.426435223452838 # Ar
899 899 1 0.0 143.08888290063922 519.077750536713 7.15398361834825 # Ar
900 900 1 0.0 625.4184249683227 19.22776831650079 503.5775876439263 # Ar
901 901 1 0.0 158.1744055649116 606.9606575573446 76.06933945151987 # Ar
902 902 1 0.0 465.08780769071484 631.9705498514664 307.96894670427105 # Ar
903 903 1 0.0 281.9372807412834 420.5904947485813 69.60737082602705 # Ar
904 904 1 0.0 382.6327597709771 572.4675732709089 32.35130800550173 # Ar
905 905 1 0.0 372.8104778083679 451.6955610337936 624.5432067425286 # Ar
906 906 1 0.0 75.05255754559245 616.5649028059595 297.4691786468153 # Ar
907 907 1 0.0 645.3701924238609 10.591742918825005 630.3987934014782 # Ar
908 908 1 0.0 326.25418506978923 561.3249715992462 502.7193733342112 # Ar
909 909 1 0.0 87.39504402403487 228.27530076345275 152.5213267179581 # Ar
910 910 1 0.0 96.98153736624113 45.05293820797061 367.87251124124936 # Ar
911 911 1 0.0 404.3756588409769 596.7855235048734 325.1518688046042 # Ar
912 912 1 0.0 33.87867309391139 423.244565782107 455.670277071874 # Ar
913 913 1 0.0 43.356811789625866 514.474075265242 319.51504371271216 # Ar
914 914 1 0.0 553.6765289214586 573.8049765238145 625.2235365502456 # Ar
915 915 1 0.0 610.5515819526261 582.1869510477457 397.38638157083807 # Ar
916 916 1 0.0 303.6202241736725 155.78190765247237 565.5460532571578 # Ar
917 917 1 0.0 159.5657251996511 354.141162246542 552.380193047802 # Ar
918 918 1 0.0 595.3388844642792 423.14343267715844 7.589322584106044 # Ar
919 919 1 0.0 247.68251402930662 125.42534661080175 93.55496887807706 # Ar
920 920 1 0.0 203.19794345022967 475.8837234192353 336.65869021263194 # Ar
921 921 1 0.0 332.2381423882523 336.5047362239573 360.5225094807131 # Ar
922 922 1 0.0 505.878389623533 584.175230921332 98.42992042698093 # Ar
923 923 1 0.0 520.040103160768 395.09246516619794 627.4045452950168 # Ar
924 924 1 0.0 104.61960041955768 90.83483924659738 84.90138347301821 # Ar
925 925 1 0.0 484.75692702370543 460.635273224461 101.27976450642485 # Ar
926 926 1 0.0 139.4540881852209 490.4637045813756 339.9983818966315 # Ar
927 927 1 0.0 243.45553474464865 253.37607907481407 574.9573986722761 # Ar
928 928 1 0.0 169.48578101943372 209.44538645650908 546.3833867973468 # Ar
929 929 1 0.0 523.0482093056448 20.329257530244405 279.0428668110942 # Ar
930 930 1 0.0 424.7245106499087 138.69783331741567 321.2747919086468 # Ar
931 931 1 0.0 578.9771319762035 392.00253658981785 4.541468265674427 # Ar
932 932 1 0.0 218.95731784425666 153.54113251926387 122.17045871544151 # Ar
933 933 1 0.0 137.26930677023898 132.1206523296978 411.24963837773873 # Ar
934 934 1 0.0 418.58849400096614 157.80982609032367 236.39448738263883 # Ar
935 935 1 0.0 455.4303551027337 457.48562212574484 181.4723265499475 # Ar
936 936 1 0.0 7.598001471145654 115.01367544716462 180.6359953465071 # Ar
937 937 1 0.0 89.77563723224675 221.9651346772397 18.4839870893642 # Ar
938 938 1 0.0 104.22238686451729 135.6917538507005 273.8199244498779 # Ar
939 939 1 0.0 128.8434289427385 524.9202978250233 259.46101432978367 # Ar
940 940 1 0.0 8.265241555933253 498.8675154866082 269.2452571919014 # Ar
941 941 1 0.0 229.6715657305955 227.8465319566621 205.13695496710653 # Ar
942 942 1 0.0 320.30779411082636 89.76550739982734 554.5536066379825 # Ar
943 943 1 0.0 168.42362461915428 356.14104221686136 183.15606951293597 # Ar
944 944 1 0.0 353.34090060435284 47.86590662671827 24.356462715730927 # Ar
945 945 1 0.0 35.64515753038967 422.1910649930106 207.55874448610564 # Ar
946 946 1 0.0 57.8792558023856 509.2658511544776 289.8864209483962 # Ar
947 947 1 0.0 177.61277300430808 208.5583723672966 574.7604353634207 # Ar
948 948 1 0.0 323.67974132481163 592.2907939068631 373.2783165220379 # Ar
949 949 1 0.0 290.0218429879195 281.83534366228923 285.1310462699057 # Ar
950 950 1 0.0 480.72451752597175 126.65955235167483 511.82232857966454 # Ar
951 951 1 0.0 468.6561166666525 143.2288321182004 227.84716114344667 # Ar
952 952 1 0.0 384.6932530308952 84.00951415775157 298.0206326573314 # Ar
953 953 1 0.0 60.401575410779515 551.581428420638 552.663343722868 # Ar
954 954 1 0.0 302.22956356433866 587.3220848220044 441.5679442979856 # Ar
955 955 1 0.0 213.18789229313234 35.705904255389946 419.4110781999936 # Ar
956 956 1 0.0 201.53440435005322 307.0886301839678 73.0926189611833 # Ar
957 957 1 0.0 317.7761131401803 227.55774687980565 191.7290035065638 # Ar
958 958 1 0.0 414.842190279154 121.46583208671916 539.2024517936694 # Ar
959 959 1 0.0 306.69432484692203 484.4864899542588 567.9558655548111 # Ar
960 960 1 0.0 401.0359957903285 147.8814984589742 148.12142764182676 # Ar
961 961 1 0.0 588.2089476334171 367.1783436139193 418.9856309457658 # Ar
962 962 1 0.0 451.6428363554317 390.34122459615253 66.79412444891065 # Ar
963 963 1 0.0 317.8501707302384 194.8594378236271 568.7782131771156 # Ar
964 964 1 0.0 357.55987743908054 527.6805686050316 305.8944551750516 # Ar
965 965 1 0.0 308.0826846210853 91.11788454181509 245.2972121084519 # Ar
966 966 1 0.0 23.505696063531836 456.1950580273167 461.1616533145487 # Ar
967 967 1 0.0 561.9821123761495 358.27215435878685 378.43024492504014 # Ar
968 968 1 0.0 410.2084289559044 496.3350411697359 593.3361809391702 # Ar
969 969 1 0.0 296.87499597958544 477.3340658018858 623.2613115808891 # Ar
970 970 1 0.0 622.609577172573 67.18922396452945 564.3107796718167 # Ar
971 971 1 0.0 120.68436806410949 333.4827040159834 16.998631598171105 # Ar
972 972 1 0.0 434.06013004830584 422.06182938728114 543.0530960891346 # Ar
973 973 1 0.0 240.0031117849084 504.80525923221387 97.38613972505269 # Ar
974 974 1 0.0 62.96286083390605 71.75538055058412 145.40922354495004 # Ar
975 975 1 0.0 325.485530779687 147.60082787788463 581.1038262786585 # Ar
976 976 1 0.0 282.47183036361884 121.06645207218942 53.00285417114701 # Ar
977 977 1 0.0 406.69341457720367 183.81572924818425 124.42964826233658 # Ar
978 978 1 0.0 353.6252196927599 74.58610524985897 20.570076736024266 # Ar
979 979 1 0.0 321.80704437866217 0.17036882746052717 105.26778157788468 # Ar
980 980 1 0.0 215.90408757847823 142.8735775837258 517.6068120896797 # Ar
981 981 1 0.0 601.883280801203 541.5752232144512 280.17453217042566 # Ar
982 982 1 0.0 365.81004169771614 259.0409384372466 379.6607048303909 # Ar
983 983 1 0.0 335.08888910885383 82.07386771917086 526.3141324787264 # Ar
984 984 1 0.0 312.74607747681307 98.6850437546678 549.6761145595024 # Ar
985 985 1 0.0 557.3457921909999 161.73441224285824 335.8684884663055 # Ar
986 986 1 0.0 432.79721139842223 287.80845519279103 135.77854343497157 # Ar
987 987 1 0.0 245.6089978827161 56.47327490165404 106.91400205726987 # Ar
988 988 1 0.0 566.8991159557472 72.19814838614927 338.70046514613074 # Ar
989 989 1 0.0 613.8236522024282 223.52006119652975 208.12631151052724 # Ar
990 990 1 0.0 577.1695206450119 147.21557826193134 500.4606373814568 # Ar
991 991 1 0.0 84.63258837888311 600.2694992389843 443.3886406526272 # Ar
992 992 1 0.0 257.108858296009 538.8989425321805 255.19280901876655 # Ar
993 993 1 0.0 396.21492362667885 126.49003018393172 37.42878288093285 # Ar
994 994 1 0.0 501.18799565593645 406.7649265762003 473.58600295372383 # Ar
995 995 1 0.0 28.945151838179214 46.62333495479349 81.4490913361698 # Ar
996 996 1 0.0 397.941766362663 645.6472254995588 330.8088540004364 # Ar
997 997 1 0.0 19.247169680612526 631.2714262915448 371.2756819121639 # Ar
998 998 1 0.0 412.8637489942216 575.8037591686366 82.44243725510174 # Ar
999 999 1 0.0 320.6168310079865 589.3154263888334 301.4377002162431 # Ar
1000 1000 1 0.0 162.86133529254667 435.75482182681264 136.33383972857808 # Ar
1001 1001 1 0.0 39.15860764091824 353.4714579204451 499.88092466302754 # Ar
1002 1002 1 0.0 609.3402061524256 497.45948177826875 87.34760303238649 # Ar
1003 1003 1 0.0 590.9872920527916 302.45245563333157 92.27156173245031 # Ar
1004 1004 1 0.0 280.23919499671564 97.54896426209766 342.3827678446433 # Ar
1005 1005 1 0.0 444.0274213161151 578.3845689979919 528.6129777101003 # Ar
1006 1006 1 0.0 186.5014165704776 523.8620954512995 44.97026909658488 # Ar
1007 1007 1 0.0 528.4646968161941 574.7938690126933 64.01298770917806 # Ar
1008 1008 1 0.0 563.9930780924894 262.5520390816752 492.19747555852433 # Ar
1009 1009 1 0.0 120.83313794929272 620.3995311474501 251.76802659158673 # Ar
1010 1010 1 0.0 261.26611909924276 7.785151344047246 291.48125279367065 # Ar
1011 1011 1 0.0 536.150743180865 397.25709716438917 24.657521751584 # Ar
1012 1012 1 0.0 644.3449725064745 293.78402539372337 35.17960438895738 # Ar
1013 1013 1 0.0 66.99798691063249 389.4317348951572 214.1122391051042 # Ar
1014 1014 1 0.0 513.4351892727412 549.0143641446957 215.87447134594854 # Ar
1015 1015 1 0.0 581.8131250795759 374.92954687745396 148.115706732809 # Ar
1016 1016 1 0.0 105.69140892272344 240.70196630413258 258.35143063652157 # Ar
1017 1017 1 0.0 279.29793560714717 500.43368278962475 578.4545503571152 # Ar
1018 1018 1 0.0 198.72325696128857 474.90548081191656 372.5244892311493 # Ar
1019 1019 1 0.0 1.2845731466024912 198.20092465479544 419.37848053777265 # Ar
1020 1020 1 0.0 70.68494370875423 227.45057622460683 94.28557065655576 # Ar
1021 1021 1 0.0 355.9425693522082 489.7572825664202 245.86814250056122 # Ar
1022 1022 1 0.0 49.174379093193544 40.65167889220225 329.6531673971294 # Ar
1023 1023 1 0.0 620.3860110354575 68.85552399383528 554.298312327647 # Ar
1024 1024 1 0.0 244.96453978903247 3.9329345517637946 2.3127100441396378 # Ar
1025 1025 1 0.0 81.45397478781334 637.4581648139797 434.80577951586343 # Ar
1026 1026 1 0.0 170.65741482560477 612.2648053262145 430.93113743517216 # Ar
1027 1027 1 0.0 124.3366569623318 420.3392663313102 183.8938199923449 # Ar
1028 1028 1 0.0 428.73968288361107 632.1036324806636 548.2395235306773 # Ar
1029 1029 1 0.0 282.75011186821996 205.34500635477693 511.9512509381934 # Ar
1030 1030 1 0.0 304.9254153357535 258.4270961920495 197.4340498772342 # Ar
1031 1031 1 0.0 100.67521859334349 31.637775865481743 569.3330538122414 # Ar
1032 1032 1 0.0 265.4695487670512 210.84579184512006 484.6707559221998 # Ar
1033 1033 1 0.0 158.5971667720977 473.28783865532796 41.85659494636899 # Ar
1034 1034 1 0.0 106.94893409439855 185.9632518697613 561.9205416183082 # Ar
1035 1035 1 0.0 558.4546569874163 440.65719504232555 621.3255846366716 # Ar
1036 1036 1 0.0 0.1202035138125939 37.05226468416237 488.7867758949073 # Ar
1037 1037 1 0.0 336.13186884397015 524.2433678662658 305.4407393179964 # Ar
1038 1038 1 0.0 244.33903101785694 367.5720420291036 134.11657561451736 # Ar
1039 1039 1 0.0 351.4160747033074 555.0057172369069 345.82496121869684 # Ar
1040 1040 1 0.0 634.9379311090013 303.7950413579171 240.38157304449015 # Ar
1041 1041 1 0.0 303.13268521691117 390.7133521442304 468.28534913312944 # Ar
1042 1042 1 0.0 324.29301156544943 532.3485404054237 413.91132520903636 # Ar
1043 1043 1 0.0 622.1037747208559 168.7234925327956 369.45838073950637 # Ar
1044 1044 1 0.0 43.42025764159452 62.103875704280696 350.22057217647216 # Ar
1045 1045 1 0.0 582.0337635706219 220.812010626509 336.9558328335234 # Ar
1046 1046 1 0.0 400.72345940513316 638.3460588871756 123.99796069411587 # Ar
1047 1047 1 0.0 363.94085766993913 276.0714488955056 223.76074228863763 # Ar
1048 1048 1 0.0 34.501295508548246 559.7735858816047 236.44168530654628 # Ar
1049 1049 1 0.0 272.94269866797856 25.56954039416184 262.8989255594768 # Ar
1050 1050 1 0.0 366.4690584569286 15.157302261365576 625.9037111747732 # Ar
1051 1051 1 0.0 196.482980721993 583.9742796539701 228.41986563922185 # Ar
1052 1052 1 0.0 302.9113970980721 192.19351885229744 447.15142668383174 # Ar
1053 1053 1 0.0 53.23297178249277 456.3181323031586 128.16516290179598 # Ar
1054 1054 1 0.0 88.9503990176343 100.42571080083609 108.95061318780269 # Ar
1055 1055 1 0.0 348.67798750167225 126.67044290948388 73.04161896312361 # Ar
1056 1056 1 0.0 550.3429395456542 485.97061516567743 186.7314793783553 # Ar
1057 1057 1 0.0 52.53041890839334 596.7474938226648 188.26237981961648 # Ar
1058 1058 1 0.0 327.3032820609859 12.302843301844879 571.3804721336846 # Ar
1059 1059 1 0.0 130.10918390600273 106.41331610985631 640.6773733743192 # Ar
1060 1060 1 0.0 32.54607315307136 480.9856537406272 168.40623219035567 # Ar
1061 1061 1 0.0 11.414990619109409 582.9650498667075 266.4156580199798 # Ar
1062 1062 1 0.0 194.34420109814636 194.41595919405782 632.8165139287311 # Ar
1063 1063 1 0.0 39.3576646153346 615.159497042018 33.805343545737166 # Ar
1064 1064 1 0.0 605.0615948225503 70.93616298306942 412.0448118960683 # Ar
1065 1065 1 0.0 31.500699303468537 213.1594509592356 332.9066511082275 # Ar
1066 1066 1 0.0 327.70454995182166 403.4600456426063 61.5128122469304 # Ar
1067 1067 1 0.0 450.8166927077005 423.6062988529001 115.5932166262072 # Ar
1068 1068 1 0.0 143.07623766941742 546.0634552023965 492.3919809440049 # Ar
1069 1069 1 0.0 575.4586163265615 226.2760076963361 557.7480191999877 # Ar
1070 1070 1 0.0 103.8781233950649 547.8660391947058 174.41761702341844 # Ar
1071 1071 1 0.0 49.4554317888777 124.6779781833304 262.1267876497432 # Ar
1072 1072 1 0.0 395.16860366994104 573.7094940152806 431.2719053981693 # Ar
1073 1073 1 0.0 373.7107923616519 2.380329359918189 624.9293963943836 # Ar
1074 1074 1 0.0 79.44077386395168 150.95291151187263 493.5508840283311 # Ar
1075 1075 1 0.0 431.07415562143143 302.16063397368845 179.20575527407877 # Ar
1076 1076 1 0.0 47.64429897934475 247.17133102215908 510.19703279262995 # Ar
1077 1077 1 0.0 374.26088417294267 256.4106350668921 488.39907341542147 # Ar
1078 1078 1 0.0 319.3957855234125 161.88947244453138 369.3269310245585 # Ar
1079 1079 1 0.0 402.5643004605215 427.6965556942226 217.09374389472194 # Ar
1080 1080 1 0.0 223.97072340531042 251.8877741248829 103.19245554415215 # Ar
1081 1081 1 0.0 398.51922162082275 224.384802839439 437.6421865394076 # Ar
1082 1082 1 0.0 638.800476763626 648.2453522821579 311.95924848676896 # Ar
1083 1083 1 0.0 42.77661464198169 188.80433159285906 96.3215327283296 # Ar
1084 1084 1 0.0 411.5035137957538 206.98608384007616 565.2971202144352 # Ar
1085 1085 1 0.0 359.8403810472255 350.30557459578864 377.94864084389286 # Ar
1086 1086 1 0.0 237.90245007600564 465.37761098480763 485.78805239512906 # Ar
1087 1087 1 0.0 283.83540035409936 444.2901278390367 406.55878904078116 # Ar
1088 1088 1 0.0 197.72563024278062 306.38680044464417 74.80518512583838 # Ar
1089 1089 1 0.0 571.9715320897463 416.09559402908064 119.43112600082675 # Ar
1090 1090 1 0.0 568.9209801917851 397.53786363512626 473.6602165095123 # Ar
1091 1091 1 0.0 464.195412733234 641.943586577347 529.831048616774 # Ar
1092 1092 1 0.0 418.42105093419167 179.1178119237064 550.5295807819152 # Ar
1093 1093 1 0.0 46.213114560232015 64.43145517053958 70.32323851551244 # Ar
1094 1094 1 0.0 41.47837854524354 360.3691357809521 161.22145480748367 # Ar
1095 1095 1 0.0 271.6724368261357 137.89569121136566 486.6900955753004 # Ar
1096 1096 1 0.0 100.45185431922626 260.1984443260705 435.2593098916785 # Ar
1097 1097 1 0.0 34.54098098033125 306.1574858664044 410.39470292121473 # Ar
1098 1098 1 0.0 180.14843960948372 43.70055395908372 386.6550503764841 # Ar
1099 1099 1 0.0 421.84996797763745 571.5451045362046 110.35937850600395 # Ar
1100 1100 1 0.0 423.97891892404476 11.618321663982904 289.9408819920593 # Ar
1101 1101 1 0.0 494.0322422046138 169.05245936957454 515.1197811182993 # Ar
1102 1102 1 0.0 608.9906211036453 55.28658099275123 567.8537604962593 # Ar
1103 1103 1 0.0 467.8388247345595 57.972479699773075 400.3734730530398 # Ar
1104 1104 1 0.0 597.9504716525491 382.1198586456254 162.1857114626765 # Ar
1105 1105 1 0.0 647.5054853231172 397.3691347438819 233.90094734076854 # Ar
1106 1106 1 0.0 342.4389076840929 404.19231982958536 6.847775852423941 # Ar
1107 1107 1 0.0 348.1121936341509 11.767305715889924 172.2088551355291 # Ar
1108 1108 1 0.0 388.2998527319889 525.5848149137855 352.0726726597599 # Ar
1109 1109 1 0.0 439.96791489172654 51.055318195837685 434.0813873445638 # Ar
1110 1110 1 0.0 247.68258350340204 11.102088908014837 33.42791331889698 # Ar
1111 1111 1 0.0 218.65393461328821 238.43698726348313 70.1257764956881 # Ar
1112 1112 1 0.0 113.27137458425786 457.8815272341992 447.5324140993848 # Ar
1113 1113 1 0.0 268.4367623596818 531.8283460129046 581.4932240870454 # Ar
1114 1114 1 0.0 320.8143259720568 154.09996919804297 489.77891693345447 # Ar
1115 1115 1 0.0 604.4113985858919 128.23420936769972 499.67758518172934 # Ar
1116 1116 1 0.0 500.78250185123187 170.1670285109166 575.2334672144674 # Ar
1117 1117 1 0.0 202.41873716984531 265.1929850726766 169.26136262268352 # Ar
1118 1118 1 0.0 370.96900619216797 419.1679507405108 299.5615628520784 # Ar
1119 1119 1 0.0 532.2029207243213 58.930505224873 454.386028113474 # Ar
1120 1120 1 0.0 375.5901405790259 386.78332847132987 475.2544805743157 # Ar
1121 1121 1 0.0 282.09865764492685 192.23160310663775 293.22258710198065 # Ar
1122 1122 1 0.0 132.13536911876594 118.62699365493278 130.65558419862523 # Ar
1123 1123 1 0.0 421.47777568872505 318.0117096683265 317.3190549840197 # Ar
1124 1124 1 0.0 508.7018250630277 333.7492720831622 3.1910648268205475 # Ar
1125 1125 1 0.0 298.3599304433222 419.49177834296466 258.44390943389885 # Ar
1126 1126 1 0.0 463.5405981859041 567.4501694370581 528.892574822982 # Ar
1127 1127 1 0.0 615.544675308607 410.5543244446134 342.8191618548133 # Ar
1128 1128 1 0.0 591.9405000230537 160.7182372107235 147.6898279579538 # Ar
1129 1129 1 0.0 280.7647577837307 628.7807074933294 339.23156627908594 # Ar
1130 1130 1 0.0 368.70126129783034 586.0632048495861 335.55941169268436 # Ar
1131 1131 1 0.0 165.0342605228193 603.8060525539912 412.26465224837995 # Ar
1132 1132 1 0.0 482.34069306593284 8.508326068380093 599.5804495912826 # Ar
1133 1133 1 0.0 368.30471447679463 403.31241852821194 476.94142193335614 # Ar
1134 1134 1 0.0 606.375000380983 115.05873686516378 613.9356428366182 # Ar
1135 1135 1 0.0 163.69111162378599 193.1453339897154 72.4195274980615 # Ar
1136 1136 1 0.0 363.5427604779535 359.35465473094274 408.4218154453926 # Ar
1137 1137 1 0.0 641.4673021941287 93.56070401373222 134.8110584690434 # Ar
1138 1138 1 0.0 83.62233293381611 320.83480947562845 23.660431138975866 # Ar
1139 1139 1 0.0 40.10753192423705 394.7054115711857 484.3736818911801 # Ar
1140 1140 1 0.0 110.7824367036234 392.7689360300122 276.0813421188819 # Ar
1141 1141 1 0.0 214.4921502892682 565.9182743551683 556.6636176524672 # Ar
1142 1142 1 0.0 173.88513937432492 388.4622959250487 207.98081724106956 # Ar
1143 1143 1 0.0 434.671175109098 260.4619828112896 493.25335432383645 # Ar
1144 1144 1 0.0 595.3681418107313 249.5076779356251 227.80520564198295 # Ar
1145 1145 1 0.0 272.1289485310613 531.669680604812 531.2910116635086 # Ar
1146 1146 1 0.0 14.154106152680924 173.53123027767597 328.48497324365536 # Ar
1147 1147 1 0.0 424.39575185279034 383.22460387907967 114.36011250540169 # Ar
1148 1148 1 0.0 186.12315943412113 248.6175009602193 232.05010335683508 # Ar
1149 1149 1 0.0 120.68346517858343 272.82727332476696 577.7208875965608 # Ar
1150 1150 1 0.0 343.3286647033645 569.5128506667213 558.4257696894828 # Ar
1151 1151 1 0.0 457.85798158360046 196.24380399248156 408.23911784425377 # Ar
1152 1152 1 0.0 514.2202858574133 549.7506587821277 503.0528371659453 # Ar
1153 1153 1 0.0 301.40939180675633 606.5971911570058 44.712965587535535 # Ar
1154 1154 1 0.0 485.1136796427667 594.743545164465 121.68871448925157 # Ar
1155 1155 1 0.0 76.63093551788873 612.3111400756521 89.40363555614957 # Ar
1156 1156 1 0.0 246.05627596210738 429.16113491390394 174.99503398320385 # Ar
1157 1157 1 0.0 412.70642993436667 583.4983587915784 374.08679580982016 # Ar
1158 1158 1 0.0 615.6735041856956 354.64160146410615 582.1041628162357 # Ar
1159 1159 1 0.0 505.25094984517443 523.5080314660613 471.77540229549 # Ar
1160 1160 1 0.0 53.19720442121572 580.2552996659987 288.8666085253766 # Ar
1161 1161 1 0.0 228.4317407074834 418.7718267175555 297.84063091922934 # Ar
1162 1162 1 0.0 131.85720725448772 642.9721888355732 443.8517576372527 # Ar
1163 1163 1 0.0 309.6050487168631 108.01822169577947 272.8450176824782 # Ar
1164 1164 1 0.0 394.59511368413655 236.28048239563037 251.18962391307994 # Ar
1165 1165 1 0.0 214.32057239664852 300.06492110246865 275.76880684989925 # Ar
1166 1166 1 0.0 318.2499829883734 399.96961669061676 647.4432685082692 # Ar
1167 1167 1 0.0 249.70409732826576 237.28290915696581 301.89268870243717 # Ar
1168 1168 1 0.0 531.2838237888672 24.653606060894706 606.0730137522067 # Ar
1169 1169 1 0.0 409.11352442753565 91.62410134770448 604.3412995785635 # Ar
1170 1170 1 0.0 288.9488070712451 300.6615420601414 586.0173187090122 # Ar
1171 1171 1 0.0 532.9493010441031 370.6893170822484 380.9195102797051 # Ar
1172 1172 1 0.0 336.0732626493934 416.79706351503273 564.062320242269 # Ar
1173 1173 1 0.0 133.42797044263637 405.4861933167059 163.8129902932282 # Ar
1174 1174 1 0.0 410.53248513690073 221.43047505925287 73.79566753360704 # Ar
1175 1175 1 0.0 394.412315412212 504.6205680325368 467.04678524693696 # Ar
1176 1176 1 0.0 591.689076725483 431.7562199165584 52.59995620788792 # Ar
1177 1177 1 0.0 373.1477011489293 147.15745246312028 638.1839945833586 # Ar
1178 1178 1 0.0 153.0057169968994 418.0383994704165 499.5242805575988 # Ar
1179 1179 1 0.0 427.93546771657503 630.8085836614891 536.2249218804419 # Ar
1180 1180 1 0.0 263.3003466443887 458.85804939677286 537.1531600798846 # Ar
1181 1181 1 0.0 495.00787948172285 249.00714701879397 223.6537026654891 # Ar
1182 1182 1 0.0 144.52208694409646 144.0032226693726 251.70735254100614 # Ar
1183 1183 1 0.0 168.2756352386133 614.8439503650409 65.03913066025768 # Ar
1184 1184 1 0.0 435.84325846430846 252.9325811039061 413.0886937760696 # Ar
1185 1185 1 0.0 279.39208289106773 13.981197811288231 419.47830545851895 # Ar
1186 1186 1 0.0 152.25215513883597 10.16329395049257 496.82513946023056 # Ar
1187 1187 1 0.0 38.02398576725028 646.5298769097913 278.78511871085686 # Ar
1188 1188 1 0.0 433.2009642423904 274.15110985017833 81.55771877299856 # Ar
1189 1189 1 0.0 412.01884574344547 232.95394222111204 560.4434007696658 # Ar
1190 1190 1 0.0 480.7072778449744 506.0148666874813 234.9219809176604 # Ar
1191 1191 1 0.0 187.16660459345943 302.10985725261185 49.4809250672399 # Ar
1192 1192 1 0.0 474.1908871328987 74.33287085515613 327.91334193443555 # Ar
1193 1193 1 0.0 137.5692569155143 315.0449096917314 560.5713346320911 # Ar
1194 1194 1 0.0 597.1958092230184 13.54728774545628 22.28559663567173 # Ar
1195 1195 1 0.0 84.30679215639793 93.92342537671666 638.6795240893683 # Ar
1196 1196 1 0.0 90.54468854282125 118.53068111624835 413.82900868306393 # Ar
1197 1197 1 0.0 412.1349246139962 513.9627208011551 453.5129159624666 # Ar
1198 1198 1 0.0 620.0327552721556 190.35193494306998 167.95998220049984 # Ar
1199 1199 1 0.0 100.2246803142949 159.80929331624156 552.1254420158641 # Ar
1200 1200 1 0.0 68.5500331416123 169.01584951569353 52.24103463695666 # Ar
1201 1201 1 0.0 55.03339008951379 410.11423473743884 621.85187503554 # Ar
1202 1202 1 0.0 476.78015334868024 119.02656974572942 16.90490553191503 # Ar
1203 1203 1 0.0 610.5311039214293 587.3770682302786 600.1958160774656 # Ar
1204 1204 1 0.0 552.5228414360909 12.819638135637483 164.01572247987852 # Ar
1205 1205 1 0.0 230.44796157155693 165.20755612506304 530.3984171911185 # Ar
1206 1206 1 0.0 38.124484633853804 287.1441214099645 240.4280162106961 # Ar
1207 1207 1 0.0 241.7257001286259 132.94019188239844 633.0346610839587 # Ar
1208 1208 1 0.0 339.75929911180015 280.9552005544691 425.2102670575237 # Ar
1209 1209 1 0.0 399.3410665032845 575.6008933486735 307.8981195028314 # Ar
1210 1210 1 0.0 543.1358569399267 442.3623675705411 344.4652816872606 # Ar
1211 1211 1 0.0 182.16122869157806 300.5894659098145 191.68907108211144 # Ar
1212 1212 1 0.0 312.3295433240191 595.3738468386837 170.73914645580842 # Ar
1213 1213 1 0.0 586.3564168747394 87.55284337232428 319.33957252260655 # Ar
1214 1214 1 0.0 311.2423164171765 455.5927348789696 542.6506535231379 # Ar
1215 1215 1 0.0 636.3696462760487 363.5174251696417 66.73230710152046 # Ar
1216 1216 1 0.0 8.102960114626455 17.310454649706173 511.84935528019656 # Ar
1217 1217 1 0.0 533.6872289337464 74.32024959643282 31.108283323539222 # Ar
1218 1218 1 0.0 173.4648720398708 163.1848723934254 136.01135179821387 # Ar
1219 1219 1 0.0 536.5383232754764 86.15367242422452 502.70362422556633 # Ar
1220 1220 1 0.0 117.16783243048012 415.12649892740546 634.0880740492308 # Ar
1221 1221 1 0.0 93.13131216644415 437.1654334586731 138.5022907363773 # Ar
1222 1222 1 0.0 457.4582490443976 203.1017125268042 592.8157876272691 # Ar
1223 1223 1 0.0 262.5967922845214 47.183052834947 459.1896886045767 # Ar
1224 1224 1 0.0 111.6861592051787 381.5777884040572 437.7546731782927 # Ar
1225 1225 1 0.0 459.3639194920229 160.04438158915738 366.1623834055189 # Ar
1226 1226 1 0.0 287.32724412662157 71.19218949768202 67.71314433319709 # Ar
1227 1227 1 0.0 101.84022617606594 289.4571591412577 171.13013579005673 # Ar
1228 1228 1 0.0 217.63502716101567 307.4821337155904 231.26018873092974 # Ar
1229 1229 1 0.0 622.8880266238816 32.931780032503504 106.80763897097985 # Ar
1230 1230 1 0.0 386.7944176751134 196.15493487079505 351.9039293170125 # Ar
1231 1231 1 0.0 544.2692222769 171.09133866387873 47.42008250628227 # Ar
1232 1232 1 0.0 212.22509234130436 82.9049472772462 35.05230977252262 # Ar
1233 1233 1 0.0 272.94192514138484 177.29929257200064 378.9107163007959 # Ar
1234 1234 1 0.0 27.420313830654365 44.77751245829673 374.36775319847595 # Ar
1235 1235 1 0.0 417.19678321649747 599.305331066382 325.41859629739605 # Ar
1236 1236 1 0.0 185.42795419694477 3.323117712007444 286.69499174396543 # Ar
1237 1237 1 0.0 329.86197724244454 48.36486031520938 447.7531172079231 # Ar
1238 1238 1 0.0 505.96972255517585 50.231166767290595 291.2560359245059 # Ar
1239 1239 1 0.0 509.9989333317761 220.93809473546946 183.29050107615208 # Ar
1240 1240 1 0.0 188.68075219449005 14.831199453708033 100.52936622707303 # Ar
1241 1241 1 0.0 359.30343316690556 295.2815809836595 645.1328337502002 # Ar
1242 1242 1 0.0 594.023406972585 90.42885594845819 599.4154441745458 # Ar
1243 1243 1 0.0 16.114918829705648 327.0646035336159 236.46204154039398 # Ar
1244 1244 1 0.0 210.638599207917 315.17695059858994 550.8276292436321 # Ar
1245 1245 1 0.0 179.8952811156761 298.2318989601435 621.7649851804163 # Ar
1246 1246 1 0.0 362.5655652784908 404.2877783472358 232.51894366100163 # Ar
1247 1247 1 0.0 64.59832557117242 83.40406935758452 72.74766478311588 # Ar
1248 1248 1 0.0 133.98686044338956 273.74582601247374 221.52271147977882 # Ar
1249 1249 1 0.0 289.25551729496004 202.0603914837546 496.31774716259736 # Ar
1250 1250 1 0.0 418.65342810819027 245.36774779079082 198.29844420599855 # Ar
1251 1251 1 0.0 306.35768068081165 150.10323024346278 453.30538608829005 # Ar
1252 1252 1 0.0 208.9740961030713 487.98845722687656 42.86100268403062 # Ar
1253 1253 1 0.0 453.15429791849226 556.4848073309955 516.381517144984 # Ar
1254 1254 1 0.0 444.66980795891095 52.70585278716623 286.88773339910875 # Ar
1255 1255 1 0.0 333.2163806391599 217.07126720118526 568.1336926311972 # Ar
1256 1256 1 0.0 613.3132160302331 57.50960790113214 587.2380676656283 # Ar
1257 1257 1 0.0 574.1878723156101 368.319972051319 536.982565140913 # Ar
1258 1258 1 0.0 198.69642471739616 600.5943972408555 635.4570256692779 # Ar
1259 1259 1 0.0 519.875004106528 230.8238114525944 3.094087750873269 # Ar
1260 1260 1 0.0 223.5967479948269 38.233629627663035 199.32803171599065 # Ar
1261 1261 1 0.0 202.29893838954638 607.543431955256 202.00537889082815 # Ar
1262 1262 1 0.0 635.9894227820536 606.5882318927471 505.7578223724468 # Ar
1263 1263 1 0.0 401.27938087934103 594.3871821550154 3.0086003875041025 # Ar
1264 1264 1 0.0 570.1898249454805 418.39569192482145 372.76557726434515 # Ar
1265 1265 1 0.0 120.67516654333947 251.0380544986364 602.8467476038342 # Ar
1266 1266 1 0.0 338.49633307974256 269.70023637199745 599.7528886126235 # Ar
1267 1267 1 0.0 488.7063832643348 287.42208717005326 558.2760575484234 # Ar
1268 1268 1 0.0 142.82917963260732 182.01273469346876 118.75508379934935 # Ar
1269 1269 1 0.0 355.81701146209446 12.528276117783083 440.38008990471155 # Ar
1270 1270 1 0.0 249.30227324980657 26.26461619420681 469.7516088328119 # Ar
1271 1271 1 0.0 166.19934752730646 516.6298610369352 276.13164622309006 # Ar
1272 1272 1 0.0 453.6208030122001 485.66209018440173 212.06398584682057 # Ar
1273 1273 1 0.0 595.1237826093044 532.3165736220312 481.5971227416153 # Ar
1274 1274 1 0.0 92.69444003524757 298.2077606736087 4.269320112082203 # Ar
1275 1275 1 0.0 634.0992143328168 472.81304948723675 512.3139735272764 # Ar
1276 1276 1 0.0 87.92447855284746 12.359394256272147 129.61923487873045 # Ar
1277 1277 1 0.0 54.576080695620234 306.67106679661373 373.92759742883914 # Ar
1278 1278 1 0.0 499.24790845053036 105.00398165294294 180.35351058010878 # Ar
1279 1279 1 0.0 206.08607238304643 6.196496008816335 163.97432989077512 # Ar
1280 1280 1 0.0 7.240979159197084 295.9426355466176 90.58448815841005 # Ar
1281 1281 1 0.0 492.7581012627124 279.5651670548401 164.56970131342337 # Ar
1282 1282 1 0.0 596.8126607483125 530.7510279575902 22.802133561438506 # Ar
1283 1283 1 0.0 34.08801543426788 295.46493150205265 463.2524842074456 # Ar
1284 1284 1 0.0 249.82565112787717 20.48815668299401 525.0121130182212 # Ar
1285 1285 1 0.0 344.00897387948646 232.2673333069137 580.7030211022794 # Ar
1286 1286 1 0.0 309.7753813207066 207.19821343124548 436.44115066259417 # Ar
1287 1287 1 0.0 570.5179149959465 429.5295126278844 424.5417710262215 # Ar
1288 1288 1 0.0 241.56493093089662 428.4454633209508 369.4832208917 # Ar
1289 1289 1 0.0 105.52179536935307 158.97775104424022 233.26833451956065 # Ar
1290 1290 1 0.0 629.089415795108 81.23079991720499 431.5188645279771 # Ar
1291 1291 1 0.0 511.7266234561556 546.6142246910016 438.3815480806446 # Ar
1292 1292 1 0.0 608.3059957116593 74.60545698505335 523.9494072145183 # Ar
1293 1293 1 0.0 536.6786659058745 164.24768894396837 227.004667646823 # Ar
1294 1294 1 0.0 228.28411412588926 15.243401408873869 384.7164916192059 # Ar
1295 1295 1 0.0 34.560358947293295 444.7375799348362 124.57731361861427 # Ar
1296 1296 1 0.0 571.3452389101407 340.32697148691994 0.8654179127765881 # Ar
1297 1297 1 0.0 462.3848010612933 517.2625822114848 601.2664903956012 # Ar
1298 1298 1 0.0 248.71394113942668 425.3778948492792 62.90437802015512 # Ar
1299 1299 1 0.0 96.4345937009806 567.5598624946878 492.7720278527507 # Ar
1300 1300 1 0.0 59.21091396219981 491.74785792136487 147.4280145166395 # Ar
1301 1301 1 0.0 571.8233255852823 186.84338660466176 297.2306156475186 # Ar
1302 1302 1 0.0 42.52045756686122 212.93578575752278 64.58107563110045 # Ar
1303 1303 1 0.0 177.12253169202182 390.7612167322623 570.7520186572441 # Ar
1304 1304 1 0.0 59.281324827877754 176.30315903267243 488.4239870468494 # Ar
1305 1305 1 0.0 176.13365725942947 628.9243738722653 77.45768918520389 # Ar
1306 1306 1 0.0 466.59810632951854 442.23584922961027 186.48165306026073 # Ar
1307 1307 1 0.0 413.3310354993217 546.7768661859176 420.041278950747 # Ar
1308 1308 1 0.0 388.26679975120527 570.3401412179127 266.9475363424548 # Ar
1309 1309 1 0.0 81.82345847390069 324.39193521694193 278.3406639602179 # Ar
1310 1310 1 0.0 619.2428200375209 588.1836494507853 228.44462727027621 # Ar
1311 1311 1 0.0 590.2325848997617 535.5895843562885 218.38474336026837 # Ar
1312 1312 1 0.0 372.09814219355604 567.4507236145067 385.2595943726978 # Ar
1313 1313 1 0.0 646.1813519123046 212.8265339584683 536.6066692993564 # Ar
1314 1314 1 0.0 27.31448373889476 256.23771015337456 158.3857858984191 # Ar
1315 1315 1 0.0 363.5631918410608 284.0945530692054 152.9548027714622 # Ar
1316 1316 1 0.0 238.0642156772117 25.016730497944856 636.7352826657005 # Ar
1317 1317 1 0.0 366.8218083946283 430.9433279949251 219.8083002538086 # Ar
1318 1318 1 0.0 622.8656593702956 170.17959677799237 227.96947680282483 # Ar
1319 1319 1 0.0 492.9176437804389 123.50974259133696 165.47856894095236 # Ar
1320 1320 1 0.0 464.97137230110445 288.9522275884746 9.74472582014637 # Ar
1321 1321 1 0.0 103.72099230670673 128.82809734797962 400.9399742069239 # Ar
1322 1322 1 0.0 22.324649056734426 50.840547293863956 142.02392044643915 # Ar
1323 1323 1 0.0 152.10258797008845 302.67586280080513 532.172040125027 # Ar
1324 1324 1 0.0 354.4623940031499 493.6285373737564 610.8469707664398 # Ar
1325 1325 1 0.0 94.72972154130963 113.33682209231365 525.161065441229 # Ar
1326 1326 1 0.0 200.2018536213447 568.3158550903261 586.7415501855555 # Ar
1327 1327 1 0.0 421.6454039831151 438.9295259215869 99.17069333020794 # Ar
1328 1328 1 0.0 81.15821536569081 198.5319757433989 207.5533822141586 # Ar
1329 1329 1 0.0 423.40760569001975 526.0580346617758 446.64953882621217 # Ar
1330 1330 1 0.0 362.8210800379294 404.3739425590329 362.75723757727684 # Ar
1331 1331 1 0.0 516.934005411501 74.33752776449892 343.49647346860917 # Ar
1332 1332 1 0.0 329.16840482356105 542.3354782913261 619.8984128745707 # Ar
1333 1333 1 0.0 110.85340458285135 365.930950992423 225.81739601680334 # Ar
1334 1334 1 0.0 364.6603485228974 603.3993241752365 557.3356538330794 # Ar
1335 1335 1 0.0 265.52336843155047 207.97729988969468 161.76553035334192 # Ar
1336 1336 1 0.0 85.37398307996723 83.50024329799686 304.8065405189552 # Ar
1337 1337 1 0.0 172.6614840572115 26.001339495761126 224.58558474939477 # Ar
1338 1338 1 0.0 541.3500328873947 451.62211820847057 245.741601146971 # Ar
1339 1339 1 0.0 587.7009596349518 63.81954864670062 217.32670300768825 # Ar
1340 1340 1 0.0 488.6488492435128 93.73430630341636 83.82364503509916 # Ar
1341 1341 1 0.0 358.078423727815 620.2442487216151 423.5262496355924 # Ar
1342 1342 1 0.0 261.97342747194347 560.7932685633965 261.7683409204794 # Ar
1343 1343 1 0.0 320.68498776697845 610.4948948315019 250.63857772967933 # Ar
1344 1344 1 0.0 505.4922382710554 468.83658295600793 312.2447538375398 # Ar
1345 1345 1 0.0 253.9943453543758 328.99907194474275 471.8639823997443 # Ar
1346 1346 1 0.0 633.5624800047553 601.1136127898488 223.4766761803297 # Ar
1347 1347 1 0.0 567.1450980344339 34.696005336721484 488.9013103683982 # Ar
1348 1348 1 0.0 197.30942657650772 519.6571347786263 523.1621309252221 # Ar
1349 1349 1 0.0 279.8511453424918 90.16051005006146 523.3430710179018 # Ar
1350 1350 1 0.0 57.8722247172315 434.9464829652046 64.2112714963089 # Ar
1351 1351 1 0.0 370.61312257738354 109.54093522382409 79.69360731924196 # Ar
1352 1352 1 0.0 271.095591254725 191.7022567426675 320.8393941265729 # Ar
1353 1353 1 0.0 179.25421920997584 209.25435499426476 27.10951234289028 # Ar
1354 1354 1 0.0 191.07839109291393 39.625720313673156 206.77096204269895 # Ar
1355 1355 1 0.0 292.48219425357894 224.3595828241165 493.7520326285427 # Ar
1356 1356 1 0.0 8.960330253868714 454.97420375593015 103.70361223446214 # Ar
1357 1357 1 0.0 27.84477994603423 83.63479423305168 344.35803432325173 # Ar
1358 1358 1 0.0 362.7349649520208 255.73942806605567 260.43796954754526 # Ar
1359 1359 1 0.0 241.8138404758194 14.87578929493238 193.5956830243479 # Ar
1360 1360 1 0.0 205.4724483761441 86.0229507906119 59.02243873066057 # Ar
1361 1361 1 0.0 640.4896615571269 321.2150609340777 290.59087850965483 # Ar
1362 1362 1 0.0 522.9112095455886 214.5138613951018 557.3340344217328 # Ar
1363 1363 1 0.0 391.3695747543344 300.03874045879553 389.3503351327023 # Ar
1364 1364 1 0.0 134.63591574493907 461.3008423139155 410.5964807201837 # Ar
1365 1365 1 0.0 422.3870314770254 407.4681393594602 190.15612706437918 # Ar
1366 1366 1 0.0 381.0791650169218 273.7723019145834 560.0938462759137 # Ar
1367 1367 1 0.0 217.1358336984514 559.0746593302156 506.9075297855292 # Ar
1368 1368 1 0.0 5.27414779387061 77.4159353044329 60.597689970504106 # Ar
1369 1369 1 0.0 614.5848767686467 529.6617481387001 63.92356595432637 # Ar
1370 1370 1 0.0 31.728196410332593 395.5020038760424 518.0808475657443 # Ar
1371 1371 1 0.0 154.30976489004314 185.674783106971 274.15008225166883 # Ar
1372 1372 1 0.0 537.0159537550312 601.438257264978 339.0319720753005 # Ar
1373 1373 1 0.0 93.69030726642902 22.11527288633367 86.46125826311395 # Ar
1374 1374 1 0.0 162.97581968042036 355.8958774911303 94.05736275099873 # Ar
1375 1375 1 0.0 265.35648032206666 313.61683437673366 388.31584833711645 # Ar
1376 1376 1 0.0 204.9723306896391 425.3875271740947 227.11196967666683 # Ar
1377 1377 1 0.0 469.3695346738131 124.17658005169933 260.1890240856252 # Ar
1378 1378 1 0.0 215.63202463866014 619.6502896986533 441.6266864114898 # Ar
1379 1379 1 0.0 610.1943129432154 104.9217754038153 424.23346755391987 # Ar
1380 1380 1 0.0 554.4807019752669 269.7718457811072 121.83451521446419 # Ar
1381 1381 1 0.0 7.595601998706471 599.7697064526808 239.38670800524733 # Ar
1382 1382 1 0.0 626.328588493616 426.2093393053635 56.95571364487211 # Ar
1383 1383 1 0.0 47.301867075646435 10.910143300396562 27.509401443078193 # Ar
1384 1384 1 0.0 174.86562232121673 556.9033371428989 282.03910961828 # Ar
1385 1385 1 0.0 433.3084317731296 641.5897072712683 196.28006773627098 # Ar
1386 1386 1 0.0 476.1795243156638 556.1935295810115 25.84054816924896 # Ar
1387 1387 1 0.0 625.6725210690859 14.419841431272381 113.48710759392613 # Ar
1388 1388 1 0.0 48.488361112677154 278.4927771965723 595.5506266342396 # Ar
1389 1389 1 0.0 610.31931859357 113.89056664187186 576.5125823943165 # Ar
1390 1390 1 0.0 442.9432251500767 342.59973552339534 528.8948821600942 # Ar
1391 1391 1 0.0 358.16442850461544 408.9687997188037 40.40984996426268 # Ar
1392 1392 1 0.0 437.6834223873629 453.764190423696 94.37631430911976 # Ar
1393 1393 1 0.0 404.33622796022365 44.83034162790249 551.0986015755174 # Ar
1394 1394 1 0.0 116.5785369184277 614.3907769003298 566.2585866911118 # Ar
1395 1395 1 0.0 297.8076325162564 446.502775688858 159.81075176440947 # Ar
1396 1396 1 0.0 518.1893351129345 523.5405035214961 235.0229512245177 # Ar
1397 1397 1 0.0 345.4403437991125 554.5902161055452 123.9916588903428 # Ar
1398 1398 1 0.0 354.39634109726137 258.96075063732565 307.80511975201154 # Ar
1399 1399 1 0.0 323.58897805527215 532.8533117378381 630.7139461471567 # Ar
1400 1400 1 0.0 4.224243151603833 533.0419712872466 423.52041254040086 # Ar
1401 1401 1 0.0 253.3345051979156 165.64901199932623 278.56205399244357 # Ar
1402 1402 1 0.0 31.284565619604198 539.1213096354037 476.63150138130874 # Ar
1403 1403 1 0.0 358.0873188170497 426.1808064913679 182.01183587554183 # Ar
1404 1404 1 0.0 119.595250065207 0.36637844816803483 68.48995813457782 # Ar
1405 1405 1 0.0 448.662053622095 274.09359801366855 102.43219896548877 # Ar
1406 1406 1 0.0 530.7389059102841 380.272588700758 52.12426926892848 # Ar
1407 1407 1 0.0 172.44151227262245 97.91143839014472 182.3927792649065 # Ar
1408 1408 1 0.0 127.26105385040643 603.8970058465018 550.6515213300446 # Ar
1409 1409 1 0.0 499.86648387004027 288.4759778820711 249.99326390915311 # Ar
1410 1410 1 0.0 328.04440012462595 109.15998682405792 25.676353586656454 # Ar
1411 1411 1 0.0 212.7474669977285 272.2992754801613 425.52931085895256 # Ar
1412 1412 1 0.0 281.5629336720969 363.385387726931 473.52899246236603 # Ar
1413 1413 1 0.0 55.28824096278755 101.66089493086902 539.8300235312944 # Ar
1414 1414 1 0.0 458.45269657722923 305.06834539105824 148.84944842679133 # Ar
1415 1415 1 0.0 497.2427977887913 484.0003437555076 298.7656993366567 # Ar
1416 1416 1 0.0 349.60178251770026 429.8810072128343 271.02202332537234 # Ar
1417 1417 1 0.0 275.791840993978 592.601289471244 262.6850973097795 # Ar
1418 1418 1 0.0 462.0179851153819 65.85586564306014 130.32194226716481 # Ar
1419 1419 1 0.0 278.00775135801473 616.2389094412091 603.6492737276861 # Ar
1420 1420 1 0.0 421.2178954147955 102.59212370165022 135.99317607832845 # Ar
1421 1421 1 0.0 529.2634101910919 616.3378726040365 208.3776194262368 # Ar
1422 1422 1 0.0 360.94091285239244 485.2736525525979 615.2966146619493 # Ar
1423 1423 1 0.0 448.286394271639 199.32149105266183 149.86199875521643 # Ar
1424 1424 1 0.0 167.91111925543217 325.23622062240185 386.5445321938958 # Ar
1425 1425 1 0.0 352.34473307410747 313.4671708127151 14.168434681872911 # Ar
1426 1426 1 0.0 203.39449691633695 104.85181860787787 413.3746712909544 # Ar
1427 1427 1 0.0 56.41542859194375 166.52201716187423 45.41755144425469 # Ar
1428 1428 1 0.0 309.3091930650854 390.91544213537713 180.97832073514837 # Ar
1429 1429 1 0.0 409.5370839111986 521.1787591769018 264.4047825681512 # Ar
1430 1430 1 0.0 620.6807286573504 319.57404658926737 177.42465735362487 # Ar
1431 1431 1 0.0 65.52522729278873 269.0106798010204 112.73904275033205 # Ar
1432 1432 1 0.0 295.14969071159925 170.8023384682098 415.2899880706506 # Ar
1433 1433 1 0.0 551.5039774986124 125.5224648269341 422.2099755281303 # Ar
1434 1434 1 0.0 378.1643346238016 56.32891474089272 490.0274542323131 # Ar
1435 1435 1 0.0 273.75791830849636 296.0619150393787 97.86889168179962 # Ar
1436 1436 1 0.0 483.59085523782323 7.326777510424498 246.43955140314895 # Ar
1437 1437 1 0.0 416.30122663160097 160.09607863068254 216.35588219010754 # Ar
1438 1438 1 0.0 10.051117232628053 234.5615754509983 78.82861680592211 # Ar
1439 1439 1 0.0 305.9366703405132 31.2475332626889 212.8434487385338 # Ar
1440 1440 1 0.0 373.19282595027636 497.7930378909339 196.59385999550895 # Ar
1441 1441 1 0.0 487.90897596448997 314.87399076213 154.92769607367754 # Ar
1442 1442 1 0.0 611.3633979290659 281.1223766205061 11.438630263957627 # Ar
1443 1443 1 0.0 323.8239926706126 302.841049351875 276.12052068215735 # Ar
1444 1444 1 0.0 634.6202321107747 90.73896445690727 285.2638029140181 # Ar
1445 1445 1 0.0 301.47270365301506 181.6621096521331 584.5637042304671 # Ar
1446 1446 1 0.0 528.5812777048071 292.7150131113818 620.9894871190851 # Ar
1447 1447 1 0.0 586.9204228817921 422.79608718007336 245.48761647848377 # Ar
1448 1448 1 0.0 207.82710500027633 173.85619320696526 44.20345069434232 # Ar
1449 1449 1 0.0 623.5135952757581 228.2747121426983 223.43289941083003 # Ar
1450 1450 1 0.0 617.1222437606009 406.9604283031802 222.88755286144536 # Ar
1451 1451 1 0.0 572.4526718957709 278.75719774780345 441.5470167006193 # Ar
1452 1452 1 0.0 106.56576651244967 631.0689962939175 367.0032475604553 # Ar
1453 1453 1 0.0 455.4500606883764 266.19095315685706 41.303979163937115 # Ar
1454 1454 1 0.0 241.1867638670928 352.11381833720867 588.2410171951192 # Ar
1455 1455 1 0.0 128.97582382845454 217.85012973342177 75.78083275029435 # Ar
1456 1456 1 0.0 74.6472845386192 322.0176109556696 68.90938931123914 # Ar
1457 1457 1 0.0 67.42738610220948 200.49907524749926 598.7292034401102 # Ar
1458 1458 1 0.0 526.1153682105704 599.6330111565882 456.4211100539812 # Ar
1459 1459 1 0.0 615.5947110481505 346.6782222703316 271.46795291271707 # Ar
1460 1460 1 0.0 643.6067682282302 262.51935881718833 612.8388285275845 # Ar
1461 1461 1 0.0 79.6581733564537 14.125146512847042 532.2701279547624 # Ar
1462 1462 1 0.0 554.891448363702 146.3413461168397 526.7883295578376 # Ar
1463 1463 1 0.0 238.71806291851038 350.4184303406275 4.691776057147267 # Ar
1464 1464 1 0.0 260.8680586244546 582.6257798647063 297.0896747271062 # Ar
1465 1465 1 0.0 524.7417773282632 478.3069457818091 286.6862943979624 # Ar
1466 1466 1 0.0 419.0257903262432 641.0099113955208 239.11926048000663 # Ar
1467 1467 1 0.0 633.2811366142707 139.3046436674329 429.46391217898866 # Ar
1468 1468 1 0.0 503.6919135532185 433.64954838594093 579.3126698870852 # Ar
1469 1469 1 0.0 343.1721908109932 619.8483249067542 298.6772376988891 # Ar
1470 1470 1 0.0 494.5149764572665 410.30276938823397 507.48735365850047 # Ar
1471 1471 1 0.0 480.91867442880687 539.8067349952784 438.5231278591035 # Ar
1472 1472 1 0.0 316.25762801156594 250.39753102040098 132.7418755974057 # Ar
1473 1473 1 0.0 409.90486900935485 14.282512393832624 378.524647612365 # Ar
1474 1474 1 0.0 276.6837140333982 400.73474886120846 408.8690426262197 # Ar
1475 1475 1 0.0 557.8464034877854 286.393038386598 231.12256564047016 # Ar
1476 1476 1 0.0 217.66482582961297 178.89863883763547 364.0186365640482 # Ar
1477 1477 1 0.0 578.4794189529214 67.55092003052586 462.8041980411858 # Ar
1478 1478 1 0.0 383.43111250539295 38.092689261559684 579.9161432560286 # Ar
1479 1479 1 0.0 444.4767515683648 587.0314472761672 205.74812102916883 # Ar
1480 1480 1 0.0 21.038850771021682 483.7478628066101 303.58330687497937 # Ar
1481 1481 1 0.0 351.3174550930569 370.658008118059 83.6495553892303 # Ar
1482 1482 1 0.0 585.5464525307118 315.71900313665196 183.24672619695363 # Ar
1483 1483 1 0.0 593.6435519988928 493.7937078316938 399.9767561322197 # Ar
1484 1484 1 0.0 616.6961791468729 232.03605311160814 621.5806467730571 # Ar
1485 1485 1 0.0 647.8034415012755 279.3360330617243 227.4713094210091 # Ar
1486 1486 1 0.0 213.32904882989817 115.62243582006765 91.61200473219395 # Ar
1487 1487 1 0.0 339.9433415275067 89.45053667069661 609.3708787826594 # Ar
1488 1488 1 0.0 623.524494666984 7.8881621435561184 159.95693046458226 # Ar
1489 1489 1 0.0 228.11820134634087 152.85829447253354 262.9646265623303 # Ar
1490 1490 1 0.0 556.3929999220192 536.1690797984044 353.02471996958604 # Ar
1491 1491 1 0.0 241.56247165885623 97.9196508676996 265.52665147285904 # Ar
1492 1492 1 0.0 83.68895948615216 41.04661060036505 442.9261315795012 # Ar
1493 1493 1 0.0 470.93512287911585 468.7022477650928 516.0124377305572 # Ar
1494 1494 1 0.0 210.0855888262425 484.83953542270086 365.34808980519716 # Ar
1495 1495 1 0.0 198.79872813075488 492.54747751903807 504.23170276859935 # Ar
1496 1496 1 0.0 373.5712153082995 34.22907720188607 69.21206978656163 # Ar
1497 1497 1 0.0 493.9660574859358 55.777866714132784 601.9602705847657 # Ar
1498 1498 1 0.0 139.79342459797917 622.4942847828853 20.54520451807244 # Ar
1499 1499 1 0.0 11.75831901808757 90.65516995945745 328.1886555302054 # Ar
1500 1500 1 0.0 612.5899060177879 422.5407558366358 206.0832570164109 # Ar
1501 1501 1 0.0 508.47142402066726 556.9446829348898 256.55137930928385 # Ar
1502 1502 1 0.0 494.4772997532926 150.4212094936106 169.1065520450577 # Ar
1503 1503 1 0.0 205.35276311720466 193.80315415547128 479.54614991874894 # Ar
1504 1504 1 0.0 276.30987268878994 328.14746744554435 239.94523853087657 # Ar
1505 1505 1 0.0 7.871300557452669 388.28637726222047 294.8743057530481 # Ar
1506 1506 1 0.0 457.9146402438415 175.50609971029013 186.92663109486355 # Ar
1507 1507 1 0.0 445.42944694776673 404.0156943011579 629.2274846467421 # Ar
1508 1508 1 0.0 90.50617331707876 255.91984437140664 276.2111034983967 # Ar
1509 1509 1 0.0 634.759840492582 147.38980679641767 51.23985482208977 # Ar
1510 1510 1 0.0 490.03006947936103 513.4790994493364 509.9414031037416 # Ar
1511 1511 1 0.0 298.65252697533634 532.997790176193 534.1481897190952 # Ar
1512 1512 1 0.0 229.19179616386617 467.7908467170976 576.8693824862164 # Ar
1513 1513 1 0.0 353.6576829471745 639.1370238441126 294.224241984965 # Ar
1514 1514 1 0.0 434.9796400757867 413.4025220620078 479.8896043725345 # Ar
1515 1515 1 0.0 82.44460626960428 557.3188080950764 334.61021423201373 # Ar
1516 1516 1 0.0 0.2763490549308732 83.34336431296855 325.33602242301026 # Ar
1517 1517 1 0.0 316.5615606095366 194.85913059851532 36.45918370523785 # Ar
1518 1518 1 0.0 561.8512491877292 153.13866062771402 344.4276586434958 # Ar
1519 1519 1 0.0 587.4635926393555 156.43508186161858 156.04966705787126 # Ar
1520 1520 1 0.0 165.7060618072934 406.6208317561474 150.7826432942044 # Ar
1521 1521 1 0.0 251.32699720083002 602.2687472441849 396.72286997066766 # Ar
1522 1522 1 0.0 376.4060738772233 53.91107330097634 138.4193857823073 # Ar
1523 1523 1 0.0 21.092904471820813 603.1858576967865 551.4497050748348 # Ar
1524 1524 1 0.0 367.95839580258706 468.71766090053075 446.5694309243333 # Ar
1525 1525 1 0.0 308.8637297315714 289.43787148167155 581.8183537525889 # Ar
1526 1526 1 0.0 136.6488978787494 435.96155645161906 18.200981710700262 # Ar
1527 1527 1 0.0 137.3486591968868 412.84550010602885 22.170613769167016 # Ar
1528 1528 1 0.0 495.7674801056782 153.21420408579345 319.7167686803436 # Ar
1529 1529 1 0.0 178.4366074789021 617.4369222514948 105.93612736029547 # Ar
1530 1530 1 0.0 574.7705438544446 292.9025122154415 408.2234436723386 # Ar
1531 1531 1 0.0 252.84468047551488 530.7750425866227 401.00158709328554 # Ar
1532 1532 1 0.0 138.2403408395632 181.60178941219345 264.02070817872186 # Ar
1533 1533 1 0.0 361.7516898419272 23.166182306255497 557.681379125792 # Ar
1534 1534 1 0.0 33.52349378606814 315.7891706140016 602.6033082035366 # Ar
1535 1535 1 0.0 228.08874506464005 273.63063964234533 138.68439027017698 # Ar
1536 1536 1 0.0 87.42141366575558 566.0594340722085 376.06862472064495 # Ar
1537 1537 1 0.0 207.23118922121475 266.5917040868627 371.8072199371033 # Ar
1538 1538 1 0.0 293.6391315323922 477.6839977448739 472.36401466559886 # Ar
1539 1539 1 0.0 350.2842571607247 21.874552461382645 445.8115505829048 # Ar
1540 1540 1 0.0 602.9624021281113 75.16898525399714 201.39399518982628 # Ar
1541 1541 1 0.0 320.0451502878181 64.59994678559534 145.00931704074904 # Ar
1542 1542 1 0.0 35.47449487820714 186.5525556425526 239.22544098424575 # Ar
1543 1543 1 0.0 265.7771246696213 143.55537366894856 241.63155096974876 # Ar
1544 1544 1 0.0 234.38879303752557 121.9494685440031 468.5059054998808 # Ar
1545 1545 1 0.0 434.2989854933657 231.08121018305266 634.3837326552091 # Ar
1546 1546 1 0.0 587.232071519591 319.4093403147605 297.99352405980255 # Ar
1547 1547 1 0.0 580.2734275738767 563.8408333351914 465.3323711109761 # Ar
1548 1548 1 0.0 390.9597077550058 170.56665810467 351.1231627365286 # Ar
1549 1549 1 0.0 166.06644661742862 167.90240925840396 441.16992554592355 # Ar
1550 1550 1 0.0 280.1491708714765 177.72289863642757 314.3071778256166 # Ar
1551 1551 1 0.0 199.01065485097513 26.57431534790945 290.20514797253963 # Ar
1552 1552 1 0.0 160.6377230717895 362.2587419373265 155.14681934088233 # Ar
1553 1553 1 0.0 163.61952470769654 581.6797546845019 591.0806961601548 # Ar
1554 1554 1 0.0 436.17140033496935 255.1205014877306 282.8346757966247 # Ar
1555 1555 1 0.0 346.6366923137887 81.6270224059577 426.82697319270494 # Ar
1556 1556 1 0.0 385.9267159103516 311.53974320390836 16.68689778937017 # Ar
1557 1557 1 0.0 298.9379043629446 123.14563807339121 140.23470050612667 # Ar
1558 1558 1 0.0 11.425056990438671 365.77133425790413 504.8823005363153 # Ar
1559 1559 1 0.0 34.399606172305305 274.483812881969 379.56550918707967 # Ar
1560 1560 1 0.0 495.23153592758865 588.8767607411942 618.5393047629395 # Ar
1561 1561 1 0.0 141.05717771151708 323.2144083437304 433.502373358981 # Ar
1562 1562 1 0.0 316.5960363595984 120.2861794922313 533.7699225699316 # Ar
1563 1563 1 0.0 336.7805237117143 41.9628912914856 328.52988415064647 # Ar
1564 1564 1 0.0 252.7740065083661 95.64809810560747 109.11198314392037 # Ar
1565 1565 1 0.0 8.509273890723128 514.861998921784 362.736399415895 # Ar
1566 1566 1 0.0 135.8753992937042 418.27348572813713 520.7954166593928 # Ar
1567 1567 1 0.0 374.2230781007126 593.830302855995 541.4507622876515 # Ar
1568 1568 1 0.0 345.25529576010075 532.4655219380375 163.8517264125106 # Ar
1569 1569 1 0.0 381.71847400961786 538.2330526924142 235.216784029095 # Ar
1570 1570 1 0.0 564.7562276333404 615.5663365379776 49.153352364230955 # Ar
1571 1571 1 0.0 62.957134102041195 38.74788160593195 539.409041892479 # Ar
1572 1572 1 0.0 416.365728320023 609.0590198810689 162.30202511163043 # Ar
1573 1573 1 0.0 199.8739413554273 80.8985076564438 352.3914042269758 # Ar
1574 1574 1 0.0 262.7135354163431 61.6825166625885 92.14556912877224 # Ar
1575 1575 1 0.0 123.91341249433694 615.9009863792822 43.737688151619665 # Ar
1576 1576 1 0.0 153.00285449841877 276.7849867369451 307.314118481615 # Ar
1577 1577 1 0.0 344.2774430374382 68.5846662369289 574.8456956776521 # Ar
1578 1578 1 0.0 395.0879712478146 133.43213005861966 3.5393317005431006 # Ar
1579 1579 1 0.0 382.0089810319039 540.9283769320515 61.30571267053176 # Ar
1580 1580 1 0.0 195.31190394676608 367.32997702206836 520.73565099516 # Ar
1581 1581 1 0.0 623.0132547988732 11.587567115638825 458.79763576268795 # Ar
1582 1582 1 0.0 70.24223990278824 635.2501075959027 596.7127351345823 # Ar
1583 1583 1 0.0 57.1380523232772 94.68753957343688 500.15572007735227 # Ar
1584 1584 1 0.0 267.1867425952829 524.4524856904887 634.3253597269992 # Ar
1585 1585 1 0.0 53.727655945990165 629.8150943056999 260.4183381866402 # Ar
1586 1586 1 0.0 423.5938357238646 452.04735039514605 474.9151527766581 # Ar
1587 1587 1 0.0 446.0785528070611 507.2501256322668 635.0118479838758 # Ar
1588 1588 1 0.0 60.42064930239945 559.7691719141905 2.7803755267018784 # Ar
1589 1589 1 0.0 75.9970917318959 468.4251006095902 181.50581655632303 # Ar
1590 1590 1 0.0 316.25203767944254 177.0378793615562 577.2611406589294 # Ar
1591 1591 1 0.0 516.1630676512593 254.1799494842258 52.09972875957163 # Ar
1592 1592 1 0.0 78.430756485587 48.247065680750744 380.7468617350955 # Ar
1593 1593 1 0.0 126.51447818268085 533.07712595239 463.027978571635 # Ar
1594 1594 1 0.0 252.30588575499195 436.25029198913245 84.87040109028212 # Ar
1595 1595 1 0.0 432.75571107545943 359.4261485124297 604.8361630236072 # Ar
1596 1596 1 0.0 570.0367551212069 95.3977346376424 278.23043033341776 # Ar
1597 1597 1 0.0 184.75683204501186 218.55920729751125 359.4403656281115 # Ar
1598 1598 1 0.0 308.2555022964954 508.9070575498411 234.11587833502372 # Ar
1599 1599 1 0.0 519.7746008560359 496.5316671130558 451.6571056541972 # Ar
1600 1600 1 0.0 625.7455376287874 267.8046328170133 299.84987643302196 # Ar
1601 1601 1 0.0 544.6076229527334 378.859466897136 92.51466037804322 # Ar
1602 1602 1 0.0 282.9498523727247 197.79083727117234 285.93882131864905 # Ar
1603 1603 1 0.0 526.1621911102195 396.8730416729939 452.08645632120545 # Ar
1604 1604 1 0.0 598.1832007146598 36.267481450280336 123.63067758748244 # Ar
1605 1605 1 0.0 65.14347533668611 369.114180243715 395.0968180286717 # Ar
1606 1606 1 0.0 585.5048578898945 167.9179514795494 320.9968001433723 # Ar
1607 1607 1 0.0 46.433786556165316 8.205170860205381 40.35773691689597 # Ar
1608 1608 1 0.0 403.32562032609445 256.1310367724878 206.66246483740525 # Ar
1609 1609 1 0.0 85.07232576510299 511.69662771186927 358.59899139085235 # Ar
1610 1610 1 0.0 387.98896812681534 79.28886654028418 156.38213893464908 # Ar
1611 1611 1 0.0 116.37762949120011 192.433987702175 473.63776780149817 # Ar
1612 1612 1 0.0 266.96832976971064 96.86311679801572 626.8768883715508 # Ar
1613 1613 1 0.0 87.19336488505621 549.3016468298359 168.68773869437882 # Ar
1614 1614 1 0.0 177.0015242384741 121.7905602762938 363.8973288340037 # Ar
1615 1615 1 0.0 607.4009181793688 581.8691131162152 257.8707726451926 # Ar
1616 1616 1 0.0 23.66866023502437 330.7033281677585 515.8546131795335 # Ar
1617 1617 1 0.0 610.4537189784213 525.7787956640626 76.64729063381247 # Ar
1618 1618 1 0.0 64.88615628343436 534.1058755582599 26.44572978809785 # Ar
1619 1619 1 0.0 620.2671601448452 292.2087820672104 345.9769582025539 # Ar
1620 1620 1 0.0 295.4838148833827 88.26288365453264 157.89475126220114 # Ar
1621 1621 1 0.0 463.617909089824 190.156153788475 385.5250087816671 # Ar
1622 1622 1 0.0 197.8584426931302 103.94972886693363 300.4276195427784 # Ar
1623 1623 1 0.0 284.00539151830895 163.7076914144769 62.523050426283255 # Ar
1624 1624 1 0.0 29.959316650027098 467.55789784691314 350.3849812701694 # Ar
1625 1625 1 0.0 80.48776444828523 127.74228854680085 185.2849983463511 # Ar
1626 1626 1 0.0 425.21889868140835 431.5746706352124 256.92534031039935 # Ar
1627 1627 1 0.0 258.25978716523196 588.3662866763547 200.03507442569918 # Ar
1628 1628 1 0.0 24.316818076588277 449.36826901151966 452.35092753920804 # Ar
1629 1629 1 0.0 491.17396475782397 375.3536655256426 587.00972508005 # Ar
1630 1630 1 0.0 136.50902345046248 634.9788823064537 553.4903768656794 # Ar
1631 1631 1 0.0 88.54248846376137 176.16301723546832 400.5064258455515 # Ar
1632 1632 1 0.0 94.87698872818338 265.9563459685963 425.6799212970907 # Ar
1633 1633 1 0.0 69.0253608583693 502.9776715504538 632.7052269449252 # Ar
1634 1634 1 0.0 36.5250282664366 290.9417686515186 202.7355133642995 # Ar
1635 1635 1 0.0 248.48892445999417 22.253639455980522 98.40354017712548 # Ar
1636 1636 1 0.0 513.5328754013605 8.119481086682155 579.3272713106805 # Ar
1637 1637 1 0.0 259.28390993288104 9.31543300132974 129.5174728765523 # Ar
1638 1638 1 0.0 468.92304175543785 422.97143617495306 281.5250979928214 # Ar
1639 1639 1 0.0 20.0988749656035 381.8396426223742 150.42200198018102 # Ar
1640 1640 1 0.0 372.98380979982437 512.2967602991846 152.6323996529679 # Ar
1641 1641 1 0.0 371.4416239738213 566.0564144671139 446.50367296955545 # Ar
1642 1642 1 0.0 471.95934524458323 140.09870052465217 205.0206785518417 # Ar
1643 1643 1 0.0 377.9517268873907 277.7513127672622 601.6048514371611 # Ar
1644 1644 1 0.0 301.04870064022583 40.55482840096535 144.9234962309047 # Ar
1645 1645 1 0.0 167.9547671815402 611.8791504869993 342.95980170763795 # Ar
1646 1646 1 0.0 441.56923811905807 318.99375887146493 566.6768913007003 # Ar
1647 1647 1 0.0 161.86304040024888 168.97363423769977 439.2468193099093 # Ar
1648 1648 1 0.0 529.8219138706689 370.5566971703657 11.976311473190364 # Ar
1649 1649 1 0.0 497.2426781528013 444.73221365776806 447.6866149962776 # Ar
1650 1650 1 0.0 456.0727678157497 401.030060860218 521.5126707170873 # Ar
1651 1651 1 0.0 424.6459355891193 190.93003884920216 272.7757558849072 # Ar
1652 1652 1 0.0 220.05475414647984 389.8174941691633 345.5427046526593 # Ar
1653 1653 1 0.0 620.1684590932507 594.506593594047 466.03992364063873 # Ar
1654 1654 1 0.0 403.7625163291952 347.9941115134778 94.71042722602645 # Ar
1655 1655 1 0.0 152.2479442478135 392.8685859544785 550.6858896421264 # Ar
1656 1656 1 0.0 323.4510857658409 519.1290283617963 602.8040153008302 # Ar
1657 1657 1 0.0 391.7474174272095 107.55054898679785 16.040448149967357 # Ar
1658 1658 1 0.0 104.49098912867126 138.68478053765435 171.88014237767985 # Ar
1659 1659 1 0.0 624.8394296802223 306.9659245061315 583.4873702667127 # Ar
1660 1660 1 0.0 138.5643675886727 76.81613274519616 282.5785790775162 # Ar
1661 1661 1 0.0 454.8755661772019 50.960876801468736 102.79219330332094 # Ar
1662 1662 1 0.0 284.90510073273555 186.40240186019778 622.6798409801229 # Ar
1663 1663 1 0.0 397.73206645970834 547.8757140593885 350.7843310482097 # Ar
1664 1664 1 0.0 346.8830241592883 274.8411133296501 324.75607330519665 # Ar
1665 1665 1 0.0 476.33777902460855 133.19894323039043 328.1137732124502 # Ar
1666 1666 1 0.0 24.523871567650087 131.85263063848984 278.1771635858091 # Ar
1667 1667 1 0.0 469.87284452723156 248.1940938111299 497.32294079863436 # Ar
1668 1668 1 0.0 99.59998902980409 396.6428477435451 645.9512689675487 # Ar
1669 1669 1 0.0 334.4657330193509 369.91610825861477 175.8128618016857 # Ar
1670 1670 1 0.0 8.32066304415033 424.63391367265274 87.92480411182767 # Ar
1671 1671 1 0.0 69.04782888893187 0.45889810796315333 144.53351853839504 # Ar
1672 1672 1 0.0 82.18735722665559 191.979164661376 200.5796079385457 # Ar
1673 1673 1 0.0 95.50036506283355 114.78515689135762 525.5280602431224 # Ar
1674 1674 1 0.0 348.675075264735 421.08863781978175 281.8161839490931 # Ar
1675 1675 1 0.0 646.7585906568086 195.88941239243712 562.0663423366989 # Ar
1676 1676 1 0.0 547.7037654339609 22.877077472676927 573.4522710972848 # Ar
1677 1677 1 0.0 389.8573424229899 465.99121548982504 193.63223087551813 # Ar
1678 1678 1 0.0 503.02287760848066 83.58196766870068 467.75506230629065 # Ar
1679 1679 1 0.0 581.8941519803186 170.91130082305392 636.6217698764566 # Ar
1680 1680 1 0.0 56.950604799292286 550.6938343084443 526.5304612039564 # Ar
1681 1681 1 0.0 210.09051333740976 438.6061641526168 122.88932612608228 # Ar
1682 1682 1 0.0 287.76794869273573 400.54469715476273 602.9050622627548 # Ar
1683 1683 1 0.0 62.990891309537716 301.23189013111767 344.53589987013186 # Ar
1684 1684 1 0.0 42.82703275577319 176.867738481622 27.52485852456108 # Ar
1685 1685 1 0.0 356.8401281034468 496.2744570862392 593.8809144869496 # Ar
1686 1686 1 0.0 638.9191530210944 98.39853422128434 364.1546046623101 # Ar
1687 1687 1 0.0 113.69445093515978 125.8744955411737 226.75605905976116 # Ar
1688 1688 1 0.0 455.0303539578474 156.50551249562824 3.305197734610511 # Ar
1689 1689 1 0.0 61.461629188093475 590.92946998942 610.2721271994377 # Ar
1690 1690 1 0.0 102.22492942008627 645.3922003503135 599.665860184155 # Ar
1691 1691 1 0.0 643.169820220684 92.35743137348297 508.099002181234 # Ar
1692 1692 1 0.0 585.4970061258837 267.6532759116216 5.354969296014459 # Ar
1693 1693 1 0.0 93.33199624953541 588.8595120882763 314.9755141923321 # Ar
1694 1694 1 0.0 68.08463499166623 635.3845264891075 351.6368995674572 # Ar
1695 1695 1 0.0 502.98265891244824 461.5335706687391 289.2113386373175 # Ar
1696 1696 1 0.0 585.584392159825 3.0644381077292584 425.1198487716933 # Ar
1697 1697 1 0.0 347.68798328625536 53.981369298995936 386.97386725550876 # Ar
1698 1698 1 0.0 199.18353005369966 45.62595800131673 461.0633041683763 # Ar
1699 1699 1 0.0 94.21352390868793 598.3751534632992 323.3076029740975 # Ar
1700 1700 1 0.0 79.76420382522922 375.630498582759 591.9793293151897 # Ar
1701 1701 1 0.0 152.22521581094009 113.73321665259736 28.41723961203459 # Ar
1702 1702 1 0.0 306.4119892994507 284.4925007521469 289.2244685866327 # Ar
1703 1703 1 0.0 223.16594282883887 6.0855799737872145 387.64420796552616 # Ar
1704 1704 1 0.0 192.73381648656152 116.54429139689209 587.5783811856953 # Ar
1705 1705 1 0.0 223.27164597400176 234.96749890578465 169.62676625477263 # Ar
1706 1706 1 0.0 337.77481138401237 144.06750697675875 66.89857407114765 # Ar
1707 1707 1 0.0 602.5820100176651 88.24598990251215 67.06945513951887 # Ar
1708 1708 1 0.0 64.20330153394036 534.4184144081244 517.741785486266 # Ar
1709 1709 1 0.0 291.7274740006073 493.4078411050049 470.1359825759899 # Ar
1710 1710 1 0.0 517.3317239360529 632.6991757395431 255.45190949037027 # Ar
1711 1711 1 0.0 469.50776095153174 520.0030713249147 536.380508791541 # Ar
1712 1712 1 0.0 110.53122864630076 369.799017729701 537.9479186607832 # Ar
1713 1713 1 0.0 531.3228170137177 602.8182004077157 33.16310481803955 # Ar
1714 1714 1 0.0 294.20967917100853 537.4473905703677 325.4176323629343 # Ar
1715 1715 1 0.0 287.15228075465933 449.96616962966937 39.57174234432019 # Ar
1716 1716 1 0.0 582.2661939582234 500.6532226079524 405.39194203766493 # Ar
1717 1717 1 0.0 444.1358272962277 308.5749656368681 462.317303378888 # Ar
1718 1718 1 0.0 91.77751352288165 204.74728494049097 568.3284372073945 # Ar
1719 1719 1 0.0 194.73022143086015 334.2193087262336 93.27802661886615 # Ar
1720 1720 1 0.0 639.4738531973093 597.1740789953091 131.0473482236653 # Ar
1721 1721 1 0.0 538.8229619317461 168.59657285135367 300.7290409489288 # Ar
1722 1722 1 0.0 450.14106718339013 380.93261412789764 531.6233360357066 # Ar
1723 1723 1 0.0 183.71915472810795 383.4432205907786 300.2890291058609 # Ar
1724 1724 1 0.0 314.1997710601188 625.0874161867888 486.6246298113745 # Ar
1725 1725 1 0.0 440.8863631954248 406.619732466892 309.09617788986395 # Ar
1726 1726 1 0.0 505.22473908281535 382.31869418334253 235.5774899534438 # Ar
1727 1727 1 0.0 337.4837461481885 114.42211566240876 197.47962905536116 # Ar
1728 1728 1 0.0 167.48945151885056 597.0727859897448 54.03209342272438 # Ar
1729 1729 1 0.0 600.0337979379813 440.76714784486427 253.2218619377111 # Ar
1730 1730 1 0.0 171.57176305964353 234.70736200431466 624.3663508372966 # Ar
1731 1731 1 0.0 25.822191137973793 408.79951069215883 354.5349163387581 # Ar
1732 1732 1 0.0 576.6569059005342 76.16613099570775 460.42648778895233 # Ar
1733 1733 1 0.0 111.16299819460973 382.178630479047 44.32871617348126 # Ar
1734 1734 1 0.0 354.5604240703794 214.813464427826 230.0570725107287 # Ar
1735 1735 1 0.0 234.68442429091317 16.602484123245443 266.33923516584247 # Ar
1736 1736 1 0.0 74.41393972562395 196.62537279095687 161.49084919368312 # Ar
1737 1737 1 0.0 107.89289765297617 390.35620165458795 599.1375044454732 # Ar
1738 1738 1 0.0 328.1709485311331 295.43900035307104 267.69196287152863 # Ar
1739 1739 1 0.0 599.5816717119961 407.27564708039057 8.140617795866978 # Ar
1740 1740 1 0.0 399.9678679436119 167.52386783370406 519.0376007212508 # Ar
1741 1741 1 0.0 590.1961804283715 322.5428447588334 38.71119953774296 # Ar
1742 1742 1 0.0 202.15066898299568 494.05196316745327 105.74262115341303 # Ar
1743 1743 1 0.0 392.01234384989897 506.26971534355727 431.67161835163154 # Ar
1744 1744 1 0.0 448.41324964415907 400.15008805156396 60.64599259125738 # Ar
1745 1745 1 0.0 243.4503892456771 635.5337150498701 606.3331275935647 # Ar
1746 1746 1 0.0 524.0224061352823 225.27236421843193 582.6506091014546 # Ar
1747 1747 1 0.0 316.23442336840816 57.8495712858604 527.0988455901719 # Ar
1748 1748 1 0.0 287.4097495069172 460.74953439998063 583.7781167919675 # Ar
1749 1749 1 0.0 78.46135247982185 477.36779905955615 491.86442143641045 # Ar
1750 1750 1 0.0 52.8820678166633 90.19983457127624 424.9113463389698 # Ar
1751 1751 1 0.0 148.19293332646163 142.59053642334865 17.39128314011463 # Ar
1752 1752 1 0.0 226.02279866584368 226.49837832761057 481.26064161981975 # Ar
1753 1753 1 0.0 101.33685285165065 237.83709284853845 436.7206547813646 # Ar
1754 1754 1 0.0 82.26222108993142 257.3176283976462 592.348504991063 # Ar
1755 1755 1 0.0 129.75727033142311 291.3012180097109 301.2923819454745 # Ar
1756 1756 1 0.0 443.44485028178315 335.4729806893329 551.2040164954868 # Ar
1757 1757 1 0.0 453.5372363235936 498.54406479598845 39.287522594815314 # Ar
1758 1758 1 0.0 410.48141896048685 218.79040075883225 258.6682528827584 # Ar
1759 1759 1 0.0 232.78636248495857 567.7003295077485 79.80714837062185 # Ar
1760 1760 1 0.0 77.91237298578856 206.56364562648548 244.2465084423874 # Ar
1761 1761 1 0.0 565.3571244574554 581.7136791583326 335.0139080932616 # Ar
1762 1762 1 0.0 256.12269893350094 371.4445963409641 212.05127548684405 # Ar
1763 1763 1 0.0 601.0163247376129 481.3654458284806 184.2053678194823 # Ar
1764 1764 1 0.0 125.68586962467455 628.2329931145606 545.1428237237213 # Ar
1765 1765 1 0.0 219.87632344678093 639.3962819131189 129.251454733216 # Ar
1766 1766 1 0.0 370.4522647638377 206.56706636067608 591.9050370093524 # Ar
1767 1767 1 0.0 235.75446119669277 12.96524294162883 52.77447639370605 # Ar
1768 1768 1 0.0 546.1955576125713 484.2815497137027 450.8055968613554 # Ar
1769 1769 1 0.0 363.01547148358753 62.826526343076 530.2626592301621 # Ar
1770 1770 1 0.0 384.4132461634816 436.42376927270675 284.1844774860963 # Ar
1771 1771 1 0.0 15.096596888082065 400.21258259671833 519.9904151350365 # Ar
1772 1772 1 0.0 257.373636512364 192.14838256670652 460.13732314847994 # Ar
1773 1773 1 0.0 59.749932355153454 574.8189962322521 496.1557546063742 # Ar
1774 1774 1 0.0 25.371450280823925 396.2338814761472 336.7348751725804 # Ar
1775 1775 1 0.0 432.03343819845736 28.829815901499003 444.08335834487565 # Ar
1776 1776 1 0.0 113.66383802910764 242.33811373815234 248.2705076367748 # Ar
1777 1777 1 0.0 379.56260590608997 547.2749597496355 452.71254100125327 # Ar
1778 1778 1 0.0 509.9563384932933 9.66524941816144 618.5862714623429 # Ar
1779 1779 1 0.0 514.0315111369057 266.22974049281027 118.13519214040095 # Ar
1780 1780 1 0.0 505.7045222314331 65.29885691430923 321.6461454581415 # Ar
1781 1781 1 0.0 175.5562160784579 582.7431396458906 476.4271561613686 # Ar
1782 1782 1 0.0 550.32264742445 21.717492555859035 459.1743038483079 # Ar
1783 1783 1 0.0 8.00141640442208 161.96701026900618 175.32973053270598 # Ar
1784 1784 1 0.0 589.2193771284537 23.288252287553572 267.18716350202965 # Ar
1785 1785 1 0.0 312.27243808633744 198.4356104822017 377.23446364395414 # Ar
1786 1786 1 0.0 467.918611462446 531.49790141758 546.6531164527539 # Ar
1787 1787 1 0.0 469.0574249825906 377.7963813536296 374.7056434723944 # Ar
1788 1788 1 0.0 255.1855850892917 521.9056727312742 89.55647798829828 # Ar
1789 1789 1 0.0 127.14102265198535 567.5067382564283 300.1825792042358 # Ar
1790 1790 1 0.0 373.032332169445 401.0149059034103 575.9555323549656 # Ar
1791 1791 1 0.0 280.5081148744477 181.0246301332207 526.9499136188003 # Ar
1792 1792 1 0.0 547.9708679498583 328.9772737352781 305.44653571395787 # Ar
1793 1793 1 0.0 576.9700591871969 96.42834368313386 262.17266642390496 # Ar
1794 1794 1 0.0 377.99441440227014 513.5488740051605 535.787767234114 # Ar
1795 1795 1 0.0 377.86154308912194 582.5522011758932 179.10721129675912 # Ar
1796 1796 1 0.0 140.86445889469508 252.48037599387524 421.1408534211298 # Ar
1797 1797 1 0.0 531.660541746846 495.7197084477167 77.24207549889906 # Ar
1798 1798 1 0.0 233.2102627021443 183.63407028054363 205.02535344667874 # Ar
1799 1799 1 0.0 614.7266894015057 249.35778568932878 68.28200692851635 # Ar
1800 1800 1 0.0 265.35903420643615 395.2599711132429 474.5533535503407 # Ar
1801 1801 1 0.0 217.29398059232872 565.6677839509647 94.45190132985937 # Ar
1802 1802 1 0.0 642.9162028845902 539.1910228518983 216.15298224626102 # Ar
1803 1803 1 0.0 641.734110697886 425.4201755939546 93.372130246668 # Ar
1804 1804 1 0.0 104.43474512517072 376.4566090733391 251.63370523295103 # Ar
1805 1805 1 0.0 220.86985235226766 64.68832878862517 640.7251640338687 # Ar
1806 1806 1 0.0 629.1509515282547 538.8227487747112 302.0671285316157 # Ar
1807 1807 1 0.0 272.8016297596397 273.2920512061572 230.63930744677862 # Ar
1808 1808 1 0.0 382.89762024155766 43.333710913034395 493.2105520200625 # Ar
1809 1809 1 0.0 481.36266451798923 94.22679554066175 420.2303468985444 # Ar
1810 1810 1 0.0 135.10732412429934 128.18003355308664 393.53276715009827 # Ar
1811 1811 1 0.0 303.06735739509105 272.7684760163291 201.2654559296573 # Ar
1812 1812 1 0.0 445.5111659306972 224.354544769125 11.399747947861956 # Ar
1813 1813 1 0.0 75.77435596973476 498.09870393510596 30.65675338756317 # Ar
1814 1814 1 0.0 210.94887805360298 523.0274108799971 440.5418964793102 # Ar
1815 1815 1 0.0 561.9673360865228 539.3321836823504 604.3617686952642 # Ar
1816 1816 1 0.0 517.3259081982537 348.76999025672126 21.19795971911513 # Ar
1817 1817 1 0.0 306.9767230907079 513.5826585199231 605.8948327806769 # Ar
1818 1818 1 0.0 596.4659665680426 250.16578173459064 647.8759393987125 # Ar
1819 1819 1 0.0 628.5697348080389 60.65878282074156 423.75074270945623 # Ar
1820 1820 1 0.0 369.4781116653988 68.3158284182799 623.9337033625476 # Ar
1821 1821 1 0.0 286.5708162237429 535.8738432743258 373.46978281060063 # Ar
1822 1822 1 0.0 52.21431408577804 505.78561491027176 10.00360753803216 # Ar
1823 1823 1 0.0 377.45312763544905 228.58574182788013 213.5905385908755 # Ar
1824 1824 1 0.0 18.510122092030468 77.5062467955401 382.2748113093557 # Ar
1825 1825 1 0.0 588.078556949936 490.00513704493864 272.4790816770506 # Ar
1826 1826 1 0.0 428.70182169285204 48.84046511084975 203.9523695071079 # Ar
1827 1827 1 0.0 357.58993279012304 319.78246477238855 309.65717530346046 # Ar
1828 1828 1 0.0 354.45009274947023 573.0021412927691 78.06219601832382 # Ar
1829 1829 1 0.0 241.35760450558783 142.3271418052572 286.45865193787836 # Ar
1830 1830 1 0.0 355.99017835524285 494.3210616276678 84.25768579967807 # Ar
1831 1831 1 0.0 89.95358148545549 356.55667355994706 583.5076199832531 # Ar
1832 1832 1 0.0 357.40050137514123 7.209647147033661 333.91958678905075 # Ar
1833 1833 1 0.0 352.90356035267837 306.12362359828785 440.0197550276602 # Ar
1834 1834 1 0.0 175.937428009038 309.652486353773 140.91649480550012 # Ar
1835 1835 1 0.0 548.4383321055217 298.41026449547445 143.77127587572554 # Ar
1836 1836 1 0.0 486.9672118159583 597.2321658158186 143.0610827260347 # Ar
1837 1837 1 0.0 423.4270707469744 225.18524160435484 126.86165979797562 # Ar
1838 1838 1 0.0 510.10871112155075 47.71854389222675 628.7184948778516 # Ar
1839 1839 1 0.0 236.3541772807544 253.38223577142034 621.3994377765579 # Ar
1840 1840 1 0.0 555.3243156549215 187.18774214395762 611.8377372313529 # Ar
1841 1841 1 0.0 260.8838562042414 507.58542983975065 506.00809735189205 # Ar
1842 1842 1 0.0 351.91565910350323 7.66979688750606 91.02509551077259 # Ar
1843 1843 1 0.0 303.12051483325524 303.4279995263081 532.1716280343255 # Ar
1844 1844 1 0.0 367.90880711736355 131.63855520223132 104.28859529748254 # Ar
1845 1845 1 0.0 419.63964237460146 361.9143643028994 347.0360696098114 # Ar
1846 1846 1 0.0 588.2049200648668 11.184772713756631 402.1719712834719 # Ar
1847 1847 1 0.0 220.20513232617384 554.3338739598441 151.54434962949256 # Ar
1848 1848 1 0.0 223.3588522127669 422.0285127582905 628.7136880267343 # Ar
1849 1849 1 0.0 435.320284142493 498.82142066354777 535.7295843019904 # Ar
1850 1850 1 0.0 237.58086968687883 414.29935181787533 184.18667559927118 # Ar
1851 1851 1 0.0 265.8462837020859 343.66597823743973 462.65826676224964 # Ar
1852 1852 1 0.0 394.4392897354964 450.0863043476561 248.491235697284 # Ar
1853 1853 1 0.0 361.3190364710559 551.6907999333688 147.2071015880949 # Ar
1854 1854 1 0.0 221.0985141033206 421.0577850593434 607.5570384283922 # Ar
1855 1855 1 0.0 306.3026824875073 246.7107330577277 582.2126895118965 # Ar
1856 1856 1 0.0 239.40974542742742 289.9381823405576 223.92459766300436 # Ar
1857 1857 1 0.0 437.06204300046693 381.64317703502735 481.1387543165314 # Ar
1858 1858 1 0.0 21.73835005036554 247.30946489241921 293.7636441165579 # Ar
1859 1859 1 0.0 536.290282754195 351.3478606977686 604.9774816568487 # Ar
1860 1860 1 0.0 378.0298987631912 459.84997765760187 381.2130393099331 # Ar
1861 1861 1 0.0 261.9710063856949 642.3007985851788 200.39740333152798 # Ar
1862 1862 1 0.0 432.2328300133597 217.5516050167472 609.6353177651034 # Ar
1863 1863 1 0.0 38.832814805186494 323.29404110434444 337.75819274807685 # Ar
1864 1864 1 0.0 173.82143012550623 349.46038483059806 387.5953705427665 # Ar
1865 1865 1 0.0 433.8764199951333 448.9101156399527 159.34635961613182 # Ar
1866 1866 1 0.0 526.4864530578985 197.08711144954873 578.4709368961313 # Ar
1867 1867 1 0.0 590.8949301407747 447.3227596609738 550.846532730045 # Ar
1868 1868 1 0.0 352.2453494812668 332.2767615697056 422.44497773231024 # Ar
1869 1869 1 0.0 460.88538388097777 421.5686678600356 419.7539882587757 # Ar
1870 1870 1 0.0 534.3195639633718 16.07549120834806 296.19339726680937 # Ar
1871 1871 1 0.0 524.7785430961932 454.1444613789261 283.0880128779472 # Ar
1872 1872 1 0.0 6.363956016398312 509.2168853274838 10.71065299313655 # Ar
1873 1873 1 0.0 505.98886455963424 599.7798653532321 298.8630799775833 # Ar
1874 1874 1 0.0 463.8544112908374 100.8265773682369 287.8247669149456 # Ar
1875 1875 1 0.0 87.43750994708927 291.3971863138134 458.15969637525495 # Ar
1876 1876 1 0.0 180.90334426697862 634.6336532991422 123.15280424544672 # Ar
1877 1877 1 0.0 475.3350439197038 312.96243614904523 464.430173168424 # Ar
1878 1878 1 0.0 48.00475553692693 504.6762112646821 345.48561791466904 # Ar
1879 1879 1 0.0 349.32040987678334 460.0766400908381 34.87737943717945 # Ar
1880 1880 1 0.0 228.4053273159592 418.1053505557708 503.7165168038945 # Ar
1881 1881 1 0.0 1.3189287078075331 462.1971191245031 273.3291205025608 # Ar
1882 1882 1 0.0 455.74109265296175 470.24534389257906 576.3998955183682 # Ar
1883 1883 1 0.0 351.11933269602497 542.6498305381004 219.26861149656276 # Ar
1884 1884 1 0.0 513.8563748491072 514.6100467686531 611.6783058006453 # Ar
1885 1885 1 0.0 415.479481144146 68.88420738116075 500.40080522915247 # Ar
1886 1886 1 0.0 357.37450138320605 371.36738170310576 412.15183548710047 # Ar
1887 1887 1 0.0 644.8328245433901 36.51102289036614 475.952941663091 # Ar
1888 1888 1 0.0 278.5589751491614 207.47848903153005 505.7595640200492 # Ar
1889 1889 1 0.0 252.605006698154 316.605560318838 75.06242287544185 # Ar
1890 1890 1 0.0 322.0114765324928 278.2944171731158 170.8710052023278 # Ar
1891 1891 1 0.0 292.5414279610254 271.6390413942913 245.27209424295742 # Ar
1892 1892 1 0.0 306.35129660860173 643.1298834703326 109.78760011174539 # Ar
1893 1893 1 0.0 456.1427560654451 102.92307889528463 567.6648337645024 # Ar
1894 1894 1 0.0 128.707232078717 65.6906716170593 647.1575023909356 # Ar
1895 1895 1 0.0 126.94861133715361 147.3302915120264 242.86104571091403 # Ar
1896 1896 1 0.0 592.137320372494 181.6803284313459 145.83276287139066 # Ar
1897 1897 1 0.0 218.88024254231152 605.2049354541813 627.7809013569846 # Ar
1898 1898 1 0.0 38.813537824978695 200.92987996629313 5.972789642839102 # Ar
1899 1899 1 0.0 7.64206333150076 478.4652277320183 378.7774028495696 # Ar
1900 1900 1 0.0 583.6693412590286 125.91913958929192 230.46375054598823 # Ar
1901 1901 1 0.0 199.74224940239498 257.8755872466006 288.9501091242699 # Ar
1902 1902 1 0.0 111.51294506042743 430.7771477331981 23.361517906714294 # Ar
1903 1903 1 0.0 191.78799191875424 338.50734031095476 590.4419607840128 # Ar
1904 1904 1 0.0 137.17975455437582 226.78952611570617 624.2279182757499 # Ar
1905 1905 1 0.0 407.51581877423257 325.70909154703935 183.21340917507166 # Ar
1906 1906 1 0.0 432.0359555418585 155.48885203798875 438.8932190617627 # Ar
1907 1907 1 0.0 644.7790195156836 472.06776113999865 54.606085684992735 # Ar
1908 1908 1 0.0 361.34156329486643 251.73577288900714 438.5951799237965 # Ar
1909 1909 1 0.0 43.43134674466961 169.11746905621243 402.2388670625996 # Ar
1910 1910 1 0.0 224.68998746917813 112.450758283925 316.31827065863695 # Ar
1911 1911 1 0.0 416.51931649212685 420.01220789059636 471.9621028618628 # Ar
1912 1912 1 0.0 109.5913718463792 53.04053523736857 97.45132405436847 # Ar
1913 1913 1 0.0 381.03952272704845 147.63666263087373 33.92230940905388 # Ar
1914 1914 1 0.0 627.1791063506707 106.15714128149463 317.8385289628405 # Ar
1915 1915 1 0.0 34.269500926613944 454.4450423991564 232.116832836485 # Ar
1916 1916 1 0.0 116.30012998536593 218.6618481947842 626.6670063840348 # Ar
1917 1917 1 0.0 548.9635507842917 509.8324370971742 4.2554832021433 # Ar
1918 1918 1 0.0 354.30321536347867 551.0065429978825 408.4197728252507 # Ar
1919 1919 1 0.0 502.0819817722065 95.6777904098077 19.286528125652417 # Ar
1920 1920 1 0.0 0.29402137432249403 403.32522490133107 244.06029893722106 # Ar
1921 1921 1 0.0 482.6166947698953 151.02106502202878 44.02019554719749 # Ar
1922 1922 1 0.0 523.8626217939101 645.8807810386562 459.40494392991275 # Ar
1923 1923 1 0.0 6.362671853513727 492.0032736877464 228.40301239481914 # Ar
1924 1924 1 0.0 123.84665246480593 19.057510797977034 504.0742381516612 # Ar
1925 1925 1 0.0 315.5280782434584 471.0615570564565 186.0643303152208 # Ar
1926 1926 1 0.0 337.3525200542656 482.4773112030561 616.0985284565262 # Ar
1927 1927 1 0.0 378.8303007266678 453.5130313474134 545.117817452439 # Ar
1928 1928 1 0.0 383.20095217494844 62.579464946054266 585.559089694235 # Ar
1929 1929 1 0.0 313.9041111124099 17.73576493101362 63.07441177094975 # Ar
1930 1930 1 0.0 43.52078123388268 209.2349145242602 419.77655652353127 # Ar
1931 1931 1 0.0 10.575788604756308 51.796879436878626 127.01523965323888 # Ar
1932 1932 1 0.0 498.70736318633845 122.80308415146104 89.77405488940774 # Ar
1933 1933 1 0.0 148.32153814087212 3.339071914998308 411.35468697884943 # Ar
1934 1934 1 0.0 5.4500597347117266 366.1577945380977 409.3828582061573 # Ar
1935 1935 1 0.0 647.1652298386142 157.06102121321175 88.06679398634985 # Ar
1936 1936 1 0.0 483.98337701155 381.2196037757169 551.729849167485 # Ar
1937 1937 1 0.0 415.6457099493838 476.3995382904302 451.73859685353665 # Ar
1938 1938 1 0.0 511.1533430225211 640.0556783429944 400.3681629818274 # Ar
1939 1939 1 0.0 329.01473039440833 492.80387581972434 212.69467743786004 # Ar
1940 1940 1 0.0 230.62665269126808 211.54507443273303 86.28573723526252 # Ar
1941 1941 1 0.0 602.2853724328405 542.9122318575481 635.1560592071042 # Ar
1942 1942 1 0.0 567.3267436046636 142.0906584937871 534.7393926964565 # Ar
1943 1943 1 0.0 520.3392477147162 172.61767110197303 62.52893834681181 # Ar
1944 1944 1 0.0 317.2497676424386 633.8343064054972 419.4661430418934 # Ar
1945 1945 1 0.0 502.3561607303458 410.2800054270782 52.421378789342455 # Ar
1946 1946 1 0.0 182.12315350375064 416.4239271667569 473.9600749337043 # Ar
1947 1947 1 0.0 266.1168378612102 539.0313886004054 496.1796191256205 # Ar
1948 1948 1 0.0 7.717483870152715 133.44271261683863 484.38327015672445 # Ar
1949 1949 1 0.0 580.8663862427028 322.5618647531088 586.920899018729 # Ar
1950 1950 1 0.0 181.48637246172382 536.7845217363775 586.3479020047596 # Ar
1951 1951 1 0.0 503.7151625640869 256.319433349821 177.57788408841648 # Ar
1952 1952 1 0.0 306.4253316052534 215.5910570682147 614.1197967938555 # Ar
1953 1953 1 0.0 197.0192437438897 61.46342948548639 220.5020443903296 # Ar
1954 1954 1 0.0 284.6499778267592 521.3821648452298 68.28446365917678 # Ar
1955 1955 1 0.0 579.3447938518893 440.50576931707934 156.722365472086 # Ar
1956 1956 1 0.0 93.17628822518728 76.35391697992618 20.095538153883503 # Ar
1957 1957 1 0.0 644.0311911901723 404.9085501280355 617.5437000600008 # Ar
1958 1958 1 0.0 443.1212252463702 645.7517278019232 168.1890874151241 # Ar
1959 1959 1 0.0 360.5919629783684 146.33291796191602 198.53439300484376 # Ar
1960 1960 1 0.0 283.68909881638996 68.08709020303468 69.36574862437799 # Ar
1961 1961 1 0.0 113.20192162976016 479.12786510919096 271.127438875257 # Ar
1962 1962 1 0.0 295.9644664695086 124.49166143390539 324.3724830063355 # Ar
1963 1963 1 0.0 638.4632507930875 442.4769309212841 501.2924581497829 # Ar
1964 1964 1 0.0 341.01913640490534 641.0693174048794 240.15626441892766 # Ar
1965 1965 1 0.0 144.67493776969857 279.8673651596725 417.57336719667364 # Ar
1966 1966 1 0.0 39.26564725385114 327.36168522202854 599.470578616784 # Ar
1967 1967 1 0.0 417.35449695014364 563.2533271644172 319.68522353611877 # Ar
1968 1968 1 0.0 383.11314009730756 474.6194114540737 432.8401298295289 # Ar
1969 1969 1 0.0 314.587853738354 86.83480328336333 320.5590286312439 # Ar
1970 1970 1 0.0 90.30594436431355 645.6398537444954 517.6103558229996 # Ar
1971 1971 1 0.0 491.68001487813274 164.49301401091603 320.6619478132425 # Ar
1972 1972 1 0.0 66.06091404348105 283.67162333377377 512.2012043630967 # Ar
1973 1973 1 0.0 271.4048206286317 48.36899356708225 477.6183466415012 # Ar
1974 1974 1 0.0 613.2888166122433 311.09304194117925 53.186811187017234 # Ar
1975 1975 1 0.0 116.60993465403304 254.15019746034295 462.697656447498 # Ar
1976 1976 1 0.0 29.600814444636896 613.2168962937037 479.7974928564269 # Ar
1977 1977 1 0.0 16.65633232110437 103.53602709660517 582.3736458252573 # Ar
1978 1978 1 0.0 163.65129567515427 512.5506567818427 607.0764518132677 # Ar
1979 1979 1 0.0 298.90832926098415 401.8297297309407 612.7800970266017 # Ar
1980 1980 1 0.0 433.41851351162865 82.72797813052824 238.2717114369651 # Ar
1981 1981 1 0.0 629.5297360862064 202.23525765491922 588.1556637803759 # Ar
1982 1982 1 0.0 579.2594792447132 340.21233779234154 237.54512942958394 # Ar
1983 1983 1 0.0 613.4599077207345 259.2524026112378 535.9630557385956 # Ar
1984 1984 1 0.0 86.88775707453884 134.6603850564806 589.1003219852385 # Ar
1985 1985 1 0.0 31.21126063869368 630.3537267571072 351.6641358711417 # Ar
1986 1986 1 0.0 301.63979983067406 125.40256023002688 165.7654176988443 # Ar
1987 1987 1 0.0 536.3223841774086 274.2445287379018 237.20445937534745 # Ar
1988 1988 1 0.0 83.13630292585455 525.4238766770973 439.40348836045473 # Ar
1989 1989 1 0.0 453.8020862465305 631.801176110443 47.25547636757536 # Ar
1990 1990 1 0.0 595.159737556251 547.6049107871208 622.2321766217265 # Ar
1991 1991 1 0.0 130.87755791663517 629.7225383711345 97.18929993045596 # Ar
1992 1992 1 0.0 539.9542950418311 109.10004774198285 606.1871388747172 # Ar
1993 1993 1 0.0 316.91755803223515 150.3273307366262 575.9186846614128 # Ar
1994 1994 1 0.0 300.24912243281835 278.54700429364686 385.0423768559177 # Ar
1995 1995 1 0.0 596.6724666732176 553.8337084717073 312.6312949880968 # Ar
1996 1996 1 0.0 146.00506561692404 462.92433774685486 203.15790235114193 # Ar
1997 1997 1 0.0 14.705071667716648 320.8314227518555 552.3804082360062 # Ar
1998 1998 1 0.0 451.27219256123516 144.07664742110077 82.82307807386289 # Ar
1999 1999 1 0.0 414.2035982019603 143.81432241260504 126.64515609268877 # Ar
2000 2000 1 0.0 479.5195622674059 533.0175047168972 295.23018943596156 # Ar
