LAMMPS data file -- atom_style full -- generated by chemfiles
150 atoms
0 bonds
0 angles
0 dihedrals
0 impropers
2 atom types
0 bond types
0 angle types
0 dihedral types
0 improper types
0.00000000 1566.48599 xlo xhi
0.00000000 1566.48599 ylo yhi
0.00000000 1566.48599 zlo zhi

# Pair Coeffs
# 1 Ar
# 2 Ar+

Masses

1 39.948 # Ar
2 39.948 # Ar+

Atoms # full

1 1 1 0.0 720.6324896977297 552.8999822636049 665.2284671373276 # Ar
2 2 1 0.0 497.03749925624453 146.70417650325868 465.21862613875425 # Ar
3 3 1 0.0 368.45622045147405 1286.829530739071 1189.0830896683344 # Ar
4 4 1 0.0 323.09246245768395 1150.2360409617916 304.3333089291265 # Ar
5 5 1 0.0 1425.7863827768 950.9807478036986 874.4312818622905 # Ar
6 6 1 0.0 848.2538749496836 593.9914393252537 1281.5230608140112 # Ar
7 7 1 0.0 1123.5734219552878 464.482404497021 576.3634424224058 # Ar
8 8 1 0.0 16.722979870105682 1014.0407800844565 763.3295400594012 # Ar
9 9 1 0.0 1299.7821531081775 1284.9690556042083 1279.3886832555938 # Ar
10 10 1 0.0 1384.7432749492955 308.64056003752125 859.1623285114896 # Ar
11 11 1 0.0 1081.7486786245843 671.883732831301 429.969270650696 # Ar
12 12 1 0.0 696.0665852596911 950.8636219772825 318.38500966070933 # Ar
13 13 1 0.0 1407.825848969947 257.53794629646336 7.383728688932693 # Ar
14 14 1 0.0 252.25363710537556 1104.2432485813254 567.1160701187042 # Ar
15 15 1 0.0 468.570692419217 73.67802375098766 518.0080487131952 # Ar
16 16 1 0.0 995.6135695388043 608.6850686943726 207.04106405677547 # Ar
17 17 1 0.0 1562.0226808944476 1525.7382944562935 1037.4361146324277 # Ar
18 18 1 0.0 441.98748850232414 909.3792943323969 200.67738350238758 # Ar
19 19 1 0.0 1129.9882598582687 736.6731120399457 640.7208949719819 # Ar
20 20 1 0.0 1091.223504783126 1052.189263787134 705.7863906967601 # Ar
21 21 1 0.0 1320.0062715203555 317.5748790432107 890.2331463793064 # Ar
22 22 1 0.0 481.61558159994024 1383.8033112344933 1093.960172188384 # Ar
23 23 1 0.0 1.265173307743183 528.6588387304513 299.24733202419657 # Ar
24 24 1 0.0 344.3159315101346 1517.19458600314 1112.9886367894012 # Ar
25 25 1 0.0 765.9785812910814 53.443977185198946 1074.614163503143 # Ar
26 26 1 0.0 1181.2363563764789 873.7954678129694 563.9272117883501 # Ar
27 27 1 0.0 512.3948031432404 1180.1082704514756 830.2562725843785 # Ar
28 28 1 0.0 644.4230432881271 1218.0392937487302 619.0312979848655 # Ar
29 29 1 0.0 147.64992820850827 1.3467648480673824 822.865574378347 # Ar
30 30 1 0.0 1365.4379972357224 908.5706221057382 783.3541163671316 # Ar
31 31 1 0.0 817.9664012249624 73.28902966958267 649.2117131549126 # Ar
32 32 1 0.0 882.6531267255913 255.10166286706342 482.8003025324904 # Ar
33 33 1 0.0 251.5932759368587 1131.833512881568 1066.0529175262411 # Ar
34 34 1 0.0 759.9957332618419 531.1990827222886 934.2206952717612 # Ar
35 35 1 0.0 1022.7318891828379 572.0391941910939 199.9483574756229 # Ar
36 36 1 0.0 163.9595279573891 1310.27093884268 227.92694016484637 # Ar
37 37 1 0.0 273.1235822854288 593.1857444720164 1169.1386058050598 # Ar
38 38 1 0.0 25.799821915725058 373.20611095741657 184.52518359002357 # Ar
39 39 1 0.0 824.3970485259412 437.0950704091026 1462.0745740451962 # Ar
40 40 1 0.0 884.629228959153 1521.8380231878818 125.97097745577562 # Ar
41 41 1 0.0 958.0387305433247 1134.1491388428267 188.23201841178096 # Ar
42 42 1 0.0 901.1078725016683 295.08965727251496 1507.375874102167 # Ar
43 43 1 0.0 1113.2612531520701 554.3671857415843 734.7139525558232 # Ar
44 44 1 0.0 131.90147610699503 960.2607688088988 990.2836767530682 # Ar
45 45 1 0.0 1176.580506510101 1345.242293701122 1196.0340438060323 # Ar
46 46 1 0.0 1324.2018529915292 779.7181982366867 204.17940728327966 # Ar
47 47 1 0.0 138.3985135940398 1010.0365110047571 1375.7860486991462 # Ar
48 48 1 0.0 752.0880406005582 469.3685140342112 976.206582497414 # Ar
49 49 1 0.0 1269.9726316549918 262.98018111512016 324.2944888023228 # Ar
50 50 1 0.0 1178.232777848079 348.05350222209506 691.7035297761635 # Ar
51 51 1 0.0 458.10748358910587 324.93993004176775 398.0938392702626 # Ar
52 52 1 0.0 1161.3548516840651 1436.1278356908344 266.13686498343844 # Ar
53 53 1 0.0 425.4004564658737 1078.9307589607936 996.9677046375332 # Ar
54 54 1 0.0 1426.475032362508 1186.1829807440045 272.43069852616156 # Ar
55 55 1 0.0 764.0985923983311 1006.4654503010961 634.1281951659104 # Ar
56 56 1 0.0 755.5154198135297 897.2364478896435 44.0559630725805 # Ar
57 57 1 0.0 1229.3373200739622 1267.3963702686633 52.79343569610469 # Ar
58 58 1 0.0 1382.8222680782237 963.1738569512003 487.01973033579054 # Ar
59 59 1 0.0 633.1497031478735 1174.0890285504777 1385.8766830196546 # Ar
60 60 1 0.0 337.9277111876172 1053.2446890470812 86.30065234323713 # Ar
61 61 2 0.0 1373.2362118676913 921.6709520812815 414.3097135252409 # Ar+
62 62 2 0.0 1058.1507389625258 1302.3647524795676 131.74340384573028 # Ar+
63 63 2 0.0 1164.5604269539047 1381.9325332925348 140.53503319060468 # Ar+
64 64 2 0.0 1473.151690199454 1073.8165936041341 1139.894562912565 # Ar+
65 65 2 0.0 184.7450693167043 578.3435656324722 329.19040750058656 # Ar+
66 66 2 0.0 115.9710989619545 821.3204541966855 730.9068247930151 # Ar+
67 67 2 0.0 457.22455846125126 782.0586035703765 792.7111079539528 # Ar+
68 68 2 0.0 1316.3394850322452 346.52444881645073 630.6175393881291 # Ar+
69 69 2 0.0 1114.8720151043217 123.254133601903 780.748654458891 # Ar+
70 70 2 0.0 406.5532766392454 1550.3898955217855 1139.1222967993624 # Ar+
71 71 2 0.0 547.5093721480567 409.76972423102166 6.558708397604444 # Ar+
72 72 2 0.0 1138.2547397635133 188.29795747051645 272.3081656320249 # Ar+
73 73 2 0.0 890.6713975908511 284.6999611127843 1336.3333368247884 # Ar+
74 74 2 0.0 688.3932949175679 677.1884457039909 302.7282625056726 # Ar+
75 75 2 0.0 181.9104665709841 1238.5974261180663 326.3159669043824 # Ar+
76 76 2 0.0 95.09055805429907 1039.071961652026 1148.7654856050099 # Ar+
77 77 2 0.0 1065.8572553349836 319.81861770370875 171.33742112374142 # Ar+
78 78 2 0.0 98.63392283660495 57.57444236008158 384.9760251967042 # Ar+
79 79 2 0.0 535.3674084381692 742.6667628561665 782.1990806479463 # Ar+
80 80 2 0.0 646.1757041089437 99.24651261042523 47.88554427418497 # Ar+
81 81 2 0.0 1065.8144843371151 94.05991453892011 388.2095362861523 # Ar+
82 82 2 0.0 644.8658475814705 1209.9968918677087 1265.2475887765577 # Ar+
83 83 2 0.0 911.6530530859775 1073.2190684825175 293.4237821262893 # Ar+
84 84 2 0.0 75.33859261185002 578.6560039954336 1007.1472536984813 # Ar+
85 85 2 0.0 1085.7943387950127 1286.6004575722827 441.1437881011591 # Ar+
86 86 2 0.0 1456.8012642514655 164.1212035913995 949.3876650483664 # Ar+
87 87 2 0.0 159.39339951113067 358.1911659885492 606.3916711477485 # Ar+
88 88 2 0.0 765.6632970667378 715.3580223250395 668.7883770358991 # Ar+
89 89 2 0.0 410.2703963820402 432.03534794113676 703.6633705077747 # Ar+
90 90 2 0.0 1042.8198815161916 207.6721711998294 462.2891041066831 # Ar+
91 91 2 0.0 217.87341014644954 1286.7880043844523 919.4913185899967 # Ar+
92 92 2 0.0 1375.6989142519235 1129.354578701388 1499.890711951438 # Ar+
93 93 2 0.0 905.3982192193802 1099.9381646295376 266.9957165870001 # Ar+
94 94 2 0.0 129.54271333390298 1549.57376843017 739.4122885861269 # Ar+
95 95 2 0.0 711.562425655579 1440.8365076529644 581.3786242695331 # Ar+
96 96 2 0.0 336.2527937285143 880.5770069624588 1029.189006494105 # Ar+
97 97 2 0.0 957.8156380659232 735.0895607007836 689.8010830466806 # Ar+
98 98 2 0.0 282.4672311521291 1414.1764810576888 546.6413093396402 # Ar+
99 99 2 0.0 187.2547639069147 818.8017668144929 1418.278940218078 # Ar+
100 100 2 0.0 1001.2260884383256 122.31240948997691 353.4486748647995 # Ar+
101 101 2 0.0 818.4870579134439 1097.2532894529008 1464.2514289696342 # Ar+
102 102 2 0.0 488.7697199963792 1335.8494189224211 131.99179715652846 # Ar+
103 103 2 0.0 302.6316559608404 821.9710776568139 1217.7190410898954 # Ar+
104 104 2 0.0 1082.5652959591525 1117.798758332876 247.6910170514303 # Ar+
105 105 2 0.0 627.2786894742989 881.6212297328684 1359.1297170489847 # Ar+
106 106 2 0.0 1250.2038107068213 448.2008385414882 1183.6337133525356 # Ar+
107 107 2 0.0 1521.281054571215 1322.7875243561639 1159.7936245786793 # Ar+
108 108 2 0.0 1433.532999889304 857.6412167625799 686.4545119585276 # Ar+
109 109 2 0.0 498.2391040018676 50.82214819056958 1342.611416801064 # Ar+
110 110 2 0.0 349.02196803779555 963.9013032496184 350.7375198547474 # Ar+
111 111 2 0.0 985.1117152281172 1276.9130943323346 1505.2065790295574 # Ar+
112 112 2 0.0 1234.4870802279497 1338.2891315024535 1454.4478210258949 # Ar+
113 113 2 0.0 1346.3096533834062 315.07404549675334 391.92365479221246 # Ar+
114 114 2 0.0 1154.1598583045188 468.85365890883304 150.0356955433302 # Ar+
115 115 2 0.0 434.3333942525815 930.1341800649891 1290.8342748487678 # Ar+
116 116 2 0.0 1051.6469408498754 1480.3911334712566 80.07535600382836 # Ar+
117 117 2 0.0 910.4026103698096 799.170587190241 965.1245596800717 # Ar+
118 118 2 0.0 103.80778796018613 924.0891501346077 1383.653778880131 # Ar+
119 119 2 0.0 1006.5422204306484 178.97205872186817 181.61595772583044 # Ar+
120 120 2 0.0 603.5509627077292 1300.473786507391 275.439081126538 # Ar+
121 121 2 0.0 999.0546662541656 643.6060885328715 1419.2567319116104 # Ar+
122 122 2 0.0 1225.5974338728995 843.8481120152666 637.8649889328236 # Ar+
123 123 2 0.0 727.2723531322777 603.6380797159778 929.0933418482227 # Ar+
124 124 2 0.0 1189.5665164803459 1086.9338552191775 615.3112231193392 # Ar+
125 125 2 0.0 755.0004177759566 919.3725279650234 1389.8800465924023 # Ar+
126 126 2 0.0 1312.4077113247301 1002.9153196199333 889.5778677885554 # Ar+
127 127 2 0.0 881.2412213750005 644.8088581307328 681.5249348496906 # Ar+
128 128 2 0.0 236.53198446392497 328.5488042369327 1303.994340617926 # Ar+
129 129 2 0.0 962.770370208059 243.9096297920443 1516.6793700219919 # Ar+
130 130 2 0.0 124.70591505261686 527.2257817470357 1053.9054381887804 # Ar+
131 131 2 0.0 261.46569319084824 638.1235372965061 84.13639758998544 # Ar+
132 132 2 0.0 37.89024356781567 1275.0854263395179 1410.1671929121212 # Ar+
133 133 2 0.0 64.03940653449305 947.0340486993846 1178.7585100878878 # Ar+
134 134 2 0.0 1017.3322325056856 1465.1867704598947 1309.954569110197 # Ar+
135 135 2 0.0 74.319424146412 975.5166243606202 514.2588560343903 # Ar+
136 136 2 0.0 418.2161831176409 1565.6496870136868 1293.0094935414766 # Ar+
137 137 2 0.0 859.6706895994606 576.0076826791664 1347.1692012277988 # Ar+
138 138 2 0.0 186.2459530431666 1165.6710721823956 1255.9453563166692 # Ar+
139 139 2 0.0 708.3546723193107 1306.9926482458172 803.5137647193167 # Ar+
140 140 2 0.0 1155.5634915716141 1084.744484400627 692.212759210103 # Ar+
141 141 2 0.0 1216.7933665461505 729.2987018510224 754.6719689993831 # Ar+
142 142 2 0.0 61.15142711580935 99.04721852291763 893.9351175795899 # Ar+
143 143 2 0.0 285.34883517627696 981.2034930222217 705.5251750612156 # Ar+
144 144 2 0.0 821.231901021866 1484.5186850606376 1356.5063851330142 # Ar+
145 145 2 0.0 1007.4752468381132 559.0961414720673 550.8244043724231 # Ar+
146 146 2 0.0 1108.5934581730664 567.1204692456168 523.4370112958144 # Ar+
147 147 2 0.0 861.8945309417296 5.215805295003855 1256.462025070416 # Ar+
148 148 2 0.0 498.10214994118326 782.3880499939833 912.633241520449 # Ar+
149 149 2 0.0 612.7562603730344 1388.1962020056508 207.28277445436967 # Ar+
150 150 2 0.0 1027.7406143177905 1455.4781346197183 14.303206709631743 # Ar+
