LAMMPS data file -- atom_style full -- generated by chemfiles
150 atoms
0 bonds
0 angles
0 dihedrals
0 impropers
2 atom types
0 bond types
0 angle types
0 dihedral types
0 improper types
0.00000000 192.649377 xlo xhi
0.00000000 192.649377 ylo yhi
0.00000000 192.649377 zlo zhi

# Pair Coeffs
# 1 Ar
# 2 Ar+

Masses

1 39.948 # Ar
2 39.948 # Ar+

Atoms # full

1 1 1 0.0 30.437696351598102 102.15332831059155 124.0282491690414 # Ar
2 2 1 0.0 51.62687912591464 59.056723778733286 162.94138631184148 # Ar
3 3 1 0.0 138.1760741145754 55.13327261505822 151.14995761660398 # Ar
4 4 1 0.0 124.24645792139192 105.27017183468593 67.70637401603705 # Ar
5 5 1 0.0 128.2513305472102 153.87307218405985 52.31617888060072 # Ar
6 6 1 0.0 93.27039747867522 28.96689641263009 170.35816627589662 # Ar
7 7 1 0.0 11.156013449116509 146.5695420477426 56.55115319166258 # Ar
8 8 1 0.0 92.24192344483735 55.36154376957122 184.3019318350239 # Ar
9 9 1 0.0 134.41459752785312 31.31974765363938 172.62784142457303 # Ar
10 10 1 0.0 164.30148707862264 190.16373582835652 74.98708394663602 # Ar
11 11 1 0.0 78.07358353678364 125.17768926963342 139.21281545065483 # Ar
12 12 1 0.0 81.76810523538379 35.89881988144528 27.35519497110537 # Ar
13 13 1 0.0 45.87060534501834 152.9034931819978 90.46961084164016 # Ar
14 14 1 0.0 76.81546920588849 103.14669068070145 31.22259274725746 # Ar
15 15 1 0.0 21.63222786903079 153.44986800487064 119.33870725746083 # Ar
16 16 1 0.0 107.44249817501844 127.2281476389565 128.86997553915998 # Ar
17 17 1 0.0 180.03918662807425 142.7981516441751 68.74419168836974 # Ar
18 18 1 0.0 69.55492270533794 60.13624518019116 116.6627085623596 # Ar
19 19 1 0.0 165.05951630790486 73.7963702888502 188.1395313255155 # Ar
20 20 1 0.0 91.28209039106267 21.47603379833753 67.0042774802186 # Ar
21 21 1 0.0 76.5036738764157 152.63515088505227 102.33426240132721 # Ar
22 22 1 0.0 112.06628510574691 153.12984499191074 150.51528897372447 # Ar
23 23 1 0.0 39.97443639509732 174.27970385087156 108.25394738392937 # Ar
24 24 1 0.0 101.3611561201245 191.94463499293096 31.127292932406732 # Ar
25 25 1 0.0 112.01154276200764 177.31733133539672 179.44235766596643 # Ar
26 26 1 0.0 110.71784742192223 39.75815659727219 142.72917942492145 # Ar
27 27 1 0.0 3.2414219185709907 124.3602040492074 103.37848295054376 # Ar
28 28 1 0.0 99.5991341408099 157.42597377698812 86.87957876980664 # Ar
29 29 1 0.0 0.028344606397990732 158.9134098670083 11.813383651080583 # Ar
30 30 1 0.0 125.61362778794752 143.06685488498778 110.41366872233338 # Ar
31 31 1 0.0 17.053488290113872 111.71300618222648 23.504441978110794 # Ar
32 32 1 0.0 181.53839092248526 82.43939763176894 99.96168368281536 # Ar
33 33 1 0.0 26.57883985468486 16.454409323417146 112.31967030082177 # Ar
34 34 1 0.0 155.65450834901685 81.76065683610736 10.118324069342219 # Ar
35 35 1 0.0 2.742456165594566 138.80647063379666 95.41584695051678 # Ar
36 36 1 0.0 182.03744875628877 82.76464199277173 93.9707767660066 # Ar
37 37 1 0.0 113.38538758236552 173.69331129681856 72.92950021802815 # Ar
38 38 1 0.0 167.5926332494347 189.9823515261064 169.97709171109568 # Ar
39 39 1 0.0 48.32134138241286 45.773353972918436 57.23843191604305 # Ar
40 40 1 0.0 83.97563965304923 89.78122241826472 168.0735022497165 # Ar
41 41 1 0.0 44.879944046399764 105.4276334684638 31.568193700234612 # Ar
42 42 1 0.0 43.43727141313419 183.2727817687634 37.425811082340516 # Ar
43 43 1 0.0 30.433711431723133 132.69863648946625 128.08476339036423 # Ar
44 44 1 0.0 27.46386726356473 187.8182974300543 86.34356264369936 # Ar
45 45 1 0.0 39.6487779934002 4.825459145791315 142.3601870049755 # Ar
46 46 1 0.0 60.53744610672581 19.404772524536583 178.07443528350007 # Ar
47 47 1 0.0 132.95001658114782 186.29331809519047 160.50074162442135 # Ar
48 48 1 0.0 85.16126015744308 186.32526601788092 18.100788264527285 # Ar
49 49 1 0.0 119.85853717762703 49.44648135657665 54.114055685169205 # Ar
50 50 1 0.0 3.271912961676979 127.88847790395647 157.17670017260247 # Ar
51 51 1 0.0 74.75985610203055 135.20350566968602 145.50308290461479 # Ar
52 52 1 0.0 66.34599801882857 72.35866612597479 63.94952020186632 # Ar
53 53 1 0.0 185.1104091893178 98.15732989370574 136.13626044449856 # Ar
54 54 1 0.0 93.33752351157865 17.41223537627595 35.88242156406062 # Ar
55 55 1 0.0 89.98840253125825 8.92633172411037 162.61917885183624 # Ar
56 56 1 0.0 180.19662189610818 46.25974908287574 6.7260589347148185 # Ar
57 57 1 0.0 74.00626246051209 180.60604486895994 71.00265349819934 # Ar
58 58 1 0.0 72.11587727498606 145.9015794196285 185.66572508287211 # Ar
59 59 1 0.0 69.30062765236595 22.100153319330285 155.12705066986376 # Ar
60 60 1 0.0 168.29651486176326 43.92148366387441 138.74284424740887 # Ar
61 61 1 0.0 92.56993901632461 43.217414565031206 25.20798687944999 # Ar
62 62 1 0.0 109.15592915771315 18.021595207961067 67.63860115594377 # Ar
63 63 1 0.0 14.17246689901155 37.80328980707709 191.96304317926408 # Ar
64 64 1 0.0 159.26421229170825 154.07383147174045 34.01558204786529 # Ar
65 65 1 0.0 111.52035746166924 181.20488052260583 146.65099843405702 # Ar
66 66 1 0.0 105.63717245412333 159.17739861858726 15.141812089977305 # Ar
67 67 1 0.0 145.33145417917868 10.455525759934584 107.74934484741193 # Ar
68 68 1 0.0 25.521446598941377 183.21098457495862 91.31747857671998 # Ar
69 69 1 0.0 90.84627547810523 3.0425042489431418 115.30333245964836 # Ar
70 70 1 0.0 103.26842236408675 30.581308527455583 42.246175125786415 # Ar
71 71 1 0.0 164.51119084813254 83.38980105196633 178.40798000103308 # Ar
72 72 1 0.0 12.437893088375656 98.3550330036383 14.20366848237621 # Ar
73 73 1 0.0 143.9269435063095 59.059586992060645 69.90323882322996 # Ar
74 74 1 0.0 42.74573541686017 168.53696921655748 178.12108048038556 # Ar
75 75 1 0.0 33.05825976941498 124.09065680468274 89.63700202400685 # Ar
76 76 1 0.0 26.193320281670616 97.12347116457256 182.43125879724815 # Ar
77 77 1 0.0 25.062080222059876 156.85103906390674 20.044238892306442 # Ar
78 78 1 0.0 121.1384940106803 47.18140075736711 118.71898161765424 # Ar
79 79 1 0.0 108.85433835274368 134.26426667464213 97.14179525237323 # Ar
80 80 1 0.0 62.758916487667996 43.16542005778931 176.82005746799013 # Ar
81 81 1 0.0 168.6593695770974 129.61153630409132 184.4315725074303 # Ar
82 82 1 0.0 138.60367606104865 19.82059301557596 64.42756436208768 # Ar
83 83 1 0.0 147.99633913671124 57.69513404993695 102.39909542904557 # Ar
84 84 1 0.0 26.157128526294123 134.11259398693062 54.38441597804504 # Ar
85 85 1 0.0 36.445894127395896 34.31517737270137 161.89552280443158 # Ar
86 86 1 0.0 157.1924065925745 64.23749834373741 27.739431073968905 # Ar
87 87 1 0.0 151.22873297348724 192.28490123453804 14.792480353687672 # Ar
88 88 1 0.0 64.41952586660942 138.79584350222487 176.28019504974844 # Ar
89 89 1 0.0 139.81446099502574 192.11077700690066 8.931825120919815 # Ar
90 90 1 0.0 85.92725691518189 134.10395608051155 120.5467970558631 # Ar
91 91 1 0.0 190.2501192281469 136.0202266486596 40.00365168467774 # Ar
92 92 1 0.0 154.91376012319134 35.39705068837901 102.39905862210988 # Ar
93 93 1 0.0 118.7950899418241 165.87206446012416 93.44993944252333 # Ar
94 94 1 0.0 31.466683225273222 103.33849773045736 184.18858373562372 # Ar
95 95 1 0.0 177.44699202851618 186.933306980612 182.25689101533806 # Ar
96 96 1 0.0 18.32112049778083 7.0942100122299205 70.53354854076652 # Ar
97 97 1 0.0 99.39615077834335 94.40345801982387 28.761772279163363 # Ar
98 98 1 0.0 80.73631076350917 151.60234875256066 65.04538857313845 # Ar
99 99 1 0.0 3.9197273381333986 123.11478225097756 77.9644920237927 # Ar
100 100 1 0.0 148.55765458586194 61.01398740935162 125.51069948318481 # Ar
101 101 1 0.0 83.55568879540206 79.42954431258767 59.12409815511432 # Ar
102 102 1 0.0 3.3488777158936482 96.82417231747641 89.80185918311057 # Ar
103 103 1 0.0 103.80810352349573 111.2548538681367 186.00143781203573 # Ar
104 104 1 0.0 102.36057519059685 112.39165970919183 48.50524813843095 # Ar
105 105 1 0.0 10.736553468343821 19.54520787314892 189.0130118179419 # Ar
106 106 1 0.0 182.1624911380246 69.5835094447431 84.0833597178166 # Ar
107 107 1 0.0 74.71790405153497 160.25161415827984 57.70400285537336 # Ar
108 108 1 0.0 109.16148452205593 77.276001611987 12.134955296175 # Ar
109 109 1 0.0 129.39986405600405 175.11134065796412 26.27312546499384 # Ar
110 110 1 0.0 90.71520084364744 45.24502744493089 14.450777995145696 # Ar
111 111 1 0.0 17.24841501169883 44.02123309251429 120.97623514825203 # Ar
112 112 1 0.0 129.96153956290138 87.55129348604014 10.632105981301141 # Ar
113 113 1 0.0 74.71243367207934 93.51804457484819 16.162453409922776 # Ar
114 114 1 0.0 57.29474334169932 94.26067208210266 142.94115211756866 # Ar
115 115 1 0.0 123.09838667133945 6.2154935988053435 174.32777530321647 # Ar
116 116 1 0.0 71.08765293538531 141.35332224196267 14.164237767442572 # Ar
117 117 1 0.0 9.590608977185322 112.85106827445374 151.69492932640452 # Ar
118 118 1 0.0 159.3574943428852 31.953578584366966 7.197631117803246 # Ar
119 119 1 0.0 22.43807077339868 73.88497224105983 137.61588932806336 # Ar
120 120 1 0.0 11.703912621984902 151.65629065634542 145.49423818869425 # Ar
121 121 1 0.0 8.832850231910921 60.92973175869842 160.47948998452566 # Ar
122 122 1 0.0 84.10111794193544 46.12927544176323 181.7423555606516 # Ar
123 123 1 0.0 189.83392199967074 81.12186503788969 116.48399356958856 # Ar
124 124 1 0.0 152.32122089881523 124.3259472140563 160.50299664490765 # Ar
125 125 1 0.0 17.36535084348384 90.58884618784042 27.42579385050717 # Ar
126 126 1 0.0 144.0968712428125 150.58318164120985 114.58609507040978 # Ar
127 127 1 0.0 134.72494174672784 143.95021805524297 128.80453190283671 # Ar
128 128 1 0.0 25.565654417201443 44.18931950014794 164.54834960664442 # Ar
129 129 1 0.0 119.78037013778409 43.388309724340466 92.60844788150975 # Ar
130 130 1 0.0 146.12572275220757 184.57808878398487 135.6823650375558 # Ar
131 131 1 0.0 132.3511170764523 175.32753489331904 96.46479323580657 # Ar
132 132 1 0.0 102.25916701526087 114.05880887627514 137.40411706049736 # Ar
133 133 1 0.0 20.519941950539817 134.8182073532514 114.7186664118984 # Ar
134 134 1 0.0 5.742992931538195 110.59726287181036 188.80007204650525 # Ar
135 135 1 0.0 91.56085645329306 59.880509202591824 139.00156586527712 # Ar
136 136 1 0.0 155.78105013917312 10.029454582146734 48.91588765500904 # Ar
137 137 1 0.0 100.02097610153098 144.36249225216892 165.66293735889843 # Ar
138 138 1 0.0 123.88954599590433 42.259324179231946 131.79814060910564 # Ar
139 139 1 0.0 92.82262259993428 32.34979946914635 136.05761722770396 # Ar
140 140 1 0.0 16.489969679928496 165.5818472892302 135.38077284539304 # Ar
141 141 1 0.0 0.22680543245761772 105.80468673526295 69.25235557854387 # Ar
142 142 1 0.0 28.401109970458204 146.8409231700522 54.35074508590075 # Ar
143 143 2 0.0 1.806629759342766 98.31445072516554 93.24280980062764 # Ar+
144 144 2 0.0 61.452627074318485 94.77811326187295 43.004307691068085 # Ar+
145 145 2 0.0 52.291210921211125 62.189339776846225 51.48911085009631 # Ar+
146 146 2 0.0 105.6631220647955 109.04749377322915 65.4457107435802 # Ar+
147 147 2 0.0 141.2132279872095 129.79081607375804 129.56173956530844 # Ar+
148 148 2 0.0 63.7713365445095 112.28884140220586 4.541392118717015 # Ar+
149 149 2 0.0 77.55767386562155 15.41238721027948 24.28240850705082 # Ar+
150 150 2 0.0 183.40398376166837 107.34363653916851 182.69879885921725 # Ar+
