LAMMPS data file -- atom_style full -- generated by chemfiles
150 atoms
0 bonds
0 angles
0 dihedrals
0 impropers
2 atom types
0 bond types
0 angle types
0 dihedral types
0 improper types
0.00000000 413.303607 xlo xhi
0.00000000 413.303607 ylo yhi
0.00000000 413.303607 zlo zhi

# Pair Coeffs
# 1 Ar
# 2 Ar+

Masses

1 39.948 # Ar
2 39.948 # Ar+

Atoms # full

1 1 1 0.0 13.904782291947427 203.93808992039243 388.5252005617488 # Ar
2 2 1 0.0 308.9564508218387 394.4480018680424 403.47610494531443 # Ar
3 3 1 0.0 56.21742576073674 235.78624946973716 220.44555994032487 # Ar
4 4 1 0.0 297.76504409493964 384.41870901093046 246.03443854441105 # Ar
5 5 1 0.0 335.86558548287485 10.444692531298344 316.39472109084636 # Ar
6 6 1 0.0 38.129323785976865 178.3817150835058 194.38523969003944 # Ar
7 7 1 0.0 17.97865413847639 157.8702096933216 248.3984920917733 # Ar
8 8 1 0.0 6.562689170645336 291.75046318361785 393.532867463102 # Ar
9 9 1 0.0 279.30709931852914 352.97021635428797 56.793322852148385 # Ar
10 10 1 0.0 96.39106016484894 230.94995749151835 383.4416204833674 # Ar
11 11 1 0.0 345.67178489132914 281.08993115737286 295.46032536876794 # Ar
12 12 1 0.0 216.46519267175557 100.90600400912064 111.93445677116011 # Ar
13 13 1 0.0 264.34596988380537 263.7128459920352 179.56796754275922 # Ar
14 14 1 0.0 185.99710416819198 242.10933155955277 351.5259358519138 # Ar
15 15 1 0.0 313.8947016365891 61.4294971976271 61.59622742111958 # Ar
16 16 1 0.0 62.59230765359369 362.28372591665186 117.49732322518899 # Ar
17 17 1 0.0 378.95083703881556 308.97250627729824 139.83330283517276 # Ar
18 18 1 0.0 170.51423533324947 350.97462570962085 174.5664019066758 # Ar
19 19 1 0.0 178.98553140153146 90.03102584264501 71.6954872771107 # Ar
20 20 1 0.0 387.92405153072997 358.44359447204073 360.94166872097395 # Ar
21 21 1 0.0 240.64851219636253 297.3292892434689 244.09571529094757 # Ar
22 22 1 0.0 192.31030208627266 45.26070523350604 284.48497351209323 # Ar
23 23 1 0.0 175.56909820863277 18.444767564127794 297.9328851754482 # Ar
24 24 1 0.0 18.901525874986703 66.41368886322812 282.2981488876902 # Ar
25 25 1 0.0 179.58083313703324 224.45224162992156 279.5530900643172 # Ar
26 26 1 0.0 270.68161166255805 75.77650683807275 70.37032555541994 # Ar
27 27 1 0.0 257.29369944478844 369.7034554474889 210.88938582119852 # Ar
28 28 1 0.0 272.6127705986837 20.468595564048922 298.60714487630185 # Ar
29 29 1 0.0 389.1477761864878 401.0684732129691 233.90784844965535 # Ar
30 30 1 0.0 410.7376956995457 79.84702288404813 97.94233166896657 # Ar
31 31 1 0.0 39.37701708201052 195.69702154801382 220.31267652848513 # Ar
32 32 1 0.0 88.54038695179554 123.89439373013863 295.8716417018573 # Ar
33 33 1 0.0 263.71019836546617 119.35850780338471 242.90863536028726 # Ar
34 34 1 0.0 97.36013901604753 117.9656241054647 359.76962119844904 # Ar
35 35 1 0.0 235.86706420577724 205.71764154431017 369.8750824646606 # Ar
36 36 1 0.0 372.1625478460313 168.21505471354251 339.34703647416853 # Ar
37 37 1 0.0 208.6958075896226 384.99795882282467 257.43155689293536 # Ar
38 38 1 0.0 315.59807024967085 350.0496377727497 153.19419224572917 # Ar
39 39 1 0.0 250.05115560813852 373.46142160764043 174.7759389236429 # Ar
40 40 1 0.0 211.06948287236187 119.32727931739284 122.14393942234878 # Ar
41 41 1 0.0 181.63333933743036 403.01963779485783 253.76497662666483 # Ar
42 42 1 0.0 92.81435400161446 342.95272212891285 149.34750970231812 # Ar
43 43 1 0.0 97.64177742917381 366.59962600470124 303.862615927322 # Ar
44 44 1 0.0 21.898880675272174 90.62363372800148 269.7371192446138 # Ar
45 45 1 0.0 29.91551877602896 290.2199777713526 210.62763274036743 # Ar
46 46 1 0.0 80.79067777546328 409.2904495665245 287.5459506326532 # Ar
47 47 1 0.0 362.475425964261 69.61943179073846 22.197097572671197 # Ar
48 48 1 0.0 196.92217424783243 365.4983478855668 294.48719167595647 # Ar
49 49 1 0.0 59.53962940546132 37.34475177873272 175.5395255480905 # Ar
50 50 1 0.0 342.9519998865069 151.2745620236338 393.4098461742269 # Ar
51 51 1 0.0 88.60330153645599 68.43400624082581 391.78363380134755 # Ar
52 52 1 0.0 392.02092972493574 193.45748979562546 5.184435789080791 # Ar
53 53 1 0.0 359.3041935295887 18.821484161599162 134.924124787984 # Ar
54 54 1 0.0 201.64616617340604 326.066469214983 310.64550077101217 # Ar
55 55 1 0.0 100.7374128242527 28.46582665612206 186.13919320422013 # Ar
56 56 1 0.0 75.78379809307683 189.4774301533945 9.758714554192363 # Ar
57 57 1 0.0 51.10897320834098 245.2563555622402 276.17967962186435 # Ar
58 58 1 0.0 128.9218778117422 247.10040095375493 109.89085042994394 # Ar
59 59 1 0.0 258.935127558869 180.09890512817336 355.8054037916337 # Ar
60 60 1 0.0 67.69042351474066 91.28765867100846 272.894184169856 # Ar
61 61 1 0.0 11.611837292199874 250.5961935657369 373.017182472337 # Ar
62 62 1 0.0 176.5618556406808 330.5336532850223 58.06882129666746 # Ar
63 63 1 0.0 246.76202818962534 176.9594253029746 99.57517227581674 # Ar
64 64 1 0.0 124.93334156046045 229.62905813163428 125.41337577262118 # Ar
65 65 1 0.0 32.58266587136765 94.10923682326246 39.992430175866886 # Ar
66 66 1 0.0 7.129846584297452 202.1455401347259 43.72358978084299 # Ar
67 67 1 0.0 320.0218487379675 187.07028547041105 289.457716033792 # Ar
68 68 1 0.0 286.6611559513813 126.13256150885815 408.58384136271155 # Ar
69 69 1 0.0 76.88409237031505 191.59711061341707 376.0196064998838 # Ar
70 70 1 0.0 320.33441659350916 169.8190057632846 262.80242487528767 # Ar
71 71 1 0.0 383.36162652450207 29.95589345625609 387.4375065629447 # Ar
72 72 1 0.0 364.3832607390077 312.90084897429665 184.96616093614605 # Ar
73 73 1 0.0 257.6200001033268 37.36463785090123 87.62241491503876 # Ar
74 74 1 0.0 230.49688961656176 111.67306410323508 275.70673894837114 # Ar
75 75 1 0.0 380.31339735135845 260.25268619735834 206.25722722415878 # Ar
76 76 1 0.0 41.131182265672386 359.1158978826848 235.95961590247586 # Ar
77 77 1 0.0 388.4009867261121 376.9076788095452 121.16813757830694 # Ar
78 78 1 0.0 53.637620471770944 165.09271381120442 39.40075995949925 # Ar
79 79 1 0.0 117.8330283729886 136.80220855878684 293.20216397897343 # Ar
80 80 1 0.0 114.76492392853507 151.12425625877904 221.63991917821718 # Ar
81 81 1 0.0 254.0476672377691 28.191397321615135 110.92587678233298 # Ar
82 82 1 0.0 357.9994773771591 135.64571467919075 74.68211872611217 # Ar
83 83 1 0.0 272.78377282105345 196.33578149718605 377.14773600383955 # Ar
84 84 1 0.0 196.97292144231147 406.19795276154395 334.7838365123826 # Ar
85 85 1 0.0 44.67376481919052 279.1490634178521 67.69394523098264 # Ar
86 86 1 0.0 31.115468918548114 183.30747316140375 140.35772258082778 # Ar
87 87 1 0.0 284.7220466380527 134.87377917480302 14.773045356483594 # Ar
88 88 1 0.0 198.94321185451676 50.08258307397126 119.86964344267939 # Ar
89 89 1 0.0 175.73455344489605 125.17921176965126 229.97521722232182 # Ar
90 90 1 0.0 409.9948228541197 223.67909987503677 36.159050410071096 # Ar
91 91 1 0.0 164.71377067161006 412.6081198030132 304.613599683918 # Ar
92 92 1 0.0 270.54753853065046 56.58189797382367 33.74465557307682 # Ar
93 93 1 0.0 93.16537813781615 154.4639367552651 279.7111049832541 # Ar
94 94 1 0.0 269.17488072102793 0.31489043722620375 291.61263228809304 # Ar
95 95 1 0.0 388.10240907857036 193.07723828881765 284.38526014368455 # Ar
96 96 1 0.0 55.579165136801365 25.51904411502733 120.91846962587094 # Ar
97 97 1 0.0 2.210985773507265 356.7430973980061 175.9103249718207 # Ar
98 98 1 0.0 378.5562440991798 78.36707608204658 117.11859170127526 # Ar
99 99 1 0.0 108.664082047855 22.58866095471655 162.95891410012013 # Ar
100 100 1 0.0 209.73272079998304 191.0483708997976 264.3925457485327 # Ar
101 101 1 0.0 128.80094267618512 300.685505967378 119.40610248351577 # Ar
102 102 1 0.0 147.7062961213941 195.8044458901118 87.5593721048451 # Ar
103 103 1 0.0 347.4942533405616 366.74664266367915 300.88688688206383 # Ar
104 104 1 0.0 240.10249585051793 192.67834902708256 104.89722472169852 # Ar
105 105 1 0.0 57.20736108955009 381.90254639165653 322.7454161817605 # Ar
106 106 1 0.0 340.0812814412907 106.77045531900848 405.9260565909044 # Ar
107 107 1 0.0 214.0462695715635 39.65689143991263 122.10513232418249 # Ar
108 108 1 0.0 362.251230411096 23.1706957639443 291.4538846339457 # Ar
109 109 1 0.0 53.23265695431713 172.02447976946547 93.5129238141951 # Ar
110 110 1 0.0 224.6143715120571 392.63080195348806 140.17732027668993 # Ar
111 111 1 0.0 68.19200464721041 117.03836134039994 383.6990386305906 # Ar
112 112 1 0.0 279.2681102850414 149.67737582204353 220.33806361627725 # Ar
113 113 1 0.0 333.03710045321304 386.27769901801486 304.9424331569736 # Ar
114 114 1 0.0 234.86684126623416 168.33538218689134 278.00983436374605 # Ar
115 115 1 0.0 247.2646440642347 1.2484006805070536 254.72998834541357 # Ar
116 116 1 0.0 188.76561939208486 318.0265110049742 325.55578827555127 # Ar
117 117 1 0.0 171.33338945189985 23.336427614707265 125.93710761184829 # Ar
118 118 1 0.0 103.93589352606784 249.34279847048725 140.6584569161477 # Ar
119 119 1 0.0 182.78800339631508 122.30761316257986 399.7491530845823 # Ar
120 120 1 0.0 191.62725530435716 85.41294447834505 200.36211654126907 # Ar
121 121 1 0.0 252.9143702753799 94.29587505948281 83.03193139231448 # Ar
122 122 1 0.0 154.05379744451582 100.48012770758415 149.91644103262342 # Ar
123 123 1 0.0 44.99164972547789 42.4460138385292 184.32147612601008 # Ar
124 124 1 0.0 217.1994862235841 344.75043679067926 140.60929870901117 # Ar
125 125 1 0.0 84.52583999688284 318.5730245839909 35.728955338519675 # Ar
126 126 1 0.0 397.7613350921039 358.7976992019896 0.5882753784218561 # Ar
127 127 1 0.0 295.56342647912874 384.85923222309134 242.91273784418667 # Ar
128 128 1 0.0 155.4114473799562 344.31719630533615 391.0903651237022 # Ar
129 129 1 0.0 154.2883851021337 160.22782896999593 122.7848824535217 # Ar
130 130 1 0.0 251.16502513991634 39.559633898133995 198.93050772809497 # Ar
131 131 1 0.0 25.699254732287894 369.1874566749575 197.49275117155977 # Ar
132 132 2 0.0 337.4984239478877 328.5898833056471 254.26114211016994 # Ar+
133 133 2 0.0 374.5322964367517 187.4604509060243 54.14869845114952 # Ar+
134 134 2 0.0 276.3367197140275 295.9120767951109 33.271356555164715 # Ar+
135 135 2 0.0 177.96583569244336 177.58204518924566 192.9723732503628 # Ar+
136 136 2 0.0 279.27592138321893 135.7710951523355 317.350298522313 # Ar+
137 137 2 0.0 77.02176397124595 78.16803756920619 164.42432021466817 # Ar+
138 138 2 0.0 167.67974844489237 221.8087748246608 131.79163521474456 # Ar+
139 139 2 0.0 82.8123007867972 119.26368412912333 110.78167963820103 # Ar+
140 140 2 0.0 291.31468735857806 411.7852313325224 268.199880180446 # Ar+
141 141 2 0.0 303.8716976705688 269.62361087851104 11.496723497022657 # Ar+
142 142 2 0.0 113.28926020128795 282.8637368077106 363.4506989341496 # Ar+
143 143 2 0.0 384.01698670976697 52.18133529267717 10.48106977943571 # Ar+
144 144 2 0.0 220.01902669154015 352.7301023397164 354.26375844894534 # Ar+
145 145 2 0.0 4.861191503743448 78.17114629624376 38.41549781984445 # Ar+
146 146 2 0.0 278.3791803602625 218.37777596201866 363.80491911450696 # Ar+
147 147 2 0.0 52.000122064946915 105.89574384208694 184.91326483615745 # Ar+
148 148 2 0.0 289.04366661433005 135.02677405534328 38.12485579406758 # Ar+
149 149 2 0.0 323.52134661896616 46.41099647623854 356.25046240318056 # Ar+
150 150 2 0.0 379.32230043262797 200.35576338377635 177.47530487253593 # Ar+
