LAMMPS data file -- atom_style full -- generated by chemfiles
2000 atoms
0 bonds
0 angles
0 dihedrals
0 impropers
1 atom types
0 bond types
0 angle types
0 dihedral types
0 improper types
0.00000000 1108.63578 xlo xhi
0.00000000 1108.63578 ylo yhi
0.00000000 1108.63578 zlo zhi

# Pair Coeffs
# 1 Ar

Masses

1 39.948 # Ar

Atoms # full

1 1 1 0.0 375.04284942307953 38.52176612456948 89.09900199513335 # Ar
2 2 1 0.0 633.6120802792071 1075.9765109483167 467.68644344863117 # Ar
3 3 1 0.0 704.0701472004993 170.7330758931951 717.8554756350727 # Ar
4 4 1 0.0 703.1013418189452 726.6492034803073 542.352417349273 # Ar
5 5 1 0.0 771.2958173754789 1009.5416654952548 575.3176118030922 # Ar
6 6 1 0.0 165.35232477551827 446.4603038774084 680.6839566266274 # Ar
7 7 1 0.0 339.85223831140587 592.1049579181248 397.5171106980768 # Ar
8 8 1 0.0 1005.4963548945851 743.1316498511079 823.1748309997629 # Ar
9 9 1 0.0 386.0306160652369 1099.490418680936 897.4863598845376 # Ar
10 10 1 0.0 213.11608564551324 942.5678663137935 561.1750036909482 # Ar
11 11 1 0.0 1102.5315102188208 679.4101927672042 844.0283407028846 # Ar
12 12 1 0.0 761.9611722903767 163.24669501931314 755.56647205758 # Ar
13 13 1 0.0 512.7728395124057 116.83592191583985 164.75474368639001 # Ar
14 14 1 0.0 1061.2279533720084 48.82633872091321 399.7286246191852 # Ar
15 15 1 0.0 596.1995224779795 298.64894644481774 48.78466394703752 # Ar
16 16 1 0.0 569.7650058515882 324.07676851530533 733.1867262540636 # Ar
17 17 1 0.0 874.3071884912102 300.8680831812555 955.7138444809168 # Ar
18 18 1 0.0 46.24973242958524 492.5039606911623 382.95610392805133 # Ar
19 19 1 0.0 451.1943290788195 844.5868752742648 799.8085783749142 # Ar
20 20 1 0.0 155.60636699370022 778.5968316857247 66.59603623490017 # Ar
21 21 1 0.0 845.3440146917327 315.81166853329944 219.80100076104668 # Ar
22 22 1 0.0 799.2296151201729 593.5416679393721 1040.8622932910766 # Ar
23 23 1 0.0 1072.1855107349563 452.85456948975184 240.48893141633906 # Ar
24 24 1 0.0 70.3739212695392 101.80902989835928 483.8551958295039 # Ar
25 25 1 0.0 782.4222829283269 693.7534086883926 938.712982552635 # Ar
26 26 1 0.0 825.6242907449783 785.1397401681659 801.3763724057409 # Ar
27 27 1 0.0 940.3281260333462 188.8842161921485 794.3963730234674 # Ar
28 28 1 0.0 347.4780651296899 932.2611614558791 747.4201372038189 # Ar
29 29 1 0.0 23.509392285712114 200.89936356855281 113.82234785407398 # Ar
30 30 1 0.0 90.17692639819118 551.6289033011111 203.91380254310747 # Ar
31 31 1 0.0 707.9171579077081 667.6144515587179 553.7267248225606 # Ar
32 32 1 0.0 502.9059060839914 1084.9287300625247 649.497403761149 # Ar
33 33 1 0.0 257.9627154254636 706.9545115188635 917.5685799925533 # Ar
34 34 1 0.0 842.3014795810986 999.2344383193637 458.1698252264962 # Ar
35 35 1 0.0 1061.7774365347063 1072.543583658845 86.65816069542872 # Ar
36 36 1 0.0 811.3703677336247 383.34907437848125 941.5759909051552 # Ar
37 37 1 0.0 375.5434660231455 590.6135192144653 12.250892131520734 # Ar
38 38 1 0.0 161.5162700764286 1021.4196286151146 107.52343428314087 # Ar
39 39 1 0.0 680.8254755184688 244.15067389443652 510.1162236485734 # Ar
40 40 1 0.0 879.8505296243999 331.5675198810144 146.6141580752837 # Ar
41 41 1 0.0 35.37837567759448 1.2418187831974323 877.0345826897585 # Ar
42 42 1 0.0 244.67994885303733 153.72023064220235 738.4549149180916 # Ar
43 43 1 0.0 819.9986758108558 664.4912233287971 205.7789676623759 # Ar
44 44 1 0.0 554.6794845633616 651.2053429951708 636.0462754946578 # Ar
45 45 1 0.0 941.902388337269 542.714999617586 139.58613423946912 # Ar
46 46 1 0.0 1078.4934780707654 754.1513432505445 776.289490988425 # Ar
47 47 1 0.0 765.9873965251296 509.54426496911066 835.6514365059148 # Ar
48 48 1 0.0 60.115424262462746 130.7288957219675 865.2805330394195 # Ar
49 49 1 0.0 145.08325098235616 631.821653976647 225.0863328932268 # Ar
50 50 1 0.0 638.7800723640395 791.8524004770155 840.1541540006003 # Ar
51 51 1 0.0 100.67236692124061 777.8923891469739 261.11018038253115 # Ar
52 52 1 0.0 257.1902670318228 959.0559081478777 434.75066115632654 # Ar
53 53 1 0.0 700.3487261863129 364.75046346963023 122.6915132738417 # Ar
54 54 1 0.0 626.7009797192677 231.8951495770312 1081.0897999374827 # Ar
55 55 1 0.0 504.5959046774434 903.7945889272663 274.7531634008638 # Ar
56 56 1 0.0 5.241513882132227 770.0599486471258 1088.7787987397123 # Ar
57 57 1 0.0 961.7093334133026 337.17585181045564 0.18737166978602338 # Ar
58 58 1 0.0 658.4217154086626 662.3343011619787 984.9520857715756 # Ar
59 59 1 0.0 1068.966969548576 990.5423988242401 1006.2457645847292 # Ar
60 60 1 0.0 863.2573379274722 879.8312336125665 708.3609855266899 # Ar
61 61 1 0.0 372.9601135927149 680.7024161934428 389.41366869941163 # Ar
62 62 1 0.0 1049.4397299202515 247.18110054723232 988.0911734143899 # Ar
63 63 1 0.0 563.2208521785723 296.0983766579444 754.3179099727532 # Ar
64 64 1 0.0 208.49447244653118 914.6241501915126 1053.5638530622641 # Ar
65 65 1 0.0 75.75697574844465 110.99802503806329 396.3899135414949 # Ar
66 66 1 0.0 7.043817704571998 32.04317328079925 790.4563812632508 # Ar
67 67 1 0.0 800.153352412332 233.63145508464012 710.9083224627738 # Ar
68 68 1 0.0 1067.449055441544 995.6178752903761 914.6809249233038 # Ar
69 69 1 0.0 647.9370433643902 207.3156508297321 1020.9375100758483 # Ar
70 70 1 0.0 824.6022013210538 1036.0733783291096 782.0027847126116 # Ar
71 71 1 0.0 641.3198355547413 13.249103079751645 405.53588691146325 # Ar
72 72 1 0.0 1061.517680169585 852.0104870194585 494.72466426072316 # Ar
73 73 1 0.0 267.84403080835983 729.4771369259132 31.52792219159096 # Ar
74 74 1 0.0 847.4533302220246 1095.8999546387831 316.5248665646087 # Ar
75 75 1 0.0 344.11860036063246 938.5853017542976 1031.8752282172225 # Ar
76 76 1 0.0 355.1829625577488 265.63994259401665 469.83652794605973 # Ar
77 77 1 0.0 43.12263028063503 65.61152105235105 431.3415541183046 # Ar
78 78 1 0.0 942.3773204646577 1054.4548924657624 583.6059335223525 # Ar
79 79 1 0.0 670.3634980239453 354.1837409855039 1042.41024259876 # Ar
80 80 1 0.0 121.52654680691059 858.3269007150487 131.87127126227728 # Ar
81 81 1 0.0 726.8102526368631 282.57905158965093 725.3968609262612 # Ar
82 82 1 0.0 629.5100069550529 285.1657558372894 911.6210468692757 # Ar
83 83 1 0.0 919.261622700618 576.2349354667803 490.380887733684 # Ar
84 84 1 0.0 295.0335189593925 63.832363674304155 346.0657511680981 # Ar
85 85 1 0.0 55.36952037947554 88.13769722845478 568.3876759545843 # Ar
86 86 1 0.0 125.57131308447197 226.0645640989803 1089.5297925066566 # Ar
87 87 1 0.0 442.22152466341464 802.9983573192713 38.41008232736042 # Ar
88 88 1 0.0 145.9678571171479 279.0344680359631 197.11720080858623 # Ar
89 89 1 0.0 749.3669325144825 249.3730356835573 953.1492924709245 # Ar
90 90 1 0.0 691.3757612429292 694.2123515125492 726.8090108590216 # Ar
91 91 1 0.0 253.37888591507388 968.1010815954575 532.4091546820791 # Ar
92 92 1 0.0 772.3360087042798 1054.9656303417523 285.1020944916101 # Ar
93 93 1 0.0 881.8443092754608 974.4548922132876 854.1622245565339 # Ar
94 94 1 0.0 362.11421119892975 257.675822745052 127.93260565896192 # Ar
95 95 1 0.0 965.0781698175347 405.8612964329122 794.6054548207663 # Ar
96 96 1 0.0 932.3281213188827 828.1077670019736 762.7292534156834 # Ar
97 97 1 0.0 860.4257833279376 487.9348055347075 881.1294548076379 # Ar
98 98 1 0.0 721.5242666446633 155.4857346714363 683.5795512546023 # Ar
99 99 1 0.0 2.2742490343484816 1054.432840899075 270.4616674255415 # Ar
100 100 1 0.0 442.58844428570325 904.4470466397045 546.5884492330129 # Ar
101 101 1 0.0 604.5746741460146 1024.8553434565058 1031.7765617412913 # Ar
102 102 1 0.0 268.23839074513694 990.597297721036 655.2688368553939 # Ar
103 103 1 0.0 381.37673312495764 284.70655095789436 24.98486629200921 # Ar
104 104 1 0.0 127.65580008982562 338.10822059667345 798.7057522838646 # Ar
105 105 1 0.0 445.60334019138503 759.3952511234677 10.280568813370152 # Ar
106 106 1 0.0 509.50215801014286 759.4051068597369 736.6854183128363 # Ar
107 107 1 0.0 717.6416210310695 672.6994452688647 1048.6096410807388 # Ar
108 108 1 0.0 264.529186161929 654.726579656098 791.8384085282237 # Ar
109 109 1 0.0 71.87549205132163 313.90679813828905 475.77425124090274 # Ar
110 110 1 0.0 610.6718836330112 59.26643473907858 284.63058738656946 # Ar
111 111 1 0.0 1010.5331030834986 856.3229125207204 991.9701381428713 # Ar
112 112 1 0.0 80.0729319901593 570.1866421348062 96.43620401974667 # Ar
113 113 1 0.0 345.48216924437975 539.8255597243163 953.270172002109 # Ar
114 114 1 0.0 1072.4154517712732 1051.1252465775856 144.61091299936444 # Ar
115 115 1 0.0 315.81419644968116 493.4720168362303 811.7965073596674 # Ar
116 116 1 0.0 810.4199879231264 306.1012804470438 203.51241579354706 # Ar
117 117 1 0.0 894.1110463192178 630.9310555196707 404.7619001103324 # Ar
118 118 1 0.0 472.87380078961814 112.81816994304141 169.17574941582876 # Ar
119 119 1 0.0 56.656421323693486 179.7443911433329 632.2021116015463 # Ar
120 120 1 0.0 177.7483688346282 680.6895540112923 89.51462256804754 # Ar
121 121 1 0.0 1039.4787958825164 707.9619283810061 493.0540126368345 # Ar
122 122 1 0.0 294.2345807762177 1001.2600968342348 954.6971519227891 # Ar
123 123 1 0.0 637.7306664588568 378.6772713147148 1046.6305904392377 # Ar
124 124 1 0.0 952.7822758522436 1107.685201424249 1024.993820127943 # Ar
125 125 1 0.0 953.6765039554992 81.57634149708412 961.2215260680168 # Ar
126 126 1 0.0 1009.024090498804 858.4230360999442 251.79115632757407 # Ar
127 127 1 0.0 237.74932557218767 670.83232293329 53.52208931437372 # Ar
128 128 1 0.0 627.7450627980977 484.59712688388487 422.13059387873324 # Ar
129 129 1 0.0 358.3862028355358 20.914097634455853 800.9954200859144 # Ar
130 130 1 0.0 496.1881681595528 896.145096018598 1074.917318562071 # Ar
131 131 1 0.0 397.2260614831693 910.2897305334716 1020.1870803161455 # Ar
132 132 1 0.0 889.5962027282889 832.0013322886947 29.763814591366803 # Ar
133 133 1 0.0 852.2731608173257 163.71403318300904 549.9218583349162 # Ar
134 134 1 0.0 796.6376656304317 129.50939093749733 606.2598864570356 # Ar
135 135 1 0.0 610.0506914067704 99.70111355451647 1013.5681380921083 # Ar
136 136 1 0.0 438.78638591677134 1015.8579883975756 263.02554944022233 # Ar
137 137 1 0.0 663.069235238552 131.01099753220947 123.47857564482199 # Ar
138 138 1 0.0 544.1082017857711 617.9320022345953 560.3491742677319 # Ar
139 139 1 0.0 573.6877063021808 399.81917197299407 64.98610958892142 # Ar
140 140 1 0.0 725.5513713980384 30.44893336039761 743.7754800543386 # Ar
141 141 1 0.0 794.0615430160412 112.06057342559701 321.8899276587245 # Ar
142 142 1 0.0 719.4469766093935 1084.8304032942924 857.866459753636 # Ar
143 143 1 0.0 980.659495267395 789.145794792918 1041.335859966403 # Ar
144 144 1 0.0 109.87690579117167 360.2588064486535 338.65969706199 # Ar
145 145 1 0.0 1051.742741905069 542.46106668713 848.7591112580025 # Ar
146 146 1 0.0 712.0088103289805 74.27841919523073 252.25467435587288 # Ar
147 147 1 0.0 706.4751086837208 250.5716943257267 431.98858481217036 # Ar
148 148 1 0.0 71.3541120604704 639.0121828624887 74.35603011297313 # Ar
149 149 1 0.0 958.3120520497106 393.80193965327527 114.18543520881481 # Ar
150 150 1 0.0 513.0539445506332 783.2647087660524 827.0769203195988 # Ar
151 151 1 0.0 212.264756585664 868.2064408192101 1047.6513249504887 # Ar
152 152 1 0.0 122.60305281751953 1067.864656153993 355.4830781334488 # Ar
153 153 1 0.0 745.9199914490358 490.0614196951524 844.1005529033714 # Ar
154 154 1 0.0 208.79456690036554 170.57243439402936 393.8414944467062 # Ar
155 155 1 0.0 484.22173156185426 143.44180013665198 677.9036718556348 # Ar
156 156 1 0.0 106.790660614871 406.23767770449655 118.1280846529272 # Ar
157 157 1 0.0 189.67078208109626 189.51679419309315 540.8016954328912 # Ar
158 158 1 0.0 258.35793734787154 798.991285194472 960.5017676104169 # Ar
159 159 1 0.0 449.4854090824588 36.00348648582077 644.7715944290808 # Ar
160 160 1 0.0 60.16376798503216 870.2682791622808 783.4657093280164 # Ar
161 161 1 0.0 575.5893219100918 396.5666721025045 115.38139434665797 # Ar
162 162 1 0.0 874.689468398624 934.0140308274316 99.29100840215908 # Ar
163 163 1 0.0 283.25199341879284 609.9830475926185 207.94706089566014 # Ar
164 164 1 0.0 36.26244847295871 268.8510315388435 1082.1018719880321 # Ar
165 165 1 0.0 412.3218567024798 432.3945807056985 722.1200754960817 # Ar
166 166 1 0.0 373.30677026998916 954.3432126520416 631.6806393011467 # Ar
167 167 1 0.0 637.819678136936 666.9154632193486 322.9872126806931 # Ar
168 168 1 0.0 826.5965877881025 606.6681011911278 705.5943331784332 # Ar
169 169 1 0.0 1021.6824163992637 297.45267683319605 515.1529568530161 # Ar
170 170 1 0.0 876.2439243613114 894.3611347061433 1040.3022010656596 # Ar
171 171 1 0.0 1035.00685700679 175.3116850135011 478.7163639275 # Ar
172 172 1 0.0 274.052716713062 554.0325651022081 463.4870593637084 # Ar
173 173 1 0.0 7.224250051973635 1003.3395110427596 53.673336666644886 # Ar
174 174 1 0.0 181.7519941725621 896.3601575982033 335.8775752294049 # Ar
175 175 1 0.0 209.8739067782408 747.9427480667797 926.358682553977 # Ar
176 176 1 0.0 706.4714292448817 378.3454900483361 906.2714840544056 # Ar
177 177 1 0.0 512.4180026416226 780.1017743176352 70.59133357621192 # Ar
178 178 1 0.0 452.79732527030643 713.0212474205234 129.93499934859898 # Ar
179 179 1 0.0 945.107750557681 515.0749425065238 555.0146184108065 # Ar
180 180 1 0.0 922.9863641517845 105.45795422003485 140.25689066737866 # Ar
181 181 1 0.0 449.687758039484 774.4428263348378 174.98340746625453 # Ar
182 182 1 0.0 420.05349062332755 152.78374897462976 834.6202196338895 # Ar
183 183 1 0.0 561.2728508532205 1061.547087434225 357.20135349147534 # Ar
184 184 1 0.0 0.24363668257097534 264.1293494466139 518.1145011598355 # Ar
185 185 1 0.0 239.94801933722317 782.6567451065101 256.10360105076956 # Ar
186 186 1 0.0 814.204047556429 552.0991885205946 681.3151553796698 # Ar
187 187 1 0.0 1071.399680901878 599.9986857328385 593.7705636948491 # Ar
188 188 1 0.0 1012.4856357967784 243.18734946296453 979.8296199565333 # Ar
189 189 1 0.0 462.33701860852585 617.1113135588512 807.1350557719625 # Ar
190 190 1 0.0 268.52124811297267 698.8792339348015 842.604552074293 # Ar
191 191 1 0.0 160.4776736761621 30.633729450080562 121.62526835439942 # Ar
192 192 1 0.0 729.320641568049 980.9330969186328 723.9455173460761 # Ar
193 193 1 0.0 741.7454353990685 141.98436238150643 216.9441034042506 # Ar
194 194 1 0.0 491.96859820423356 488.859240212976 162.47461316971257 # Ar
195 195 1 0.0 428.17733529851733 1003.1780765776348 519.0590563884473 # Ar
196 196 1 0.0 900.5255697759324 803.2330148762065 265.3383296566855 # Ar
197 197 1 0.0 932.1270458714968 99.49787757383427 941.3345048361563 # Ar
198 198 1 0.0 982.4476795009593 779.794294657817 56.157373869997684 # Ar
199 199 1 0.0 187.53192544597263 224.94191023643805 360.41676348726855 # Ar
200 200 1 0.0 173.7211963804744 747.4376685892104 566.6641887393424 # Ar
201 201 1 0.0 134.22619428827377 541.5867571093045 939.2602720056401 # Ar
202 202 1 0.0 203.66293308797773 1100.5282561447834 830.1210563510509 # Ar
203 203 1 0.0 710.7834688500981 265.9837092373986 136.57102722996976 # Ar
204 204 1 0.0 133.8526924771478 737.1604103207557 272.5695845156832 # Ar
205 205 1 0.0 919.2034110651231 480.77314384592796 42.91843799110453 # Ar
206 206 1 0.0 875.6268337092072 235.59613672009914 548.185538406264 # Ar
207 207 1 0.0 1081.6939344527627 1034.614029782998 283.3829421584688 # Ar
208 208 1 0.0 738.0467518610021 775.536743850789 247.24174521639762 # Ar
209 209 1 0.0 148.9116940138278 951.9644475405489 487.7123245363758 # Ar
210 210 1 0.0 949.3293205215592 613.942289621129 270.38607253041044 # Ar
211 211 1 0.0 351.6514152280393 229.232242438433 168.9061143167354 # Ar
212 212 1 0.0 131.14881691976217 975.8902844929908 694.9724090743177 # Ar
213 213 1 0.0 309.1660773590229 526.301077994778 83.97855379388747 # Ar
214 214 1 0.0 139.02910660991586 376.8596764336925 1051.568950787416 # Ar
215 215 1 0.0 414.9959272746949 751.6017823984582 299.85032471434937 # Ar
216 216 1 0.0 551.7593298007364 413.2077477106061 658.0504049794037 # Ar
217 217 1 0.0 140.4418197803343 140.90962890056593 614.6665375209785 # Ar
218 218 1 0.0 407.308645993235 1014.6352376401687 395.15935201783935 # Ar
219 219 1 0.0 200.3916091345425 635.2777690758213 1014.7002302253951 # Ar
220 220 1 0.0 32.49740224691166 920.6284224975329 20.227494761071387 # Ar
221 221 1 0.0 540.3985502080562 481.071810548472 962.5099865377957 # Ar
222 222 1 0.0 666.7972180905222 691.6128737614971 201.12300376135687 # Ar
223 223 1 0.0 88.81328041524851 213.37390821885643 350.0362885262603 # Ar
224 224 1 0.0 470.89315285625617 222.96010647162376 757.3202700643702 # Ar
225 225 1 0.0 647.9363683653763 681.9712136009747 268.68377109282477 # Ar
226 226 1 0.0 843.0775261717816 441.34257000738245 107.36344850370696 # Ar
227 227 1 0.0 795.436774066799 859.4537410438172 473.46451521188936 # Ar
228 228 1 0.0 512.2289923755621 474.7541521207277 72.12135596199188 # Ar
229 229 1 0.0 794.2145852431543 971.0241885227149 850.1171429388077 # Ar
230 230 1 0.0 195.7784833616752 701.4369091707631 352.31649189404607 # Ar
231 231 1 0.0 318.21459148027105 651.9080683244935 415.2784933029282 # Ar
232 232 1 0.0 946.8974981602548 365.46506415249723 911.1918879826065 # Ar
233 233 1 0.0 245.05096761366178 139.00846677124662 29.313179243935235 # Ar
234 234 1 0.0 320.1631514392608 638.4730097606447 482.7253964121119 # Ar
235 235 1 0.0 911.992617979087 515.2731156689964 35.81867881361497 # Ar
236 236 1 0.0 449.3559204761147 786.9027323584282 695.1861417012713 # Ar
237 237 1 0.0 193.982190105655 544.5920970260865 929.0133284596695 # Ar
238 238 1 0.0 454.2798136236975 446.3261365058894 431.7427922539289 # Ar
239 239 1 0.0 659.7582178238046 630.6358031140602 637.4880804110186 # Ar
240 240 1 0.0 197.12033589232507 405.3821048682732 701.4057436697703 # Ar
241 241 1 0.0 650.2173390980024 153.50136171501578 773.9636174430675 # Ar
242 242 1 0.0 173.93761433046646 722.1438529662316 870.1339207665885 # Ar
243 243 1 0.0 532.5202323842615 374.2366953373911 301.49131173006015 # Ar
244 244 1 0.0 690.6551889864196 1011.6511160186652 756.8831522591519 # Ar
245 245 1 0.0 459.86508194286836 620.4475469227012 961.4538976256248 # Ar
246 246 1 0.0 397.62745374903346 967.0039709600218 1079.3322138041656 # Ar
247 247 1 0.0 657.1130745247162 78.17321199035288 558.9386242834172 # Ar
248 248 1 0.0 893.870978276524 672.7171177635418 432.5676891391033 # Ar
249 249 1 0.0 386.2610298581407 346.98633319867486 968.0711895443286 # Ar
250 250 1 0.0 294.79686126713364 152.82022999202255 609.3296746489985 # Ar
251 251 1 0.0 783.5109210537056 1032.3989954527922 157.6866685329594 # Ar
252 252 1 0.0 840.0302532410108 630.331213912143 177.10257410973904 # Ar
253 253 1 0.0 670.3439510641157 1058.041314928276 932.398055899242 # Ar
254 254 1 0.0 451.0945054146838 265.02565419116763 59.70554100581321 # Ar
255 255 1 0.0 832.8193058561235 615.7933971068113 269.9278184719014 # Ar
256 256 1 0.0 1020.7513705286257 1039.5043364734731 738.0994193989111 # Ar
257 257 1 0.0 41.17314804997441 858.8041219809601 1014.6318540211266 # Ar
258 258 1 0.0 655.9717009128809 925.945042079298 262.5653724118471 # Ar
259 259 1 0.0 204.79979576099907 376.2621508256232 430.2545094978677 # Ar
260 260 1 0.0 499.8618255046707 33.40995934413805 172.03668389546195 # Ar
261 261 1 0.0 621.9917050502086 314.62407574525827 948.5187303615107 # Ar
262 262 1 0.0 903.2572173652195 742.8557073105728 378.71795443733026 # Ar
263 263 1 0.0 697.1899518353697 867.425666826387 98.49385935920156 # Ar
264 264 1 0.0 717.9917513032653 448.544548196994 598.2398832896799 # Ar
265 265 1 0.0 726.1187064168305 406.0112920574718 615.1083151937293 # Ar
266 266 1 0.0 766.1413497521643 270.9808381354474 677.7875267545395 # Ar
267 267 1 0.0 127.60344464821827 407.7388827939141 313.4310152185294 # Ar
268 268 1 0.0 220.88777777882464 492.0248205418658 1058.7282697953817 # Ar
269 269 1 0.0 263.3721333562229 635.2990552338101 858.1591289256314 # Ar
270 270 1 0.0 544.7407639989001 109.00258242779555 629.4882499112047 # Ar
271 271 1 0.0 567.3605288985274 198.57570934664867 355.44849064032445 # Ar
272 272 1 0.0 547.6285473502819 761.4642152147649 432.99651475388606 # Ar
273 273 1 0.0 906.572312982232 800.4715346768309 754.6600617556928 # Ar
274 274 1 0.0 963.1938985928003 532.2111706049926 656.7761544386026 # Ar
275 275 1 0.0 481.11236589206874 544.871537963936 64.66415042792121 # Ar
276 276 1 0.0 463.6189348594571 828.8373935797115 34.33601985652641 # Ar
277 277 1 0.0 260.79514009621107 602.3687589305595 517.0709227755867 # Ar
278 278 1 0.0 461.1871224495453 701.5815367764303 835.9351811858422 # Ar
279 279 1 0.0 854.0317735511433 186.34111749223925 159.2723409606992 # Ar
280 280 1 0.0 518.7729204193217 998.5058744316586 272.9527777551957 # Ar
281 281 1 0.0 550.9588404195373 392.1380149861014 389.1592489618571 # Ar
282 282 1 0.0 124.68436372104908 584.6591719134283 680.4481925458578 # Ar
283 283 1 0.0 792.7870825848536 679.9660804785195 895.072510627357 # Ar
284 284 1 0.0 231.34599768173794 91.97959300870932 306.5654603498271 # Ar
285 285 1 0.0 566.8130516337293 490.5457706553186 229.08540691947755 # Ar
286 286 1 0.0 681.4778582834884 674.6923758553794 175.97247883017172 # Ar
287 287 1 0.0 266.185420725512 152.39028133048413 598.3502408739428 # Ar
288 288 1 0.0 53.137218163421274 668.2574351669288 880.809548792308 # Ar
289 289 1 0.0 153.0266480517117 321.6428029232231 819.6025440166385 # Ar
290 290 1 0.0 923.6338492226436 963.1314191400935 842.5061196797911 # Ar
291 291 1 0.0 111.75596771799736 120.60060858909743 915.7633421066491 # Ar
292 292 1 0.0 634.731004623489 631.5671427909326 505.845050421375 # Ar
293 293 1 0.0 115.7206689299092 956.2191914023034 145.07371747559677 # Ar
294 294 1 0.0 974.5492965487548 417.2074417225691 982.0874280732937 # Ar
295 295 1 0.0 895.8517591741219 133.79346189515664 200.3732882420155 # Ar
296 296 1 0.0 189.10242344555166 933.0229114672371 145.2939153992347 # Ar
297 297 1 0.0 358.25346567566726 585.4800688064906 166.38386069579963 # Ar
298 298 1 0.0 646.2583774373571 1038.9432241936374 334.1308242790703 # Ar
299 299 1 0.0 7.598869947547381 951.930827589261 503.8403535982973 # Ar
300 300 1 0.0 208.00593426533172 136.56324814121416 88.74008962141053 # Ar
301 301 1 0.0 929.9277882378345 879.8495556063367 464.4193038114977 # Ar
302 302 1 0.0 629.9160989004712 568.7339286307935 294.7233061164137 # Ar
303 303 1 0.0 585.556206195361 459.2389649402545 142.58573535101678 # Ar
304 304 1 0.0 447.25549033712724 229.31307199952695 369.94021819427456 # Ar
305 305 1 0.0 464.8326886717973 536.8179323167104 1003.507400050623 # Ar
306 306 1 0.0 717.350884822546 687.5979179144292 1016.556280835999 # Ar
307 307 1 0.0 945.7484433801295 201.1332700945391 890.9366851412173 # Ar
308 308 1 0.0 116.30641424101862 551.162573843674 919.9115116159326 # Ar
309 309 1 0.0 210.21800415578812 236.38435136363245 56.72270911662901 # Ar
310 310 1 0.0 565.4795299798114 330.1785841959663 427.45891958660036 # Ar
311 311 1 0.0 853.1133052713776 279.8163027130013 979.4647968560778 # Ar
312 312 1 0.0 499.5311243520521 1066.24710845275 893.5597464335218 # Ar
313 313 1 0.0 1059.4981164814303 246.61242031032293 579.3671392802381 # Ar
314 314 1 0.0 60.40533488854476 989.056518186317 957.1766969935818 # Ar
315 315 1 0.0 427.3946440109293 68.58459408256385 131.4289272584197 # Ar
316 316 1 0.0 930.6928914167938 189.79704479893053 722.6907331581134 # Ar
317 317 1 0.0 225.09526533852704 951.994856218778 219.06648156447727 # Ar
318 318 1 0.0 623.8435055662096 9.628143048560636 27.000031476413984 # Ar
319 319 1 0.0 566.4119685002271 275.38686795613336 29.95058712310676 # Ar
320 320 1 0.0 694.124515425073 393.16172842687394 600.7835290020895 # Ar
321 321 1 0.0 1001.604450027422 519.6679682391427 420.3991060203974 # Ar
322 322 1 0.0 772.4912443753543 425.9929116096337 809.3480682884164 # Ar
323 323 1 0.0 682.8123064552252 990.6949416976936 776.4531808096094 # Ar
324 324 1 0.0 890.8614519712178 1023.6840980286605 552.5003964413296 # Ar
325 325 1 0.0 130.50030975403172 1071.1258546542558 162.56700376068258 # Ar
326 326 1 0.0 962.9416929216605 731.5058384498657 363.8175321150239 # Ar
327 327 1 0.0 551.9352426813012 712.5245816469688 6.716116688611458 # Ar
328 328 1 0.0 768.3905344510096 217.4813454097704 551.9965018678341 # Ar
329 329 1 0.0 547.5840317502242 578.0016811722935 852.5152121184988 # Ar
330 330 1 0.0 717.7451741901307 237.64197227992477 14.66835173856097 # Ar
331 331 1 0.0 766.6287526979991 779.8318860236523 629.671401353679 # Ar
332 332 1 0.0 771.8244736132671 453.6870443512731 456.94327266562175 # Ar
333 333 1 0.0 735.120760678836 518.4268988124596 279.5802805878861 # Ar
334 334 1 0.0 327.0571266749096 424.45657065107173 12.565313403728817 # Ar
335 335 1 0.0 672.1150825421934 680.5664515505383 761.9242657631244 # Ar
336 336 1 0.0 401.07289514249413 961.8149862852691 599.4433510597677 # Ar
337 337 1 0.0 1073.4038742721796 371.60239401216734 606.0799364199119 # Ar
338 338 1 0.0 100.14057731852415 661.9071350096651 880.4114932519635 # Ar
339 339 1 0.0 673.074679594371 263.41715067511484 357.4478462134434 # Ar
340 340 1 0.0 852.5320215711158 337.37495724493084 1019.2204308801456 # Ar
341 341 1 0.0 548.3512666888122 74.7489213461404 613.8754567070478 # Ar
342 342 1 0.0 333.21388569879224 95.71041620623703 120.58940629696718 # Ar
343 343 1 0.0 480.24322661816257 525.5038482311718 239.7752650213489 # Ar
344 344 1 0.0 145.2043878144133 472.5627283522578 963.8910059474321 # Ar
345 345 1 0.0 400.1234490885285 81.30857592384355 483.7360605342159 # Ar
346 346 1 0.0 890.1593239527255 1105.6503823023315 36.060716294041185 # Ar
347 347 1 0.0 403.71465032889574 801.2788000506779 107.90781672609683 # Ar
348 348 1 0.0 426.06716237384063 223.1666088729983 287.63997644025517 # Ar
349 349 1 0.0 136.92342954307355 1018.2483254548424 542.8595776966946 # Ar
350 350 1 0.0 313.7664950272434 643.2946759425213 144.31693406666844 # Ar
351 351 1 0.0 987.269924809285 220.4966378328419 677.8085985278137 # Ar
352 352 1 0.0 32.44207865550675 581.9403663298236 421.03858132036686 # Ar
353 353 1 0.0 502.2751611689642 946.1104151844277 747.2491118323433 # Ar
354 354 1 0.0 528.8178047860815 876.0675936230964 526.486432280428 # Ar
355 355 1 0.0 584.1968479928325 652.783997786052 370.4574073769456 # Ar
356 356 1 0.0 880.2123398541164 352.89089054136014 1002.7260306433461 # Ar
357 357 1 0.0 756.2553503742807 787.1989523817683 958.089453401328 # Ar
358 358 1 0.0 55.9103829513233 43.65389135985497 702.7731097519219 # Ar
359 359 1 0.0 222.94019484677472 704.3127747404455 961.3124983497672 # Ar
360 360 1 0.0 193.09545072361297 1070.3778116272742 1108.2080448346062 # Ar
361 361 1 0.0 55.411015706365426 963.9003360781202 994.8869141682537 # Ar
362 362 1 0.0 865.5859659335811 236.34843565234135 280.33949025285705 # Ar
363 363 1 0.0 839.8388572546505 933.1075043849236 275.071067848421 # Ar
364 364 1 0.0 51.56223099023831 1090.3000657097016 41.06604724766281 # Ar
365 365 1 0.0 993.5734832502125 522.6870590124192 652.0596202343671 # Ar
366 366 1 0.0 411.7544298658742 474.07997692830696 183.41223550128882 # Ar
367 367 1 0.0 1050.3353167282976 874.3643388048456 275.75143311843067 # Ar
368 368 1 0.0 595.5317247093732 538.7160879289362 523.984736381908 # Ar
369 369 1 0.0 398.6363438701551 1098.9119048376174 68.5352017955652 # Ar
370 370 1 0.0 326.66681259647714 375.21694920157046 954.1115618743148 # Ar
371 371 1 0.0 865.5183287570835 332.7513053318135 586.5492065402606 # Ar
372 372 1 0.0 557.5694955472547 1022.2315485152862 991.1030977468765 # Ar
373 373 1 0.0 1054.0965815524469 90.68448322574022 1087.6860078349482 # Ar
374 374 1 0.0 263.2459822767536 951.7303601297477 1094.8758157156597 # Ar
375 375 1 0.0 708.8132779974393 756.3409741192968 361.4231505826584 # Ar
376 376 1 0.0 36.41481090570018 675.4619159498599 7.72178785546703e-05 # Ar
377 377 1 0.0 282.9233803628037 596.2150974598552 430.1698231506972 # Ar
378 378 1 0.0 653.3633370338135 1008.5642833782293 280.0550255923758 # Ar
379 379 1 0.0 764.9237745231524 724.7989811898027 370.5730348003591 # Ar
380 380 1 0.0 740.3321451269771 883.4848098487058 1085.2285179300222 # Ar
381 381 1 0.0 570.3305341968367 628.9536440689699 384.98307249699263 # Ar
382 382 1 0.0 54.841266283202756 372.66802281802296 617.9265358121093 # Ar
383 383 1 0.0 126.72906118925158 42.662949235084824 71.90808060591775 # Ar
384 384 1 0.0 406.1899126712004 406.30030442337727 395.8671996736383 # Ar
385 385 1 0.0 525.0091716262204 974.9300203788675 30.454562882074196 # Ar
386 386 1 0.0 155.80559617437703 311.04069847099163 724.5782855236337 # Ar
387 387 1 0.0 946.5292740976769 552.0475245368533 908.2541500165833 # Ar
388 388 1 0.0 372.2695021463031 287.36875966690604 395.1855672315044 # Ar
389 389 1 0.0 537.7237564145156 636.3579897361674 1080.2017515085286 # Ar
390 390 1 0.0 445.31178584252154 452.6073747026148 982.4032656687259 # Ar
391 391 1 0.0 1070.5083807391943 939.1209369532189 1081.9557122203328 # Ar
392 392 1 0.0 807.7452788174485 1019.5844155577444 144.60277059773077 # Ar
393 393 1 0.0 696.0527409571338 837.445920773093 365.7672015393263 # Ar
394 394 1 0.0 682.0523509885094 669.1120608831999 851.862414126386 # Ar
395 395 1 0.0 484.44343086852365 969.4675331320794 994.285439245629 # Ar
396 396 1 0.0 934.5440816177261 1100.5620426001078 1003.0742242074466 # Ar
397 397 1 0.0 205.8064667139617 940.0873519642499 1081.075651560678 # Ar
398 398 1 0.0 136.15401484861368 547.9849880337919 409.19951686087114 # Ar
399 399 1 0.0 26.69484956129144 806.4231150278985 1088.6866514871942 # Ar
400 400 1 0.0 647.5024194446399 349.6053282996297 949.3586547907114 # Ar
401 401 1 0.0 225.96651857730066 448.14338091007306 147.1369960753234 # Ar
402 402 1 0.0 578.3539286633155 234.32337656418093 288.34838133011135 # Ar
403 403 1 0.0 103.3878222904596 1080.5438291317223 399.79383101537474 # Ar
404 404 1 0.0 748.6296164469111 329.7990552359034 1072.3903523761219 # Ar
405 405 1 0.0 639.8089779167559 314.69310902357836 1021.9078306194756 # Ar
406 406 1 0.0 468.7428549541927 50.20689760891121 457.09497026393035 # Ar
407 407 1 0.0 32.144697197594866 261.9193580969972 200.635314824366 # Ar
408 408 1 0.0 251.05824762851796 987.8075116001728 351.98784367711994 # Ar
409 409 1 0.0 778.5271159200483 907.9685090885358 971.727991297412 # Ar
410 410 1 0.0 301.47562255130146 678.8916263913088 286.1928593543351 # Ar
411 411 1 0.0 264.0312420892228 864.0570108483333 311.48170452288946 # Ar
412 412 1 0.0 38.59679851015478 1010.0117657544207 382.79565775916427 # Ar
413 413 1 0.0 1054.923701869717 730.6809695304511 353.7788075144508 # Ar
414 414 1 0.0 348.4994329799357 720.6213853879198 82.95014104936637 # Ar
415 415 1 0.0 1067.2374003070536 903.5476643356354 492.12709770297477 # Ar
416 416 1 0.0 938.0576622999563 510.91278868201977 697.5791469287225 # Ar
417 417 1 0.0 973.8860406198894 637.3456038305201 670.5121630724901 # Ar
418 418 1 0.0 752.6734280271131 309.44369889330295 778.7379182065375 # Ar
419 419 1 0.0 1076.36145855964 960.2913761691414 15.791887450430941 # Ar
420 420 1 0.0 33.84108739570928 101.54670455887725 50.53310044982787 # Ar
421 421 1 0.0 1042.0388347494086 245.0145403635023 358.9190994932849 # Ar
422 422 1 0.0 301.8625644602309 202.10174706831023 506.6973051421522 # Ar
423 423 1 0.0 592.0037712932967 877.6912342336277 88.10466647627013 # Ar
424 424 1 0.0 958.5948045168793 683.1191010739225 365.8534661423541 # Ar
425 425 1 0.0 46.48249220091434 560.8520431004147 992.3747611296703 # Ar
426 426 1 0.0 65.70225595363438 1043.634814058089 875.3232193445473 # Ar
427 427 1 0.0 645.998701017214 119.38589450047834 498.42255758633485 # Ar
428 428 1 0.0 934.0233935253417 706.1741472280839 446.8449644250273 # Ar
429 429 1 0.0 1004.4640599152722 1003.4422038633234 1053.9911456601506 # Ar
430 430 1 0.0 22.008522875286165 299.34949142951405 392.8281669439325 # Ar
431 431 1 0.0 89.96240914237322 116.29690304885904 179.63767285548053 # Ar
432 432 1 0.0 953.1927967934082 167.6504397959704 898.1412820266388 # Ar
433 433 1 0.0 197.4824209204525 769.7343648681464 224.61563417260615 # Ar
434 434 1 0.0 682.7621386534104 431.6838003014548 154.28832748162537 # Ar
435 435 1 0.0 875.2419825825561 1071.7134334757075 181.49769469177608 # Ar
436 436 1 0.0 237.43726349108803 158.4699195071433 1079.36901933049 # Ar
437 437 1 0.0 186.97162233438954 828.7994953078098 885.6564977377069 # Ar
438 438 1 0.0 936.3929249890397 14.888756597726779 66.46572442020259 # Ar
439 439 1 0.0 918.3717012162615 270.83070629894075 432.9198279815745 # Ar
440 440 1 0.0 255.7595678406944 1062.888708331201 309.450922749746 # Ar
441 441 1 0.0 1005.4762736647881 105.06225207921712 1008.3571726330352 # Ar
442 442 1 0.0 226.92363564040963 761.8138624884999 493.7401353625379 # Ar
443 443 1 0.0 589.3414585337215 753.0093449442248 522.6965406468344 # Ar
444 444 1 0.0 806.3192589195972 180.9332511187541 239.44810489902576 # Ar
445 445 1 0.0 912.244309883655 1094.4293786014787 832.5752826521299 # Ar
446 446 1 0.0 618.2483969474318 249.79695462899247 632.249676979466 # Ar
447 447 1 0.0 1025.5613934482044 553.8828437576727 618.9187061835702 # Ar
448 448 1 0.0 1035.7798885180323 931.2003886866975 882.7787624786133 # Ar
449 449 1 0.0 823.2647206972478 437.47110398173527 1012.2077705014619 # Ar
450 450 1 0.0 58.217685665191496 186.05796702003573 872.2215691493809 # Ar
451 451 1 0.0 956.0212428863937 789.7331242179299 603.1318777693064 # Ar
452 452 1 0.0 763.7301496555857 616.8399406933005 161.96893291373647 # Ar
453 453 1 0.0 123.60019935054261 768.0256859033193 402.29842426020394 # Ar
454 454 1 0.0 118.63129995140378 542.5149109226921 151.67886735016123 # Ar
455 455 1 0.0 976.5396042998343 811.100198027963 598.6234318322063 # Ar
456 456 1 0.0 38.08332125944073 214.79235904641476 1108.1589304153247 # Ar
457 457 1 0.0 866.8433336477833 412.07662648466885 285.10640140945696 # Ar
458 458 1 0.0 625.149455444543 518.8210083950921 895.1747459874883 # Ar
459 459 1 0.0 918.5925094446994 278.85817396392105 233.20838137595703 # Ar
460 460 1 0.0 587.3666348474181 456.1235039282928 177.34050504121407 # Ar
461 461 1 0.0 929.1872858541458 92.15621726873466 357.9915815663152 # Ar
462 462 1 0.0 758.785401259032 317.8630355123862 419.6461986008724 # Ar
463 463 1 0.0 546.1365447350229 690.5964180284413 1050.7268799983003 # Ar
464 464 1 0.0 662.8824487486462 471.8463230127723 702.0449852232465 # Ar
465 465 1 0.0 232.61450642883682 779.0228651711903 903.9473150991566 # Ar
466 466 1 0.0 543.1020938685085 731.7527313510276 948.7293054287292 # Ar
467 467 1 0.0 662.8810597172222 1011.3893448091458 400.5128183989471 # Ar
468 468 1 0.0 890.5767215228399 414.12259621237877 789.1740887811468 # Ar
469 469 1 0.0 882.0983282101458 1045.1605701302688 753.8878038763561 # Ar
470 470 1 0.0 790.3476362972228 50.051566006984864 133.83484195700626 # Ar
471 471 1 0.0 597.9153954296976 1015.147861936418 23.066744134357613 # Ar
472 472 1 0.0 332.7252897107622 548.0324164850952 682.5629934251289 # Ar
473 473 1 0.0 242.9776169971499 611.8496543185341 78.34826041152908 # Ar
474 474 1 0.0 411.24448780538245 742.678115176057 344.64829081732887 # Ar
475 475 1 0.0 3.287528856091891 475.9919770836851 332.62043352737277 # Ar
476 476 1 0.0 369.28933208095697 304.62217166439575 534.3698558009339 # Ar
477 477 1 0.0 1042.9307528578447 139.0885541735657 97.78201697612654 # Ar
478 478 1 0.0 516.7535937053105 1058.0915916989816 727.627142898635 # Ar
479 479 1 0.0 630.7783160855007 138.83989702307497 401.8930272197332 # Ar
480 480 1 0.0 440.2893037672983 289.3865499364496 781.6062061002772 # Ar
481 481 1 0.0 953.1686605147133 356.11300257656956 362.9550092796576 # Ar
482 482 1 0.0 831.2021275699661 187.89469296509168 899.9542005720888 # Ar
483 483 1 0.0 173.10645515202978 9.375840372942799 871.1750761211222 # Ar
484 484 1 0.0 13.039773655621664 849.0384148833355 232.12647119381435 # Ar
485 485 1 0.0 685.7998330730561 365.74107815672033 686.8027110959263 # Ar
486 486 1 0.0 793.1152363555353 83.87495628381826 1022.5494298045948 # Ar
487 487 1 0.0 518.3335759239272 1028.7159983928743 752.3502452554098 # Ar
488 488 1 0.0 274.6790949973813 690.4636620701509 278.9546546440842 # Ar
489 489 1 0.0 773.7902169464778 482.57090148558007 73.04119135958663 # Ar
490 490 1 0.0 1075.5951998314076 556.2075100175157 316.5193441534262 # Ar
491 491 1 0.0 332.1074680629258 997.7324377597608 452.79670119338584 # Ar
492 492 1 0.0 805.088458332368 537.7352904995761 544.3308827429046 # Ar
493 493 1 0.0 914.7670085043951 760.5840898174495 669.7297205425944 # Ar
494 494 1 0.0 716.4787986793706 363.4931106127701 288.57826350506167 # Ar
495 495 1 0.0 523.7244311502802 1033.8838007814054 919.6666657823578 # Ar
496 496 1 0.0 288.4045622667026 289.94663303316133 545.9704907098892 # Ar
497 497 1 0.0 783.4149041087685 802.8308695531528 735.8192197991812 # Ar
498 498 1 0.0 398.55485675357784 595.9999856968941 1067.5169873893037 # Ar
499 499 1 0.0 1107.1206554098046 17.281321846824827 317.1571401722624 # Ar
500 500 1 0.0 708.6349657067042 623.870997383753 1059.4613781785101 # Ar
501 501 1 0.0 419.7682740536878 559.5193511870193 453.36976636807935 # Ar
502 502 1 0.0 124.96771838882148 777.2119610554902 768.2640591781951 # Ar
503 503 1 0.0 861.3727730204156 464.80868504871165 75.71791956466203 # Ar
504 504 1 0.0 654.9520593440174 693.7692581442934 172.5851601223568 # Ar
505 505 1 0.0 423.75517912621405 567.1546138599747 779.9550186932422 # Ar
506 506 1 0.0 670.6133257228134 245.12382829442936 444.51010274377296 # Ar
507 507 1 0.0 826.3858611900253 11.229802655057284 684.3837924318728 # Ar
508 508 1 0.0 126.26814837106596 559.7002737674427 206.6262348397155 # Ar
509 509 1 0.0 407.73128334394676 875.7766460620949 731.5712852610955 # Ar
510 510 1 0.0 789.5096659110878 1051.2959113439078 721.8472097488578 # Ar
511 511 1 0.0 888.7020522244908 345.66950873922667 19.647957618167386 # Ar
512 512 1 0.0 794.850136525725 971.2323002301194 354.72450240648067 # Ar
513 513 1 0.0 554.861185320363 302.654857692149 134.43981849696496 # Ar
514 514 1 0.0 62.41451906896699 844.7985547799285 864.4745020267302 # Ar
515 515 1 0.0 74.80226320903733 288.4685190085369 549.6739584698461 # Ar
516 516 1 0.0 1075.8159325600325 987.9146606942204 57.80980968156458 # Ar
517 517 1 0.0 191.38422817903066 323.000896131791 231.8069829972202 # Ar
518 518 1 0.0 421.0461288433898 181.52851461668698 155.40907592476043 # Ar
519 519 1 0.0 602.189812896964 269.2332925413936 575.1848851315281 # Ar
520 520 1 0.0 833.2701666444287 274.99268828033274 222.4132177543849 # Ar
521 521 1 0.0 564.4753152392407 421.90445878449594 838.4213877802587 # Ar
522 522 1 0.0 247.6865105367958 381.8382886163939 784.1345368133128 # Ar
523 523 1 0.0 1069.9841806758086 619.3618300922922 344.4024831818999 # Ar
524 524 1 0.0 411.6591426306341 933.6887215524162 937.6786132428152 # Ar
525 525 1 0.0 571.7131690520479 122.04235074092813 412.7706389954184 # Ar
526 526 1 0.0 377.4353108700722 1077.426161792841 666.0031600751388 # Ar
527 527 1 0.0 686.9262799052465 156.38869527155717 239.84033666877838 # Ar
528 528 1 0.0 99.45607387263536 498.1529536813575 501.95300243600593 # Ar
529 529 1 0.0 822.0941826508315 1000.4310290327525 434.8765773461111 # Ar
530 530 1 0.0 1049.7397504900728 272.87869349061583 967.077974500109 # Ar
531 531 1 0.0 957.9133631797902 252.51579038618993 550.5938569382512 # Ar
532 532 1 0.0 272.21719691381463 307.12412171750816 650.5553894778546 # Ar
533 533 1 0.0 192.59224375771424 652.3352191850108 573.2165595605434 # Ar
534 534 1 0.0 578.0140430595861 0.607277734067317 738.1888134171807 # Ar
535 535 1 0.0 1107.0296168401612 396.9306386297441 1020.6576753300801 # Ar
536 536 1 0.0 490.8441107047013 316.25534097211823 990.1144083617102 # Ar
537 537 1 0.0 635.2044068942602 121.5985027893147 832.4764846327639 # Ar
538 538 1 0.0 996.2873795798018 61.11603685484991 124.08876148842693 # Ar
539 539 1 0.0 575.813690293635 698.4466714025973 479.75775922842377 # Ar
540 540 1 0.0 786.9983050902221 856.4110752997325 221.07949838629028 # Ar
541 541 1 0.0 966.8673858453081 287.85829556021014 113.86935680312071 # Ar
542 542 1 0.0 300.2429794255099 264.68892452706945 1091.2181801867741 # Ar
543 543 1 0.0 980.6303388408726 843.699797595716 975.2145612507559 # Ar
544 544 1 0.0 801.2417271898454 1045.1599521640564 787.4973609067226 # Ar
545 545 1 0.0 1094.7137717178748 512.7233929655489 32.07580378551744 # Ar
546 546 1 0.0 1024.4171258261515 266.95299753648465 584.1738297534873 # Ar
547 547 1 0.0 55.72780399729011 688.1804162406402 605.6565423713747 # Ar
548 548 1 0.0 970.5970772007454 498.85296876091616 617.6626469560352 # Ar
549 549 1 0.0 33.34987774463245 32.75563087089643 679.2719135989048 # Ar
550 550 1 0.0 817.8897269602181 939.0882865267203 651.1840253817486 # Ar
551 551 1 0.0 129.26101037015198 275.27376153101267 450.20343550570715 # Ar
552 552 1 0.0 502.53119724240906 543.6211067423354 835.6608544620663 # Ar
553 553 1 0.0 917.9275540902024 362.7077114387752 904.4830369343919 # Ar
554 554 1 0.0 976.034071884436 482.50857657451843 747.3709012411085 # Ar
555 555 1 0.0 218.63257860814835 34.55510501696062 31.809489251991828 # Ar
556 556 1 0.0 806.4530087867337 53.70537095890579 979.9045878641176 # Ar
557 557 1 0.0 332.753890999393 741.8711833729107 397.5150660441867 # Ar
558 558 1 0.0 134.96914611412248 792.7403112674899 609.999114157522 # Ar
559 559 1 0.0 678.9420243461269 820.8047471249087 776.3184439288552 # Ar
560 560 1 0.0 1028.794470335657 493.2562394921723 320.0022147190253 # Ar
561 561 1 0.0 1002.9773838341711 530.5186286559014 1015.1157935669462 # Ar
562 562 1 0.0 809.297543691342 110.59150714605059 962.6000702062479 # Ar
563 563 1 0.0 334.56523149284715 455.2424103097598 510.43011430496244 # Ar
564 564 1 0.0 419.2009529286706 197.0493906094563 500.52838449421535 # Ar
565 565 1 0.0 563.6171278066057 90.84876774523912 13.570434990825449 # Ar
566 566 1 0.0 238.33029677108902 217.4466679164967 334.62076160448106 # Ar
567 567 1 0.0 440.0702079396829 902.2353964326933 704.5264218147277 # Ar
568 568 1 0.0 984.3059836475775 106.18122482429602 1073.359027973806 # Ar
569 569 1 0.0 728.7471792118986 801.4801063321538 32.46003094888797 # Ar
570 570 1 0.0 995.4962898850001 128.60485211992562 1061.3885960821801 # Ar
571 571 1 0.0 309.3272877407622 162.63185752663568 728.1368749693723 # Ar
572 572 1 0.0 622.275663180703 474.03905544499446 491.81054349159473 # Ar
573 573 1 0.0 1043.8500579200524 895.0468699535729 973.1157916849962 # Ar
574 574 1 0.0 648.4250794693294 859.5209561293825 679.2469571445537 # Ar
575 575 1 0.0 504.36854033395645 250.11897401478646 612.6123419190677 # Ar
576 576 1 0.0 62.51098128562243 161.7984690528433 77.03622356055148 # Ar
577 577 1 0.0 391.90855193404894 151.04844097520615 1050.3800136173331 # Ar
578 578 1 0.0 282.94000585034536 226.39816836656226 694.0566658847785 # Ar
579 579 1 0.0 839.8217229600704 316.23822847143316 416.2471248223283 # Ar
580 580 1 0.0 863.5180768928888 961.7377733457696 298.943435517028 # Ar
581 581 1 0.0 656.6228521086953 536.9795566839263 472.25986118828473 # Ar
582 582 1 0.0 82.9361509089779 673.5720942232542 1072.1846348391598 # Ar
583 583 1 0.0 904.241321451766 483.02525415758873 1047.998598940536 # Ar
584 584 1 0.0 193.498820516733 156.59614034952847 779.9069061907322 # Ar
585 585 1 0.0 998.2875134570829 801.4654236290838 900.7303399038765 # Ar
586 586 1 0.0 560.6187416955115 366.5449013931105 931.4424575522128 # Ar
587 587 1 0.0 105.58146285970508 571.8147080924912 597.6706742060646 # Ar
588 588 1 0.0 1084.1041055122644 810.4543000456973 249.45044087212375 # Ar
589 589 1 0.0 13.113086188923404 795.1154893306094 445.31517605638226 # Ar
590 590 1 0.0 1073.8751682899135 9.19538127105248 391.6887536037082 # Ar
591 591 1 0.0 558.061540552487 830.6641462617192 281.3862085968169 # Ar
592 592 1 0.0 593.9904003821952 1049.2068892126824 555.2346629922436 # Ar
593 593 1 0.0 22.58253257165002 125.36875314764778 41.67982049308278 # Ar
594 594 1 0.0 747.0836564623513 1027.979084680491 1036.3558231657655 # Ar
595 595 1 0.0 1003.8110606477036 816.4291425634719 526.0074123208078 # Ar
596 596 1 0.0 362.82392331118837 211.3881395699518 43.650458679856655 # Ar
597 597 1 0.0 533.7225825971368 365.0092904321415 854.6968462709117 # Ar
598 598 1 0.0 922.4647814459616 23.965361128831905 71.63282861480747 # Ar
599 599 1 0.0 1015.75226893334 738.272740352592 260.7459894144866 # Ar
600 600 1 0.0 241.48177497217745 284.8935772224138 689.7108129036305 # Ar
601 601 1 0.0 944.3297882044477 73.20962505276334 831.2894379856069 # Ar
602 602 1 0.0 928.3602728367791 294.95549293500756 868.9129367942993 # Ar
603 603 1 0.0 747.0494703987149 951.8304501356323 748.7572590032079 # Ar
604 604 1 0.0 21.608698923178846 830.9546493024728 684.3263051508279 # Ar
605 605 1 0.0 642.5719044491351 792.3410289977936 860.3576231286808 # Ar
606 606 1 0.0 478.4743807980544 478.12239610943965 497.70350855010787 # Ar
607 607 1 0.0 582.018311936943 358.9033032526866 383.7023872379765 # Ar
608 608 1 0.0 920.3998480742499 209.46411667125753 163.3806380275376 # Ar
609 609 1 0.0 842.266191878829 877.9348818191503 1031.4032253031996 # Ar
610 610 1 0.0 167.58871186377675 408.1121205922882 448.14766054821905 # Ar
611 611 1 0.0 310.3528742180715 475.5412007806342 152.6917599058982 # Ar
612 612 1 0.0 565.0198261534881 624.6251553115238 1082.63038600467 # Ar
613 613 1 0.0 462.0559214372527 622.9069878070925 391.0278335964709 # Ar
614 614 1 0.0 355.33648579527613 102.97532255973239 62.418763802201134 # Ar
615 615 1 0.0 1060.328075616662 744.0584549939573 84.11351315342559 # Ar
616 616 1 0.0 528.0138679778283 1101.3914547191853 271.1403413824482 # Ar
617 617 1 0.0 99.38075306250812 405.34204629898085 571.4778936871338 # Ar
618 618 1 0.0 1069.292322473564 806.3072721600541 908.9026279751168 # Ar
619 619 1 0.0 519.8272021267214 1062.5017286502823 720.3542034769301 # Ar
620 620 1 0.0 307.1835537389019 555.9044173122799 1055.5981474153787 # Ar
621 621 1 0.0 736.9464048686003 163.68139578956922 221.86352777082672 # Ar
622 622 1 0.0 948.9178543516853 864.066546089943 1018.9667228696644 # Ar
623 623 1 0.0 597.3358482139968 644.511100535148 1092.0238125661513 # Ar
624 624 1 0.0 170.22488096070194 1038.576082510452 538.9824593414892 # Ar
625 625 1 0.0 82.59469780988869 858.7202286138125 333.6986015343425 # Ar
626 626 1 0.0 247.2155340664294 11.42891117525114 1066.7550853022994 # Ar
627 627 1 0.0 231.18689147623664 379.42212547744424 502.04465494989427 # Ar
628 628 1 0.0 68.76279611931952 721.0437143903018 508.3067983376203 # Ar
629 629 1 0.0 850.3834822444812 692.4443737277262 9.925134033727348 # Ar
630 630 1 0.0 61.64368624582673 331.9004815066617 175.95093912464384 # Ar
631 631 1 0.0 588.8308251001698 563.9788521846351 395.4527955103167 # Ar
632 632 1 0.0 805.5170077993321 434.8426972050891 763.8152421644814 # Ar
633 633 1 0.0 515.2900701217634 350.2498298469588 454.7848011045376 # Ar
634 634 1 0.0 1007.5645150131212 131.81368597306545 507.5656778591819 # Ar
635 635 1 0.0 287.97819102134974 643.9477581969002 1086.187152459999 # Ar
636 636 1 0.0 720.8886974756289 1087.2949068151934 204.0469750036946 # Ar
637 637 1 0.0 675.015063936231 320.42655894619054 764.6888928927021 # Ar
638 638 1 0.0 183.77422994223298 169.89084532360093 400.7521972714789 # Ar
639 639 1 0.0 726.5638580529212 759.393913394355 351.40782280590486 # Ar
640 640 1 0.0 47.430496353459176 195.666299303232 374.939940362734 # Ar
641 641 1 0.0 1063.2086553961678 816.470235741966 960.1122763702681 # Ar
642 642 1 0.0 744.2121801300771 799.8863310651248 96.73381024369091 # Ar
643 643 1 0.0 397.24398090998966 347.3925234871925 278.71585393744846 # Ar
644 644 1 0.0 661.4206976043083 949.2593406453816 415.1409001806594 # Ar
645 645 1 0.0 726.9160639415461 547.5373387854579 950.595154253505 # Ar
646 646 1 0.0 889.3085150752449 676.2451644189548 188.66842275617907 # Ar
647 647 1 0.0 570.8964515001119 354.75012092368956 364.15293058219726 # Ar
648 648 1 0.0 1092.9482677499248 1069.553009765923 1002.9333053528812 # Ar
649 649 1 0.0 846.564001024081 59.88707864125537 609.3182520961462 # Ar
650 650 1 0.0 697.9154912398901 637.9629973618662 110.05857393241769 # Ar
651 651 1 0.0 203.30635451053377 730.3105276796343 1019.7458912266026 # Ar
652 652 1 0.0 69.04313025087507 678.4843391018533 798.8396425705747 # Ar
653 653 1 0.0 704.1123224768334 624.7643233586126 424.32331278407753 # Ar
654 654 1 0.0 1035.5756228204602 511.02529446187964 767.5927106735503 # Ar
655 655 1 0.0 515.061256320831 876.6061521959118 748.3594361671032 # Ar
656 656 1 0.0 248.784025424548 524.9708548636765 1025.6236880886363 # Ar
657 657 1 0.0 41.883955525350245 292.86274578366476 920.8385481206956 # Ar
658 658 1 0.0 601.9239197892314 642.8978017735941 467.65548433263405 # Ar
659 659 1 0.0 239.3467667112429 957.7382823758367 689.9952028464537 # Ar
660 660 1 0.0 914.4413949246915 1048.0591553786123 220.53320749110304 # Ar
661 661 1 0.0 1052.2990752793305 425.74197686868 52.096709763760316 # Ar
662 662 1 0.0 848.0180927256794 907.3338736825508 1087.8538554810523 # Ar
663 663 1 0.0 510.43098826605217 1011.976829393576 223.7829388416224 # Ar
664 664 1 0.0 230.70993142453688 779.8480213800553 1055.6051750448808 # Ar
665 665 1 0.0 678.503871544856 208.29664111735516 509.24884522375567 # Ar
666 666 1 0.0 45.38239761603321 278.8602453372362 646.2989683069023 # Ar
667 667 1 0.0 480.3043927207577 1087.991967867931 1069.417061269129 # Ar
668 668 1 0.0 434.54591862704746 1092.2474953261096 611.3779749492045 # Ar
669 669 1 0.0 24.414616617402576 183.82733865549037 261.97453126989427 # Ar
670 670 1 0.0 264.34701376166663 976.6276173838228 382.2240156214966 # Ar
671 671 1 0.0 191.20077318568516 1104.9839779112262 426.0518644538578 # Ar
672 672 1 0.0 997.2844741534241 70.87398862650637 682.143650771152 # Ar
673 673 1 0.0 429.72295309553397 478.12235268297684 42.92405163175592 # Ar
674 674 1 0.0 394.6310083700144 197.91090075044502 647.3578471246394 # Ar
675 675 1 0.0 343.2708853467504 938.4665439638368 152.8034260093588 # Ar
676 676 1 0.0 323.4614322712127 600.2577277270782 71.98404082942066 # Ar
677 677 1 0.0 649.8911446963059 393.7067472606526 192.58758983875163 # Ar
678 678 1 0.0 666.5388641367001 515.7832813547377 3.6847971295269386 # Ar
679 679 1 0.0 473.404015336567 156.87592160739106 129.5849354542401 # Ar
680 680 1 0.0 674.2620584302962 679.0226802573186 1043.5977330131707 # Ar
681 681 1 0.0 164.98617603541402 966.0902608858555 988.0164357309172 # Ar
682 682 1 0.0 948.1715691522344 163.1032723359114 1070.2681358308046 # Ar
683 683 1 0.0 240.78180807471134 316.46524684183277 149.0037606862105 # Ar
684 684 1 0.0 951.6709807244335 485.7925080785013 86.80386774087533 # Ar
685 685 1 0.0 806.6482535325366 12.79415926634075 892.5564828270708 # Ar
686 686 1 0.0 940.5426016503288 1095.9719341061575 572.734393984653 # Ar
687 687 1 0.0 72.19407904829696 685.7751239382031 430.4271649240128 # Ar
688 688 1 0.0 326.68570857632477 622.0349019721042 722.2064440318317 # Ar
689 689 1 0.0 490.12823381834585 773.387302752647 138.09903066917897 # Ar
690 690 1 0.0 849.6689526551567 868.3857140454301 433.2764475776438 # Ar
691 691 1 0.0 207.20053022610836 458.3460442313736 292.59740041459173 # Ar
692 692 1 0.0 603.5592645142981 546.199032996577 995.7897825889675 # Ar
693 693 1 0.0 918.2879710187167 438.4141256729442 138.87738987913295 # Ar
694 694 1 0.0 873.4606288939465 749.2864101717139 1094.9758102784383 # Ar
695 695 1 0.0 1041.6370564875117 356.34083064211984 274.6707310777588 # Ar
696 696 1 0.0 893.3331943009332 399.85886616314946 365.0552607882448 # Ar
697 697 1 0.0 799.6973756222271 280.2243318525225 989.4140746260258 # Ar
698 698 1 0.0 697.3666705323507 19.924010887257673 198.1564336530524 # Ar
699 699 1 0.0 341.56021120834157 230.20197714919632 118.65172816642753 # Ar
700 700 1 0.0 1064.6879438011115 1080.0281403942624 17.697698950747867 # Ar
701 701 1 0.0 767.5194395217233 14.392495260899363 473.3068116379814 # Ar
702 702 1 0.0 529.7717886907602 744.8651739919244 693.9681475451262 # Ar
703 703 1 0.0 504.01519697348584 789.9857033112972 785.8507750037221 # Ar
704 704 1 0.0 981.9085435799965 1045.590195754125 16.362335039057434 # Ar
705 705 1 0.0 578.2892550691982 8.106530991793848 188.31956591895806 # Ar
706 706 1 0.0 465.5715991204241 602.4207607372869 1088.5632365424754 # Ar
707 707 1 0.0 821.3762071100232 561.0204024629752 493.3310873608625 # Ar
708 708 1 0.0 222.66659016703457 200.00780899899874 971.8837423199747 # Ar
709 709 1 0.0 964.9648975128191 578.702324884335 119.34100553786169 # Ar
710 710 1 0.0 1014.5673455302565 1069.92051697127 429.76674502369417 # Ar
711 711 1 0.0 60.9859740536254 325.1422756909175 206.98858557272888 # Ar
712 712 1 0.0 198.3231681149853 740.0936982958997 167.02396327558588 # Ar
713 713 1 0.0 983.8003541596382 174.2574802783361 421.6314511953804 # Ar
714 714 1 0.0 289.3113480278686 671.5797078727792 805.6394693827181 # Ar
715 715 1 0.0 929.554534461114 409.6148784497807 563.067228014967 # Ar
716 716 1 0.0 388.7641197908006 549.3327805572156 94.79746565006197 # Ar
717 717 1 0.0 1064.5909522889476 523.1422360689892 913.5962073178964 # Ar
718 718 1 0.0 336.8104776270148 1026.2463987061014 547.627915024717 # Ar
719 719 1 0.0 149.24328249817475 777.33999076127 673.0015797353709 # Ar
720 720 1 0.0 55.918299508099516 783.4770864880229 136.6386208165822 # Ar
721 721 1 0.0 339.66449541798335 450.37017819952956 934.4400399964103 # Ar
722 722 1 0.0 778.7268285930035 361.7852572075237 4.128064887792733 # Ar
723 723 1 0.0 785.061405681043 226.35239635755266 23.465444767542536 # Ar
724 724 1 0.0 337.76865483106445 800.1255994331892 1086.7740003357294 # Ar
725 725 1 0.0 357.41157214173927 641.4644846368179 985.5900495895118 # Ar
726 726 1 0.0 155.06889785703973 1055.822723869736 83.45651666321193 # Ar
727 727 1 0.0 76.36258864503624 840.3441276942467 712.6392413998699 # Ar
728 728 1 0.0 56.044025706242024 258.9425098300172 691.9116412030708 # Ar
729 729 1 0.0 260.59896670328743 289.9114634122416 1040.4439130186124 # Ar
730 730 1 0.0 259.03800228676454 296.7095163826807 145.02325842346787 # Ar
731 731 1 0.0 824.5387722430456 635.8384856279362 633.5442719795227 # Ar
732 732 1 0.0 576.026063521899 100.22092677633552 447.41825203333235 # Ar
733 733 1 0.0 49.046005804622915 298.9820098390197 31.610892086753157 # Ar
734 734 1 0.0 734.4119379954159 502.50294799419396 143.56763501322177 # Ar
735 735 1 0.0 1105.150225066113 341.19848041045697 1106.9744309835562 # Ar
736 736 1 0.0 928.2293893116591 895.0482866576984 607.2912343531954 # Ar
737 737 1 0.0 147.60396760589768 463.88478467640664 995.009847156449 # Ar
738 738 1 0.0 911.3608773903925 500.79819676407607 353.7718546450442 # Ar
739 739 1 0.0 956.4225937024975 321.6197682694101 51.63752743815939 # Ar
740 740 1 0.0 211.52225575913258 33.07959854849946 363.97709345590874 # Ar
741 741 1 0.0 629.543804398104 595.4795015794314 450.905460451481 # Ar
742 742 1 0.0 325.82165735504793 203.26978711267853 298.8562542764508 # Ar
743 743 1 0.0 513.7493630602431 828.2181664340637 678.1303526903592 # Ar
744 744 1 0.0 192.5189385384571 606.035368587207 854.4830412820672 # Ar
745 745 1 0.0 461.60375191776933 373.7587859504342 772.0945327897292 # Ar
746 746 1 0.0 765.550615349507 1014.6420622508667 97.9562360537712 # Ar
747 747 1 0.0 614.3030582275782 381.3497749671074 930.365322038432 # Ar
748 748 1 0.0 372.8944087534457 180.70997103877912 372.4266521537784 # Ar
749 749 1 0.0 533.8372202896503 127.25720243554517 304.0087385539417 # Ar
750 750 1 0.0 240.72885376567956 951.4042534291268 272.25140735204633 # Ar
751 751 1 0.0 1098.2517647661093 407.69384184974797 656.4995892840643 # Ar
752 752 1 0.0 584.4013486310258 127.50900432594825 1016.4310910839865 # Ar
753 753 1 0.0 881.1212753678195 832.6449865598613 394.5492893932698 # Ar
754 754 1 0.0 171.27032489299424 199.77711690943502 24.449192484031368 # Ar
755 755 1 0.0 612.2682889020215 355.10548115878834 472.1961456733762 # Ar
756 756 1 0.0 81.98106580111735 549.4840421928142 20.52943943051759 # Ar
757 757 1 0.0 1005.7218320576483 874.7371105146668 828.3714763643428 # Ar
758 758 1 0.0 962.843072311225 71.03358700477717 292.161081327231 # Ar
759 759 1 0.0 378.2880221058504 304.00100858792695 235.64842798882762 # Ar
760 760 1 0.0 626.6048316618075 816.1243591516867 629.8813852326955 # Ar
761 761 1 0.0 511.4897200440436 754.5471560650732 1083.046871842595 # Ar
762 762 1 0.0 1103.4492345422664 527.4847380220372 532.865937888123 # Ar
763 763 1 0.0 894.6099218347473 59.89418993298813 77.4987815910389 # Ar
764 764 1 0.0 502.1661190394515 972.0406497890071 878.5616011687683 # Ar
765 765 1 0.0 176.4152812543363 177.20633639686002 649.0424072106395 # Ar
766 766 1 0.0 450.0180112328317 133.09885102161104 497.7271458018211 # Ar
767 767 1 0.0 334.23831692214424 996.7899650685616 977.6021713072892 # Ar
768 768 1 0.0 77.63993587628416 696.4559366791544 945.8411833561719 # Ar
769 769 1 0.0 880.4801126981304 797.1038162308714 294.2972334520185 # Ar
770 770 1 0.0 1013.4903493533408 92.70935048391806 407.6012606275401 # Ar
771 771 1 0.0 354.50966335881395 513.9266025664358 493.25547107826185 # Ar
772 772 1 0.0 814.1654595723217 332.5555220339058 1019.0143632734026 # Ar
773 773 1 0.0 1101.0659841039535 100.51693549639438 814.2535636409488 # Ar
774 774 1 0.0 977.2191932824467 875.5399390261218 642.5181313729958 # Ar
775 775 1 0.0 854.3335722423791 817.2980048168678 524.9538266400923 # Ar
776 776 1 0.0 1027.572322054798 86.09285542929769 1084.7282410908883 # Ar
777 777 1 0.0 205.62337082485215 490.7145391162246 464.58532370575904 # Ar
778 778 1 0.0 645.5952358213991 678.218334981365 697.2814765480537 # Ar
779 779 1 0.0 222.78715710737637 1051.3024302326087 22.648457540532657 # Ar
780 780 1 0.0 180.09538109597437 589.5756086461165 563.5078929565188 # Ar
781 781 1 0.0 814.190576722808 796.7789381878249 479.29041287440333 # Ar
782 782 1 0.0 832.2868446591756 598.0934042396893 559.3994681510724 # Ar
783 783 1 0.0 708.9473543921997 751.1611835780545 128.25009189419916 # Ar
784 784 1 0.0 1041.0263409468012 961.1398300397 1071.8529682829508 # Ar
785 785 1 0.0 608.6101558333055 505.251156942849 251.20336367064817 # Ar
786 786 1 0.0 508.7339769645176 62.21807414802288 487.3026559055468 # Ar
787 787 1 0.0 206.14782022316882 1017.1361385397064 579.7100568871515 # Ar
788 788 1 0.0 944.6555034038429 149.92774042981205 960.8216353900169 # Ar
789 789 1 0.0 769.6754934323407 586.4034651514602 562.0388468519802 # Ar
790 790 1 0.0 709.8179675346487 405.4382298068407 397.12505347675705 # Ar
791 791 1 0.0 273.0683066584517 198.82450160647394 546.0417738584067 # Ar
792 792 1 0.0 252.4993112355177 36.52696276392508 405.90771218259465 # Ar
793 793 1 0.0 598.7038574038132 604.7461101654003 310.04737838642205 # Ar
794 794 1 0.0 516.6518858609637 153.34438053284055 872.1328285869251 # Ar
795 795 1 0.0 238.0737884172369 458.13085416195315 72.0716682643993 # Ar
796 796 1 0.0 320.6504055307421 1073.0350943799556 222.43816067715736 # Ar
797 797 1 0.0 92.29342370263285 389.2459989617516 222.1732438351507 # Ar
798 798 1 0.0 484.43429711696064 1088.3148408227134 698.9320187171395 # Ar
799 799 1 0.0 285.79871995336885 685.3142081923532 1014.8687621573315 # Ar
800 800 1 0.0 892.6392372851417 553.1424374977737 924.1125500011888 # Ar
801 801 1 0.0 729.7346054150795 790.2199456663434 592.9324956834199 # Ar
802 802 1 0.0 397.91120842018404 1075.1041540982292 767.8963371458838 # Ar
803 803 1 0.0 1056.5413145960158 610.1646507197119 226.41698667546507 # Ar
804 804 1 0.0 987.6077623716561 844.4470366820427 341.3381632102581 # Ar
805 805 1 0.0 727.7239668779955 530.8867616295014 380.03116175177087 # Ar
806 806 1 0.0 249.30218255961387 591.7282038249043 321.49136321997065 # Ar
807 807 1 0.0 345.2591205123835 354.9230120702957 696.0431583455459 # Ar
808 808 1 0.0 447.3583127910185 1041.860512477379 296.6910758285617 # Ar
809 809 1 0.0 734.5304277271171 533.7482102491903 823.6632432534533 # Ar
810 810 1 0.0 968.3175053910546 108.2448122349559 951.684057022324 # Ar
811 811 1 0.0 986.7347199487815 1053.341366683857 326.53564654773623 # Ar
812 812 1 0.0 847.9780502546101 930.75418499133 687.5792148869054 # Ar
813 813 1 0.0 54.302513612761906 651.4831963273206 476.7355355219806 # Ar
814 814 1 0.0 739.5772062194593 757.6340781739328 96.02010984466375 # Ar
815 815 1 0.0 493.5170863858813 741.7628723337018 72.8519437840192 # Ar
816 816 1 0.0 711.8371314628363 211.48924039382533 759.6116626082264 # Ar
817 817 1 0.0 879.3783673138038 730.9875915445509 370.1881730434378 # Ar
818 818 1 0.0 988.0289390462161 245.95634091205113 291.9578943120959 # Ar
819 819 1 0.0 901.2879908353975 1044.5183997384875 42.17127195316509 # Ar
820 820 1 0.0 517.5421760317623 663.7514914609756 614.9495074034672 # Ar
821 821 1 0.0 932.2816738850545 13.140217415489188 937.9544235304844 # Ar
822 822 1 0.0 1003.0040405035395 782.6200206450247 899.3487974583367 # Ar
823 823 1 0.0 61.56551798587937 406.7189379418399 313.1620535142811 # Ar
824 824 1 0.0 628.9121810822465 833.7478905008434 919.7011434920101 # Ar
825 825 1 0.0 647.7447393180432 178.72456005661107 413.932033946713 # Ar
826 826 1 0.0 682.2853383808754 1014.7913606048523 240.62120985147158 # Ar
827 827 1 0.0 781.6859528678066 96.49316012418815 757.9868378614138 # Ar
828 828 1 0.0 735.5320569543696 220.25534377963697 931.6192805094518 # Ar
829 829 1 0.0 658.3959135626462 353.39527936452345 71.03118748546093 # Ar
830 830 1 0.0 508.59777044521866 543.0111416386537 134.46291625611553 # Ar
831 831 1 0.0 1078.5354320625418 77.07679544777216 636.3610415874683 # Ar
832 832 1 0.0 31.94775015563084 983.6272359631021 1108.5419258612942 # Ar
833 833 1 0.0 909.061863752199 26.264382025672717 129.10404049495045 # Ar
834 834 1 0.0 997.2833306244287 947.7686074339427 607.8605000098767 # Ar
835 835 1 0.0 431.26205741334945 901.6286326914883 132.18051653570944 # Ar
836 836 1 0.0 273.44885199333555 846.8895950485936 511.9238423707959 # Ar
837 837 1 0.0 547.5831951327013 274.2633026569101 349.44886402507154 # Ar
838 838 1 0.0 599.5116988750377 1107.485957847772 309.14348732622557 # Ar
839 839 1 0.0 493.8799933700567 531.4237088242337 244.05512499126388 # Ar
840 840 1 0.0 328.88466690888197 410.8875250284877 1086.567356474078 # Ar
841 841 1 0.0 222.35853496645402 553.0320854005067 213.09183838364498 # Ar
842 842 1 0.0 929.6634498429844 511.48825145948234 610.2640133350197 # Ar
843 843 1 0.0 225.36828060352192 799.8629179859538 457.0773017438646 # Ar
844 844 1 0.0 369.24685075404363 944.5601160408994 0.5754860318353445 # Ar
845 845 1 0.0 152.24872932334023 866.5884442903587 883.9676961184358 # Ar
846 846 1 0.0 909.3128571111699 592.6557877688729 166.8688407272834 # Ar
847 847 1 0.0 714.8737115756234 285.9358685134129 271.2953447196504 # Ar
848 848 1 0.0 744.0609713031743 645.0291371524169 364.5165252174423 # Ar
849 849 1 0.0 1053.567696480304 977.5389514959944 159.6287270574841 # Ar
850 850 1 0.0 660.3787574102633 365.8235245075173 534.7654308275364 # Ar
851 851 1 0.0 502.35253638893556 314.80959767939856 1009.2645812151976 # Ar
852 852 1 0.0 892.3772774413161 846.8175810627524 488.09635614716467 # Ar
853 853 1 0.0 42.04105758823951 601.0377494180196 419.9609940976888 # Ar
854 854 1 0.0 1005.1012973688626 82.6446387970741 192.78927457632562 # Ar
855 855 1 0.0 271.56882606504536 653.1450445093833 10.603983436678506 # Ar
856 856 1 0.0 661.9453961301003 347.22501667424433 1046.709240588561 # Ar
857 857 1 0.0 442.5633388567724 516.9043439939215 110.454675869962 # Ar
858 858 1 0.0 206.73095329857145 835.396888959073 561.3605712605173 # Ar
859 859 1 0.0 651.6720302002061 594.4991592401284 644.9697508620552 # Ar
860 860 1 0.0 662.8639118565612 905.9680456148711 65.96390364550335 # Ar
861 861 1 0.0 921.9216190200813 53.48805884447951 803.2293678334788 # Ar
862 862 1 0.0 412.4999643640401 466.809252086362 566.7647234417391 # Ar
863 863 1 0.0 541.0948387888241 707.6557159784078 491.01037761037765 # Ar
864 864 1 0.0 346.6486789260629 907.249456556086 143.732718250406 # Ar
865 865 1 0.0 957.0135198433445 230.21448790401493 919.2212280783756 # Ar
866 866 1 0.0 817.913355148582 649.0172754156687 95.29977368746033 # Ar
867 867 1 0.0 38.538910128590885 421.3253933108603 697.7474911225622 # Ar
868 868 1 0.0 610.919421491931 979.7849215433428 981.7536559802925 # Ar
869 869 1 0.0 924.712824349501 948.4193026951295 420.7804016178546 # Ar
870 870 1 0.0 262.8366794517461 226.48971394865353 216.06006025809356 # Ar
871 871 1 0.0 565.8685020889782 1050.513720717326 1017.1104652464712 # Ar
872 872 1 0.0 910.2762936863098 337.08483984166475 191.37232882534653 # Ar
873 873 1 0.0 733.3503807795636 1038.898077310787 920.3332433401234 # Ar
874 874 1 0.0 501.5552907150533 856.4918438985155 904.7332651456693 # Ar
875 875 1 0.0 888.8592864247934 732.4980261180852 963.6482741909175 # Ar
876 876 1 0.0 579.0356266034332 815.1455266966127 999.1278723407829 # Ar
877 877 1 0.0 272.6830854121458 102.42497257828127 489.9689574561685 # Ar
878 878 1 0.0 411.149351679942 1075.1678994838283 731.2149586017117 # Ar
879 879 1 0.0 704.4556566563866 1085.027067576693 946.278394979621 # Ar
880 880 1 0.0 743.2706648891527 205.6480625884217 106.41575286015419 # Ar
881 881 1 0.0 353.9870421141203 823.794413007799 499.1255894610338 # Ar
882 882 1 0.0 314.3855845617454 51.79816095643666 1014.7880887497909 # Ar
883 883 1 0.0 172.54822584203717 16.259326715466777 283.26567881008424 # Ar
884 884 1 0.0 590.6564456257962 128.0420074733539 991.2267594351275 # Ar
885 885 1 0.0 450.3948498243549 667.1756205415821 420.2210965136909 # Ar
886 886 1 0.0 707.351990208836 267.6855930488453 484.275126395715 # Ar
887 887 1 0.0 162.58827019924405 242.56193308499485 835.2737366422014 # Ar
888 888 1 0.0 629.1014986905009 671.7821338741281 120.49243474115177 # Ar
889 889 1 0.0 436.33963889038336 867.941202242769 359.8896796527022 # Ar
890 890 1 0.0 630.4328001926648 149.19233250495785 632.9717485259979 # Ar
891 891 1 0.0 184.77243616942445 214.48914026087684 748.802644481022 # Ar
892 892 1 0.0 450.0856720024478 236.4989300083479 381.54630934352514 # Ar
893 893 1 0.0 176.72735076621444 429.1946189433319 134.74857688800617 # Ar
894 894 1 0.0 547.6769513434685 129.34627666715903 187.51604716272772 # Ar
895 895 1 0.0 748.1546061813364 914.2932246151146 986.9697879077942 # Ar
896 896 1 0.0 94.01659817897468 475.0932317894424 428.49835474527424 # Ar
897 897 1 0.0 1102.824693908895 854.3462183481615 624.6843427309848 # Ar
898 898 1 0.0 270.280036536559 257.5865383801318 599.3513830024216 # Ar
899 899 1 0.0 733.9216210292777 677.118987073383 1077.3396224223925 # Ar
900 900 1 0.0 112.6032757510873 563.7631162725099 466.1200458032128 # Ar
901 901 1 0.0 285.84524628672926 987.6857869127739 462.0004022028722 # Ar
902 902 1 0.0 439.4685490242578 137.3131729968795 425.9028396845108 # Ar
903 903 1 0.0 878.0072029550381 876.8695189699453 787.1889530318186 # Ar
904 904 1 0.0 624.5777465820752 1090.2557113066985 510.6796032757221 # Ar
905 905 1 0.0 1081.6632133860617 385.12275538044963 762.3969546825113 # Ar
906 906 1 0.0 485.9564833408209 2.775808339766827 341.80518184113816 # Ar
907 907 1 0.0 177.67858707651075 624.0738597828007 897.683101626635 # Ar
908 908 1 0.0 592.2326915441199 1100.4385363336044 354.424061943243 # Ar
909 909 1 0.0 860.0623908586475 606.6604629425939 863.4099411643627 # Ar
910 910 1 0.0 847.7036233918419 424.7488151366585 204.41221274766727 # Ar
911 911 1 0.0 179.6073533817555 1012.6642682988199 651.7600812808265 # Ar
912 912 1 0.0 476.9447423080719 491.46400670460105 264.51321750762736 # Ar
913 913 1 0.0 660.7676219597961 452.46578137330465 579.2213857682563 # Ar
914 914 1 0.0 921.0393953475941 825.6838247660088 565.0026966023053 # Ar
915 915 1 0.0 15.279266623540453 239.2491454623552 365.3530859758541 # Ar
916 916 1 0.0 51.373993307242316 125.93080050959556 1032.3722285713293 # Ar
917 917 1 0.0 750.016932658106 411.01593569521714 839.4434454915222 # Ar
918 918 1 0.0 649.1991417942024 981.6690272628754 127.49410610809001 # Ar
919 919 1 0.0 724.4575095515664 1095.4305570310478 551.3083098580287 # Ar
920 920 1 0.0 656.9395317966067 111.55192586574678 73.60099855044763 # Ar
921 921 1 0.0 42.265446707227376 793.506236556935 814.846397921351 # Ar
922 922 1 0.0 221.41632058807718 589.1549476843645 84.36404530488635 # Ar
923 923 1 0.0 66.3818017334451 765.7275714950734 695.6926165602873 # Ar
924 924 1 0.0 723.3177041854234 901.906095929602 560.2465464453164 # Ar
925 925 1 0.0 937.4974335489399 963.1627844072543 794.8517385549844 # Ar
926 926 1 0.0 908.0711009222971 336.84917260307685 676.3473031221513 # Ar
927 927 1 0.0 91.32466234762714 311.8686753251553 162.02268379561463 # Ar
928 928 1 0.0 353.9300661919377 452.60557221302247 246.7278976870167 # Ar
929 929 1 0.0 330.48318743348676 942.6814178371397 1004.7486439341952 # Ar
930 930 1 0.0 793.9475436411458 1087.0630048219894 318.51731037527503 # Ar
931 931 1 0.0 631.9598205405981 619.4580558211666 20.148822672496543 # Ar
932 932 1 0.0 701.8783038407122 822.7592447758448 236.98094288741822 # Ar
933 933 1 0.0 35.752864188372264 908.9677311074084 18.713922880109347 # Ar
934 934 1 0.0 387.632330898681 870.7882872024265 921.1273479029218 # Ar
935 935 1 0.0 250.76016621842055 255.03617386758393 844.6631366828374 # Ar
936 936 1 0.0 724.9950838809859 765.6579924594287 323.96177484104777 # Ar
937 937 1 0.0 82.43511348197093 104.53843489134474 100.41469599200386 # Ar
938 938 1 0.0 845.3230337831808 146.29359989165866 854.6150756739979 # Ar
939 939 1 0.0 482.2514065151077 160.2705710216641 437.06777774440525 # Ar
940 940 1 0.0 40.6085283953397 165.74410887546185 451.79338938438923 # Ar
941 941 1 0.0 441.81802899775977 49.20969322290983 752.5049504921983 # Ar
942 942 1 0.0 969.4100243407646 1075.248346228042 571.3392721308695 # Ar
943 943 1 0.0 1085.7409584767324 257.5059145312136 242.9726463067509 # Ar
944 944 1 0.0 178.7533807220305 1089.8275251765324 484.1017384990016 # Ar
945 945 1 0.0 970.1533172042316 560.6192499460182 611.0215627366176 # Ar
946 946 1 0.0 8.073190998488757 732.2772243375994 119.56513820940728 # Ar
947 947 1 0.0 99.97310455565008 307.0264398198989 1016.0323824570592 # Ar
948 948 1 0.0 253.19474423947867 999.5204663847051 981.0253330557471 # Ar
949 949 1 0.0 653.3262899346381 428.051623983563 929.941224133321 # Ar
950 950 1 0.0 174.8923282158072 304.9725521880489 796.4876933880729 # Ar
951 951 1 0.0 835.950208188749 29.532917667377255 61.01569878033838 # Ar
952 952 1 0.0 249.5378214343775 260.6443509941372 403.4302726764733 # Ar
953 953 1 0.0 926.4749765698322 704.5835459287152 316.16534815075136 # Ar
954 954 1 0.0 1042.8330763809754 373.1406540176496 273.125608391068 # Ar
955 955 1 0.0 1032.0080586856263 848.0936193204798 916.737648851229 # Ar
956 956 1 0.0 130.52079455561955 779.1193055732124 790.558639299789 # Ar
957 957 1 0.0 1067.641779435043 253.32083978597967 918.0492897066268 # Ar
958 958 1 0.0 187.61637909691427 523.1672641884287 458.3345488942977 # Ar
959 959 1 0.0 183.28757191645443 15.23565659543707 716.5555130736935 # Ar
960 960 1 0.0 758.9106314083951 617.6610702515026 878.6095185984668 # Ar
961 961 1 0.0 18.16183325220456 508.8675858320391 635.7187598285916 # Ar
962 962 1 0.0 190.9320217322255 389.13181332723036 712.1115294121523 # Ar
963 963 1 0.0 916.989932180799 821.9610638563346 869.2402473979707 # Ar
964 964 1 0.0 813.1523309290595 179.69751396690407 133.32020662967386 # Ar
965 965 1 0.0 932.1128240338587 351.4099303656928 39.034234480495314 # Ar
966 966 1 0.0 1043.135048427801 896.1737498184 661.7011583335914 # Ar
967 967 1 0.0 311.4930806249988 661.4005261988208 1102.9732343891408 # Ar
968 968 1 0.0 131.4358277135455 29.987715439034567 210.78028550275334 # Ar
969 969 1 0.0 864.6011042696757 1007.0226273179793 611.935733487297 # Ar
970 970 1 0.0 1015.1662875152252 166.434895756636 770.1284614413554 # Ar
971 971 1 0.0 162.26799513837847 483.8604944622219 297.95659194399457 # Ar
972 972 1 0.0 478.0952126445246 298.1615832707782 956.3257283694878 # Ar
973 973 1 0.0 634.9655795160029 729.2225369860347 526.1354254728423 # Ar
974 974 1 0.0 949.974155220589 811.9405058510522 882.244560534224 # Ar
975 975 1 0.0 171.4564450597319 955.7995912342044 308.4334654814559 # Ar
976 976 1 0.0 937.6625155440871 766.3951240942231 617.4324785186766 # Ar
977 977 1 0.0 1015.2823227858671 307.8264832148177 706.0469333767418 # Ar
978 978 1 0.0 951.9612709479917 771.3057181116063 122.20545425790013 # Ar
979 979 1 0.0 436.7259083511727 775.5756575802329 343.6884749882296 # Ar
980 980 1 0.0 779.3038902515956 349.5028292752238 908.5714443982073 # Ar
981 981 1 0.0 481.98105930199785 514.0261314186262 795.88593122242 # Ar
982 982 1 0.0 86.64407495536861 750.9170780173573 32.840070483519355 # Ar
983 983 1 0.0 945.5769184816156 184.50495279072678 1027.894549015628 # Ar
984 984 1 0.0 690.717548329038 564.7669195912069 507.35324171503055 # Ar
985 985 1 0.0 1043.5230232391752 771.1024335625194 370.56547549324915 # Ar
986 986 1 0.0 1023.1708332746824 409.3462772810495 928.6873092503779 # Ar
987 987 1 0.0 819.817868299098 1006.6510598513743 115.15005130535296 # Ar
988 988 1 0.0 238.17341000479556 730.1394294644098 609.1845319829218 # Ar
989 989 1 0.0 925.9740384914418 548.5266932019065 623.8452716220794 # Ar
990 990 1 0.0 969.196260174635 202.47692964130292 658.3481312224899 # Ar
991 991 1 0.0 1040.464495491732 994.8501172403426 549.170128784904 # Ar
992 992 1 0.0 828.1104807171253 212.24141595265453 74.71567030547402 # Ar
993 993 1 0.0 880.0980435239005 848.8430830042013 11.175776700805141 # Ar
994 994 1 0.0 194.1690267357239 955.52946619742 274.5251902982894 # Ar
995 995 1 0.0 980.8148216004764 522.0585064298558 888.3565509840649 # Ar
996 996 1 0.0 958.9719307488672 206.93531526317435 794.8774233967766 # Ar
997 997 1 0.0 182.64074679640265 611.8964856327204 281.79025774502776 # Ar
998 998 1 0.0 1051.6754319004694 227.09353457025156 416.2508878214994 # Ar
999 999 1 0.0 131.9094905948934 747.6438568481066 558.976219573244 # Ar
1000 1000 1 0.0 546.5812027648213 17.05935896400315 163.0209828332169 # Ar
1001 1001 1 0.0 222.45135407203904 763.4372164858496 203.15765021814704 # Ar
1002 1002 1 0.0 189.26401350226735 295.85230028569976 203.35671926897717 # Ar
1003 1003 1 0.0 938.4710074401653 84.57901809272747 628.3884279989102 # Ar
1004 1004 1 0.0 533.5492336426056 669.8807854378001 726.0312381513112 # Ar
1005 1005 1 0.0 323.7893442029317 873.1316774018477 370.3297896227294 # Ar
1006 1006 1 0.0 438.51861724097284 251.66443423557183 55.10320581972592 # Ar
1007 1007 1 0.0 1037.8716144288576 957.3212379746043 1063.1608089717233 # Ar
1008 1008 1 0.0 282.9645136068333 980.8589353384455 254.39991629451848 # Ar
1009 1009 1 0.0 986.1270350036363 168.292390403703 620.456057398609 # Ar
1010 1010 1 0.0 522.007668180383 401.5239387246101 206.11791930991492 # Ar
1011 1011 1 0.0 123.02408436674234 264.97221370138817 388.2228161987067 # Ar
1012 1012 1 0.0 1039.318228825274 697.113604094718 653.2494917086623 # Ar
1013 1013 1 0.0 1033.2137425519154 486.79491313112305 442.8676800110869 # Ar
1014 1014 1 0.0 518.8103332968765 230.95178312545912 980.9980134345354 # Ar
1015 1015 1 0.0 247.30706802315206 209.7666499302123 562.1204163928718 # Ar
1016 1016 1 0.0 107.2608893097571 481.550587855136 127.32002756371283 # Ar
1017 1017 1 0.0 721.9659679609402 60.0660531772805 721.1275560179602 # Ar
1018 1018 1 0.0 1103.9950871928293 983.7381324737946 937.1488009351198 # Ar
1019 1019 1 0.0 315.7605490685497 545.48213955745 885.77769839641 # Ar
1020 1020 1 0.0 379.8440881315254 380.3922550607782 102.57724252787273 # Ar
1021 1021 1 0.0 450.5969702888163 450.3323438840514 264.6480829273576 # Ar
1022 1022 1 0.0 1046.7865102716219 448.4157961280181 512.8930350026922 # Ar
1023 1023 1 0.0 968.047761591095 846.2737297903265 198.14282032650476 # Ar
1024 1024 1 0.0 636.4653998219629 148.70671382615058 993.7631611844565 # Ar
1025 1025 1 0.0 879.0329408261344 1018.9692030172126 449.47091386583946 # Ar
1026 1026 1 0.0 659.3710847600945 369.4504199833927 919.3636896689372 # Ar
1027 1027 1 0.0 469.85699773465046 937.9087448171523 959.4130301894401 # Ar
1028 1028 1 0.0 658.9451119103671 328.072043042377 795.349592798068 # Ar
1029 1029 1 0.0 798.5983488581667 464.0523206820874 420.9650317669378 # Ar
1030 1030 1 0.0 504.8871132670474 176.27447578645618 342.9095459178725 # Ar
1031 1031 1 0.0 335.75918814921835 540.8390703553193 949.711429743998 # Ar
1032 1032 1 0.0 78.49228585230274 643.8294741360145 865.0401138887205 # Ar
1033 1033 1 0.0 995.4174555699251 728.7388292942917 666.8006958403611 # Ar
1034 1034 1 0.0 494.82338965978164 725.1214348750618 1026.5722918640004 # Ar
1035 1035 1 0.0 293.1054021624074 898.4528369899188 800.7160966146504 # Ar
1036 1036 1 0.0 774.2182104733797 215.8312318326217 681.0368359518452 # Ar
1037 1037 1 0.0 942.1984733262613 181.79183616496283 376.04556897127225 # Ar
1038 1038 1 0.0 444.7180162468939 967.2393291643517 355.25092911200227 # Ar
1039 1039 1 0.0 923.3233826169981 904.6273411674023 173.02326926468524 # Ar
1040 1040 1 0.0 534.0122767711243 131.95743453613508 551.1070651578535 # Ar
1041 1041 1 0.0 441.28457102357373 223.4806436782833 772.6083336183631 # Ar
1042 1042 1 0.0 589.4269368958568 907.0003552025952 648.3009176011061 # Ar
1043 1043 1 0.0 805.2584873817074 508.8522274864114 244.29607894820086 # Ar
1044 1044 1 0.0 527.6221771339506 384.51891162174326 135.49743084244733 # Ar
1045 1045 1 0.0 402.10601842511466 73.5313052101482 606.8661230634889 # Ar
1046 1046 1 0.0 369.7195121081952 792.8835087027222 570.6544491353785 # Ar
1047 1047 1 0.0 110.51981704924322 478.7217621508738 969.58149848854 # Ar
1048 1048 1 0.0 884.7368380163522 322.29426673028183 215.00185146406142 # Ar
1049 1049 1 0.0 616.5436822172327 1009.2618315747737 347.1075077027694 # Ar
1050 1050 1 0.0 171.50494807796164 140.25322835467972 631.7657862340194 # Ar
1051 1051 1 0.0 1105.561007996273 690.6826072132851 231.05058330422068 # Ar
1052 1052 1 0.0 510.2814231435608 246.27897107362048 1006.9327243240866 # Ar
1053 1053 1 0.0 728.8093047103636 310.3025355272392 34.212353657181744 # Ar
1054 1054 1 0.0 118.12292918570985 479.7218686151928 790.3796513588952 # Ar
1055 1055 1 0.0 896.6900938574544 944.1344404815817 746.8198099055192 # Ar
1056 1056 1 0.0 132.70576042846446 621.8521227791123 57.371158367414864 # Ar
1057 1057 1 0.0 109.26185820533269 525.127660474327 981.9982400735436 # Ar
1058 1058 1 0.0 274.9977641786304 593.7366819628822 65.64006905320169 # Ar
1059 1059 1 0.0 1038.5860059763654 924.5750225962938 707.1828775171779 # Ar
1060 1060 1 0.0 889.1884174002814 1076.2470621396058 1104.4305168944788 # Ar
1061 1061 1 0.0 140.2687325013747 730.7085166813913 925.7518313523044 # Ar
1062 1062 1 0.0 800.2892386536629 752.261062949561 345.65793699647014 # Ar
1063 1063 1 0.0 97.13716245699177 746.2416409062079 1106.721348053286 # Ar
1064 1064 1 0.0 1008.7978533408809 883.3157871388714 650.7498142634512 # Ar
1065 1065 1 0.0 536.1871321139316 408.991211045769 582.704795530412 # Ar
1066 1066 1 0.0 149.8081273702054 235.83235179390473 1092.3849768687214 # Ar
1067 1067 1 0.0 867.8374473809554 238.45845369666364 39.991501105903986 # Ar
1068 1068 1 0.0 870.4284276947519 304.9002415832006 1.7827806333861012 # Ar
1069 1069 1 0.0 605.70909267699 180.20878064850137 13.62331472528674 # Ar
1070 1070 1 0.0 75.29034099875732 485.9017331906365 948.8176843801004 # Ar
1071 1071 1 0.0 987.6438267880116 95.8349543565757 1043.1671716327767 # Ar
1072 1072 1 0.0 726.8470137441461 262.77568562738327 601.1323065984634 # Ar
1073 1073 1 0.0 306.57523561565387 306.37606460019515 112.53233149211069 # Ar
1074 1074 1 0.0 564.5660214021124 683.890848234932 227.4443871558097 # Ar
1075 1075 1 0.0 1061.0087089697424 114.50776295463845 934.424068216871 # Ar
1076 1076 1 0.0 548.0955024440681 165.55300024707705 1045.1025775604774 # Ar
1077 1077 1 0.0 745.2033266769625 9.929186755970635 32.96115014284007 # Ar
1078 1078 1 0.0 545.5076875934095 244.30934267888387 1054.1264415712092 # Ar
1079 1079 1 0.0 155.1879092272191 636.2775820016765 931.6728308891844 # Ar
1080 1080 1 0.0 474.84949193455805 699.3220879061452 515.4027265387285 # Ar
1081 1081 1 0.0 201.43974766223363 1078.6763717293761 591.7447576300478 # Ar
1082 1082 1 0.0 863.460935907504 1054.1185324583464 915.6549739045755 # Ar
1083 1083 1 0.0 337.76493241699546 1051.7045874921657 1015.7687636207754 # Ar
1084 1084 1 0.0 523.8735965032917 709.9576687999856 733.2772417539843 # Ar
1085 1085 1 0.0 417.3162701548942 223.21025452018108 598.9648344728876 # Ar
1086 1086 1 0.0 586.0276368256565 301.9735021598824 198.12334433745303 # Ar
1087 1087 1 0.0 534.1884884739561 897.0957236544305 1044.0048870582723 # Ar
1088 1088 1 0.0 17.95481234470086 62.46111514735106 409.77099896918446 # Ar
1089 1089 1 0.0 626.0932776511858 508.5908631664356 14.738431735785325 # Ar
1090 1090 1 0.0 436.8003390280038 1047.86795539122 1048.4242857869324 # Ar
1091 1091 1 0.0 403.86280341539117 238.44978237259414 714.3820820903727 # Ar
1092 1092 1 0.0 463.23031047840004 577.7982886165225 294.14350334072793 # Ar
1093 1093 1 0.0 571.8921701416537 975.468681349777 565.4053512098288 # Ar
1094 1094 1 0.0 1008.134116670781 695.8524468916653 962.9433396446789 # Ar
1095 1095 1 0.0 706.248067376391 597.6307330917818 654.8175732591791 # Ar
1096 1096 1 0.0 704.799024004474 166.78595061445662 139.8161396500465 # Ar
1097 1097 1 0.0 713.9731879336607 583.0401557769417 648.4673854895282 # Ar
1098 1098 1 0.0 424.26672571960034 137.3027475440085 712.6083803877345 # Ar
1099 1099 1 0.0 610.2038606568398 394.5409521694036 67.46596809109177 # Ar
1100 1100 1 0.0 526.4987411995111 822.3813009434311 973.7980588254192 # Ar
1101 1101 1 0.0 140.78040000946723 603.5538896157586 549.8802730221937 # Ar
1102 1102 1 0.0 939.590608186253 987.6651143434669 18.154144614722078 # Ar
1103 1103 1 0.0 1037.6589495278586 69.29022741998419 819.1590923959607 # Ar
1104 1104 1 0.0 743.6069469756088 484.7438018602807 192.16284327018084 # Ar
1105 1105 1 0.0 939.316856335689 746.5887669024984 779.7296642858636 # Ar
1106 1106 1 0.0 664.411934852752 567.2882203624778 674.4281621820079 # Ar
1107 1107 1 0.0 197.0704288909516 441.3510452983502 66.43219864748706 # Ar
1108 1108 1 0.0 200.58406428815795 848.6647285356106 824.150547334266 # Ar
1109 1109 1 0.0 768.3347402552253 743.40856092834 492.5753538658882 # Ar
1110 1110 1 0.0 958.2637312691647 706.4917211349194 797.7525460337679 # Ar
1111 1111 1 0.0 753.4744988437716 57.191849221869994 946.582925426383 # Ar
1112 1112 1 0.0 318.69201320520887 557.2391414313578 996.5741699664542 # Ar
1113 1113 1 0.0 487.40039484671655 523.9546607429749 423.95390391548864 # Ar
1114 1114 1 0.0 311.3148646993415 707.7560503616993 482.0515850606597 # Ar
1115 1115 1 0.0 948.1549123414474 410.56547053091725 788.4514853263418 # Ar
1116 1116 1 0.0 1044.0478399945212 269.8081140178808 285.5285274841019 # Ar
1117 1117 1 0.0 335.79674214257153 686.3754198572606 474.0131977072959 # Ar
1118 1118 1 0.0 1052.4942315146754 164.7778966564535 655.9926244085443 # Ar
1119 1119 1 0.0 1020.4565136977352 527.915779054255 140.1610992412645 # Ar
1120 1120 1 0.0 302.672536207587 422.4093422940356 560.9611400886532 # Ar
1121 1121 1 0.0 1050.9640459044736 30.280050704438104 1056.572397463508 # Ar
1122 1122 1 0.0 877.9323692296988 407.3810644204884 141.74058693897211 # Ar
1123 1123 1 0.0 9.858446536409716 989.9858421875938 384.01041561400785 # Ar
1124 1124 1 0.0 921.1594354834534 887.9341011609164 819.618729134416 # Ar
1125 1125 1 0.0 595.517770624704 902.0769531553843 982.4736139939312 # Ar
1126 1126 1 0.0 540.8136908489446 44.249453953080604 313.9436301050157 # Ar
1127 1127 1 0.0 1093.0146145589315 324.7044954003384 85.98796310118007 # Ar
1128 1128 1 0.0 213.97239959875344 84.81702000302283 625.738782367183 # Ar
1129 1129 1 0.0 990.3836873498856 190.61156668574117 277.2999156296872 # Ar
1130 1130 1 0.0 191.83699871901877 666.347358616783 719.8411376969161 # Ar
1131 1131 1 0.0 963.3903119123789 137.51673310694676 1106.4475255689247 # Ar
1132 1132 1 0.0 689.5504640285163 949.8634834197162 151.79908646764883 # Ar
1133 1133 1 0.0 1073.8768444323812 1088.776348098103 588.3568247807344 # Ar
1134 1134 1 0.0 365.08537732491976 440.52910239464086 260.29340793180614 # Ar
1135 1135 1 0.0 893.3449174964801 456.49725356396124 965.4948203542957 # Ar
1136 1136 1 0.0 889.7040231234087 288.7314338140175 553.1090220238636 # Ar
1137 1137 1 0.0 160.25345660291723 975.966371595134 1028.3679753442593 # Ar
1138 1138 1 0.0 564.9426509732856 1042.8566086030864 722.9028830124531 # Ar
1139 1139 1 0.0 561.9829627714266 279.0691399094159 270.2769927125588 # Ar
1140 1140 1 0.0 927.1239347976642 999.0563063934178 1030.533925157254 # Ar
1141 1141 1 0.0 295.12061249671535 394.55288241446226 1079.5658047692095 # Ar
1142 1142 1 0.0 237.6378199586302 13.703197473054885 1080.7729024284122 # Ar
1143 1143 1 0.0 621.8434557752649 833.8106365200408 318.3995659614768 # Ar
1144 1144 1 0.0 345.048719053633 296.65196722449895 696.3299155998124 # Ar
1145 1145 1 0.0 815.5372558631798 758.1757766891867 754.032907462215 # Ar
1146 1146 1 0.0 340.8321675117864 942.2728652172509 924.4971231587352 # Ar
1147 1147 1 0.0 380.424785651786 335.7278601498549 316.78988659141567 # Ar
1148 1148 1 0.0 753.9214543573685 88.96830953940847 1052.2860836055427 # Ar
1149 1149 1 0.0 971.5110800240116 919.114800796473 573.2245760020427 # Ar
1150 1150 1 0.0 536.1954776896333 398.37600222762416 168.63157494765184 # Ar
1151 1151 1 0.0 555.1591664038644 801.9229907932288 332.49390394654813 # Ar
1152 1152 1 0.0 56.75946204799037 486.19855449920703 551.768170720198 # Ar
1153 1153 1 0.0 465.41669047048265 16.013179428504305 314.40294105000675 # Ar
1154 1154 1 0.0 286.94089600043185 974.4765481089403 893.8742295197538 # Ar
1155 1155 1 0.0 1076.6730021947806 827.9502717201376 751.2716573341205 # Ar
1156 1156 1 0.0 424.4265452516425 977.9719844299565 758.6554944352708 # Ar
1157 1157 1 0.0 720.3580511353141 587.2421929866736 926.7137142201186 # Ar
1158 1158 1 0.0 801.0194800552438 89.91683655309741 92.79381866066282 # Ar
1159 1159 1 0.0 563.8915562232052 927.2443011272625 28.564767823487742 # Ar
1160 1160 1 0.0 169.99362315333082 66.3912171964366 25.284236640759225 # Ar
1161 1161 1 0.0 391.9948960846124 750.3773103059226 819.3374033327098 # Ar
1162 1162 1 0.0 515.0813400288281 298.6701771276106 426.3409575378609 # Ar
1163 1163 1 0.0 129.63772678656417 864.3391722361365 203.34506641489935 # Ar
1164 1164 1 0.0 491.1765460455142 437.3474049035262 575.9809308368771 # Ar
1165 1165 1 0.0 393.312606664242 162.53437541215555 945.5676148492073 # Ar
1166 1166 1 0.0 934.3451651130689 888.7852223720469 100.70400090684774 # Ar
1167 1167 1 0.0 836.4798693227048 120.03962069055903 1029.0737359947864 # Ar
1168 1168 1 0.0 219.4045913515864 468.15919534226373 738.357446408574 # Ar
1169 1169 1 0.0 319.89905570323174 1003.864050697356 695.7443514342549 # Ar
1170 1170 1 0.0 686.8351564838746 141.19422702205927 1046.9023670138645 # Ar
1171 1171 1 0.0 349.8662484191074 76.15817375433896 820.9236248399019 # Ar
1172 1172 1 0.0 895.4113302930848 151.6012944251643 813.2611851332277 # Ar
1173 1173 1 0.0 739.901941783073 248.5225501921857 921.9792283414921 # Ar
1174 1174 1 0.0 1070.9361795873867 158.1497931588128 509.1793192514642 # Ar
1175 1175 1 0.0 102.54600145796361 293.2320984719989 691.017834102433 # Ar
1176 1176 1 0.0 469.4150713866078 970.812137079222 660.7855608218955 # Ar
1177 1177 1 0.0 742.1595304234273 56.703391211585945 968.494211968815 # Ar
1178 1178 1 0.0 369.20840119892745 909.999270313135 314.1379977018253 # Ar
1179 1179 1 0.0 82.81361929044525 621.0339700313853 969.0392450242531 # Ar
1180 1180 1 0.0 1044.6189150091277 876.2757561563932 538.7623818448806 # Ar
1181 1181 1 0.0 629.5656763845309 496.33052466949596 479.28589258167545 # Ar
1182 1182 1 0.0 981.0794928764377 573.4110896711136 485.2758785723712 # Ar
1183 1183 1 0.0 45.95124613866513 1025.7383642002949 97.04240857558831 # Ar
1184 1184 1 0.0 775.8619418597939 727.4197918731278 303.0302795285935 # Ar
1185 1185 1 0.0 72.35416756291859 302.74027703006016 249.15567956681812 # Ar
1186 1186 1 0.0 983.0408120172032 5.5275026998017225 87.65895050777719 # Ar
1187 1187 1 0.0 475.8300810518284 829.2664296473934 671.394666799882 # Ar
1188 1188 1 0.0 819.4503153156566 1079.4052877851182 358.8881306093929 # Ar
1189 1189 1 0.0 624.0836743812852 676.3287341989175 1060.6244038544105 # Ar
1190 1190 1 0.0 252.92306099865084 429.93217580150775 146.79760470374606 # Ar
1191 1191 1 0.0 798.9967378410107 1066.5566055155055 529.0764467147462 # Ar
1192 1192 1 0.0 533.9044901290445 286.3302392988558 216.17878895857174 # Ar
1193 1193 1 0.0 681.6592910877175 476.68312313257286 76.69063773668509 # Ar
1194 1194 1 0.0 248.30330988185685 294.7806384398474 1025.2502673926333 # Ar
1195 1195 1 0.0 1030.0796527796158 341.81092146201496 609.1152542360114 # Ar
1196 1196 1 0.0 742.9624221150783 567.4406877304648 464.8373653965604 # Ar
1197 1197 1 0.0 1026.712466848867 312.9155617572382 485.613882461551 # Ar
1198 1198 1 0.0 656.4105765202452 260.45289693676506 183.61999461782185 # Ar
1199 1199 1 0.0 729.0264953541041 369.89600391406066 436.4777295263568 # Ar
1200 1200 1 0.0 309.1777425745266 125.65714983136458 724.1838043028123 # Ar
1201 1201 1 0.0 225.45628263140065 814.322989695855 708.7586027115208 # Ar
1202 1202 1 0.0 398.6960884738721 966.3021206582837 854.878736261288 # Ar
1203 1203 1 0.0 397.0039946174893 1075.6312491818803 1063.8669070694607 # Ar
1204 1204 1 0.0 1095.080604276312 633.5372353162363 469.80333424838534 # Ar
1205 1205 1 0.0 630.4849089415002 322.0252793817982 727.1578280719513 # Ar
1206 1206 1 0.0 656.5331550135534 1068.625521814164 307.1456791536396 # Ar
1207 1207 1 0.0 606.126566669334 793.2666312060454 302.53688704232144 # Ar
1208 1208 1 0.0 968.7849364364756 827.3136556267244 187.62399277663474 # Ar
1209 1209 1 0.0 504.06930896497147 660.2515641020634 666.4073989719163 # Ar
1210 1210 1 0.0 92.3837781010576 103.12801977832594 615.5504906173422 # Ar
1211 1211 1 0.0 859.9961422477354 945.4678352424984 562.3157606946355 # Ar
1212 1212 1 0.0 242.17759400995084 380.9027214672984 351.380421899132 # Ar
1213 1213 1 0.0 486.0847440343242 623.7664896914762 779.7801037868446 # Ar
1214 1214 1 0.0 393.5964631679978 940.2610144254763 1023.7179703123488 # Ar
1215 1215 1 0.0 673.6397215163577 188.21812268883465 949.6479154979363 # Ar
1216 1216 1 0.0 915.9897325381274 1107.2354433894595 435.7295828115957 # Ar
1217 1217 1 0.0 500.0648275909238 512.996409345922 615.4472329036212 # Ar
1218 1218 1 0.0 55.53941752511433 735.3911348763319 1088.0395806280037 # Ar
1219 1219 1 0.0 889.0664840897721 1082.1509093414998 525.5048202103355 # Ar
1220 1220 1 0.0 265.84209168668775 74.77124111180743 718.625694786256 # Ar
1221 1221 1 0.0 774.468478635944 271.86771056846646 1084.408100586748 # Ar
1222 1222 1 0.0 190.24011277265856 481.69200620345504 93.91561593329168 # Ar
1223 1223 1 0.0 761.5875354169458 4.604047019488405 737.66030667119 # Ar
1224 1224 1 0.0 300.8604537039405 606.990328350319 96.07460241719178 # Ar
1225 1225 1 0.0 1004.7524286186165 416.47255526316115 253.05811136249844 # Ar
1226 1226 1 0.0 706.9037288697326 784.7261336265819 852.3281725744318 # Ar
1227 1227 1 0.0 76.91421391585558 49.50515302993437 895.0946532729037 # Ar
1228 1228 1 0.0 817.8668162761919 341.72284801744485 942.0287376852976 # Ar
1229 1229 1 0.0 152.38146010787906 9.065185338715734 1096.740824072408 # Ar
1230 1230 1 0.0 128.34097459952818 729.5561948436098 124.93054334937476 # Ar
1231 1231 1 0.0 363.1877648730645 107.44519788208885 694.7319314208864 # Ar
1232 1232 1 0.0 431.0518707845898 396.1071984077721 797.0181141475719 # Ar
1233 1233 1 0.0 917.2575088025618 693.4815510400562 756.1987643470501 # Ar
1234 1234 1 0.0 592.7491902367891 247.74118333059894 967.2171981197052 # Ar
1235 1235 1 0.0 167.00634034204 783.2118057255684 912.1404338886439 # Ar
1236 1236 1 0.0 483.7987148965531 476.3243546517842 177.9140936601143 # Ar
1237 1237 1 0.0 1.839751192748662 289.0637341155968 562.0750062411612 # Ar
1238 1238 1 0.0 28.8056550231026 20.3832138302525 54.18282901117492 # Ar
1239 1239 1 0.0 509.0133880288717 900.2036040578357 288.6525607653255 # Ar
1240 1240 1 0.0 781.067675137579 365.59727659775524 351.152568257138 # Ar
1241 1241 1 0.0 79.35460471056278 967.2625110398409 974.3098621807158 # Ar
1242 1242 1 0.0 298.20558093248883 500.505031662709 360.2334858116515 # Ar
1243 1243 1 0.0 106.01159116696218 276.5728797701393 298.049278356638 # Ar
1244 1244 1 0.0 33.49870462194394 698.9533182326118 1047.4725516873207 # Ar
1245 1245 1 0.0 744.4432549375549 394.4752128472571 236.52613386220648 # Ar
1246 1246 1 0.0 256.3100665272006 221.37294077082103 272.6391452082514 # Ar
1247 1247 1 0.0 988.9345408788886 399.0419586984172 593.7507866575913 # Ar
1248 1248 1 0.0 59.31556420701802 771.4355438336328 1041.819383158381 # Ar
1249 1249 1 0.0 86.82570584869814 1040.2504802052692 974.6142762904649 # Ar
1250 1250 1 0.0 686.3657318300486 907.0841807019108 804.61495882436 # Ar
1251 1251 1 0.0 469.2781515993205 497.81316071706715 660.9477402794197 # Ar
1252 1252 1 0.0 956.9454733522559 775.4161334521647 357.6810270675702 # Ar
1253 1253 1 0.0 465.8422185071395 105.76194051898455 477.25196871717793 # Ar
1254 1254 1 0.0 23.150928338410534 547.9999541932767 598.3357806675924 # Ar
1255 1255 1 0.0 815.2203748118254 484.109659871538 40.76575766878194 # Ar
1256 1256 1 0.0 105.45753230307865 753.3560566997545 26.035404398885053 # Ar
1257 1257 1 0.0 891.4818336719911 918.5641552290117 253.8913009012868 # Ar
1258 1258 1 0.0 857.335298241645 982.7281153471224 377.58114567307246 # Ar
1259 1259 1 0.0 136.3294293918431 242.4381763054669 858.3757308715358 # Ar
1260 1260 1 0.0 504.14540954472915 638.2972375962668 598.4604144584869 # Ar
1261 1261 1 0.0 738.686825290487 599.8526166486268 165.59683449944777 # Ar
1262 1262 1 0.0 1052.7003163715435 429.463982281716 995.7758141453714 # Ar
1263 1263 1 0.0 831.6282976942156 105.96415679102931 1090.5512823740328 # Ar
1264 1264 1 0.0 1069.410909331956 395.87476267526756 303.04431195258434 # Ar
1265 1265 1 0.0 1059.3896379942676 367.5057534035366 124.97544189441525 # Ar
1266 1266 1 0.0 229.62013870631753 313.7963535928243 699.17991153608 # Ar
1267 1267 1 0.0 569.1789847726687 340.77106288686514 317.4779854745965 # Ar
1268 1268 1 0.0 691.6925204036708 558.6037188307051 621.2572858532062 # Ar
1269 1269 1 0.0 1013.0175888150611 1022.5762511447315 81.47249081459526 # Ar
1270 1270 1 0.0 721.6808765644065 547.5912229359897 68.16243865487091 # Ar
1271 1271 1 0.0 813.8960159023047 385.19706100916477 41.66864548504218 # Ar
1272 1272 1 0.0 578.2882985417609 414.9296093238543 49.38875081170298 # Ar
1273 1273 1 0.0 939.4641688267444 766.7669066170857 1048.0363628631012 # Ar
1274 1274 1 0.0 568.0711838347532 747.4851837726928 416.37360818228933 # Ar
1275 1275 1 0.0 728.6662384942418 266.1660510972118 872.3979684302682 # Ar
1276 1276 1 0.0 812.050009449071 25.820648755374656 1049.8927141227682 # Ar
1277 1277 1 0.0 840.1697675560725 74.94317034717706 135.09037166600038 # Ar
1278 1278 1 0.0 1038.0390925125387 279.3634228344456 948.9244784416131 # Ar
1279 1279 1 0.0 826.3070388598336 984.0880386853062 176.19128799691 # Ar
1280 1280 1 0.0 406.24222730987515 951.3849100361178 540.3163499760891 # Ar
1281 1281 1 0.0 566.9007274338775 77.4678621249261 64.6387663797505 # Ar
1282 1282 1 0.0 437.62010967696506 995.2459167374407 182.4373122895994 # Ar
1283 1283 1 0.0 44.220738363752886 526.8456755015297 687.5013009639608 # Ar
1284 1284 1 0.0 662.5545079479753 480.7419518441353 170.30276668844152 # Ar
1285 1285 1 0.0 589.399263150313 879.8749727433049 507.96257928898314 # Ar
1286 1286 1 0.0 210.63982123849183 227.62224990840232 439.0603166030857 # Ar
1287 1287 1 0.0 907.9393834327434 780.4562538699038 195.4871368814162 # Ar
1288 1288 1 0.0 776.8656268550292 914.665384147394 546.1528883324777 # Ar
1289 1289 1 0.0 246.89103508726402 1065.0534861534582 484.5321098613143 # Ar
1290 1290 1 0.0 344.9575423713234 1043.666728295156 106.12696390038728 # Ar
1291 1291 1 0.0 485.9542630701051 979.4039741333454 223.3110784898382 # Ar
1292 1292 1 0.0 276.4769100138855 600.0709380953838 939.7018370482891 # Ar
1293 1293 1 0.0 680.190071423912 787.1610182903129 136.8097425862573 # Ar
1294 1294 1 0.0 334.7541452813607 418.7358248485963 595.3666859997711 # Ar
1295 1295 1 0.0 886.2656281478162 911.4129656550672 901.7980233801077 # Ar
1296 1296 1 0.0 102.44219694402722 854.0513406024838 1012.9817247824033 # Ar
1297 1297 1 0.0 800.429530618504 122.45753185408218 171.74562879338956 # Ar
1298 1298 1 0.0 964.8004203809165 301.9771768832091 776.4770004620434 # Ar
1299 1299 1 0.0 408.43926093717573 5.24227982880995 161.45139747431577 # Ar
1300 1300 1 0.0 83.83877254882992 159.87042893882278 938.2429428004776 # Ar
1301 1301 1 0.0 723.0846189260228 199.2547757416561 548.8102687588031 # Ar
1302 1302 1 0.0 8.163379540034029 903.932594486299 525.8120097439115 # Ar
1303 1303 1 0.0 255.0782981248961 1053.540739117613 834.06657444755 # Ar
1304 1304 1 0.0 722.6804621622562 232.45006851659667 243.2547682119159 # Ar
1305 1305 1 0.0 141.03388586025233 890.0610356224705 885.5834895283639 # Ar
1306 1306 1 0.0 146.17175895590933 701.9688144589185 196.73355606641113 # Ar
1307 1307 1 0.0 895.0362405212637 964.9378983894353 714.5463376100093 # Ar
1308 1308 1 0.0 224.39384613016986 789.8259999372308 963.629994772031 # Ar
1309 1309 1 0.0 1079.8385896168327 209.86721543917227 554.1682982745541 # Ar
1310 1310 1 0.0 529.5228093670464 1006.6543508982879 830.2850706062335 # Ar
1311 1311 1 0.0 576.8392862634145 453.8518204479424 723.6785675495855 # Ar
1312 1312 1 0.0 416.8168158287891 650.9509624592603 525.0008784310448 # Ar
1313 1313 1 0.0 756.5111769269387 97.8942431212765 929.4694836801881 # Ar
1314 1314 1 0.0 323.1972147135718 222.30563450374814 1049.6243221993716 # Ar
1315 1315 1 0.0 476.9222637144756 1070.4178288651062 37.66839778434642 # Ar
1316 1316 1 0.0 645.3116568054052 308.124356041826 641.5774193692012 # Ar
1317 1317 1 0.0 941.5256896173009 552.1332517285987 872.6470203986454 # Ar
1318 1318 1 0.0 12.578696770342535 366.3830969247701 778.3094937535391 # Ar
1319 1319 1 0.0 136.81169098538734 610.2192104461508 232.72676743104125 # Ar
1320 1320 1 0.0 659.8389642845586 524.5869256453767 562.6831819348091 # Ar
1321 1321 1 0.0 635.2991346509125 68.11809078283993 582.913323849602 # Ar
1322 1322 1 0.0 149.6048663415566 270.7280277142853 399.5424729479199 # Ar
1323 1323 1 0.0 726.7756273683767 90.82570478811517 451.11278040820497 # Ar
1324 1324 1 0.0 240.17729295400966 532.1568195383923 433.10925352793174 # Ar
1325 1325 1 0.0 830.430445503385 208.1851277377672 918.5650544173958 # Ar
1326 1326 1 0.0 63.288165497783 122.06452552617479 1099.4798554123836 # Ar
1327 1327 1 0.0 433.8482646972867 215.89515521002073 1103.5942770897975 # Ar
1328 1328 1 0.0 1005.2819717839097 202.655193589257 802.3559035552003 # Ar
1329 1329 1 0.0 88.7049272999453 298.1564943869132 683.7616823459131 # Ar
1330 1330 1 0.0 1093.5639539895217 727.0259168473808 895.6658777719006 # Ar
1331 1331 1 0.0 196.88931294268698 747.1471686535451 768.3412488257901 # Ar
1332 1332 1 0.0 1005.6356641845592 706.7710341965771 837.6934035375534 # Ar
1333 1333 1 0.0 749.8229254784094 197.90167814476487 1092.8385261692024 # Ar
1334 1334 1 0.0 833.3187125477561 770.5973357923295 1018.7780786809465 # Ar
1335 1335 1 0.0 754.6511265231698 869.9664669700516 638.6299391622982 # Ar
1336 1336 1 0.0 4.43211796969441 136.80206914556325 835.7938976975677 # Ar
1337 1337 1 0.0 78.718654738073 262.08388254541995 323.1508899981317 # Ar
1338 1338 1 0.0 692.9317520825714 559.2463857420045 210.74306337391238 # Ar
1339 1339 1 0.0 892.5724334397058 783.155693157146 941.9559290727004 # Ar
1340 1340 1 0.0 795.4910852557297 507.7761875198455 745.5331677702025 # Ar
1341 1341 1 0.0 673.9320748607198 281.6470550793452 123.82746370990093 # Ar
1342 1342 1 0.0 280.8935223814735 841.8749428470262 1054.1493890277404 # Ar
1343 1343 1 0.0 851.8929652812535 952.9000877972737 1052.4404898540026 # Ar
1344 1344 1 0.0 270.6695523271773 927.6323095210354 980.0135620232021 # Ar
1345 1345 1 0.0 272.1944536567466 436.3962686768978 1056.225236819529 # Ar
1346 1346 1 0.0 322.8270281618984 77.26060897007439 84.09614394412607 # Ar
1347 1347 1 0.0 1074.410709422867 233.61845731607028 415.892287125909 # Ar
1348 1348 1 0.0 980.1141390978144 253.1934044979604 925.5913433940477 # Ar
1349 1349 1 0.0 345.8759010854348 206.8614728599434 350.2143988647136 # Ar
1350 1350 1 0.0 648.6269739414744 316.3273883083459 76.1432208574014 # Ar
1351 1351 1 0.0 620.8779889104553 180.66046537174438 671.4402504074169 # Ar
1352 1352 1 0.0 887.8928839766633 762.4805929388627 883.6339059655476 # Ar
1353 1353 1 0.0 452.62166524432376 96.2128562583767 1099.4135165482983 # Ar
1354 1354 1 0.0 18.598717355155078 210.5813289034468 569.4438250943349 # Ar
1355 1355 1 0.0 191.35189787988722 1090.3870918632474 930.0194450588787 # Ar
1356 1356 1 0.0 982.6907211109515 702.2444459284898 75.03481304429992 # Ar
1357 1357 1 0.0 672.0894406241649 1024.8796182717297 991.1138707506681 # Ar
1358 1358 1 0.0 664.7735567523509 287.45595672761914 468.63921357183193 # Ar
1359 1359 1 0.0 1089.5682193285488 186.8149556727822 713.5952457058206 # Ar
1360 1360 1 0.0 816.2493760337683 1106.9946869196208 294.2617559466479 # Ar
1361 1361 1 0.0 53.850230419056686 787.1384708587248 711.5245093668867 # Ar
1362 1362 1 0.0 316.83113498738635 423.8626327645518 827.3979752437658 # Ar
1363 1363 1 0.0 918.6394728395364 194.29268280968603 1081.1730095999412 # Ar
1364 1364 1 0.0 149.61770834419164 367.391244994119 847.4252267422045 # Ar
1365 1365 1 0.0 161.01625727055358 586.5728190220196 663.0447540353862 # Ar
1366 1366 1 0.0 538.8102662408759 162.68621867722197 905.3712822634147 # Ar
1367 1367 1 0.0 585.7967495493433 434.05445576758547 1020.1265877575378 # Ar
1368 1368 1 0.0 1014.8943368596925 423.52924010854184 376.2638819528571 # Ar
1369 1369 1 0.0 499.0871803042609 240.73741412438747 592.1381587302052 # Ar
1370 1370 1 0.0 362.10104010221863 14.459539246954627 323.2125792032764 # Ar
1371 1371 1 0.0 1064.7322174891954 865.1031298360166 509.6674822919438 # Ar
1372 1372 1 0.0 290.3261442654331 308.33476504252036 669.4452698573986 # Ar
1373 1373 1 0.0 165.25991431934554 1013.7301554639448 1093.1257732886068 # Ar
1374 1374 1 0.0 733.2093350727814 480.56342384921794 127.52833744490518 # Ar
1375 1375 1 0.0 64.4206651325949 285.21778582889465 802.6946660714784 # Ar
1376 1376 1 0.0 93.10343223641199 980.603534474804 381.00470556738463 # Ar
1377 1377 1 0.0 689.6325028225272 107.86140061049672 796.511203213743 # Ar
1378 1378 1 0.0 304.8286066754764 1065.3589173857451 808.4031773474343 # Ar
1379 1379 1 0.0 326.22305067836095 636.2578020164084 226.95002114439785 # Ar
1380 1380 1 0.0 1000.7105463463104 231.16486571612634 334.5128281429515 # Ar
1381 1381 1 0.0 298.36392104333675 708.2247531934636 934.8691246145914 # Ar
1382 1382 1 0.0 427.2295173839737 1064.9055367456567 188.026488064572 # Ar
1383 1383 1 0.0 51.20766690483581 43.97106993451762 81.79620375634731 # Ar
1384 1384 1 0.0 532.1837191359994 1041.929872723437 437.8537143745739 # Ar
1385 1385 1 0.0 1038.4173441459284 262.3971104573348 209.44246432943476 # Ar
1386 1386 1 0.0 157.65072412827624 69.1643985912008 361.55913792721304 # Ar
1387 1387 1 0.0 509.8782719218781 471.5603870960758 838.052752394454 # Ar
1388 1388 1 0.0 1051.680490315674 48.77748651535444 543.4510972313639 # Ar
1389 1389 1 0.0 437.11067357641576 805.7146677738496 838.1255769537523 # Ar
1390 1390 1 0.0 742.3988041016893 84.68383301957142 370.77488237326776 # Ar
1391 1391 1 0.0 928.1442050603482 533.1061919608017 349.06887392068 # Ar
1392 1392 1 0.0 594.0830072417973 486.3809873430715 8.97983654902985 # Ar
1393 1393 1 0.0 6.102787304837524 604.0316179545475 1056.5339732727527 # Ar
1394 1394 1 0.0 686.9666017013241 112.7909999703074 646.8012287042312 # Ar
1395 1395 1 0.0 857.039316251677 834.5247068663244 133.76943347625638 # Ar
1396 1396 1 0.0 306.10273007479344 743.0884984935301 505.9116501126999 # Ar
1397 1397 1 0.0 482.2835708399733 439.27618241664425 110.07549540137161 # Ar
1398 1398 1 0.0 377.4112683791623 207.64854768946594 49.22173070835072 # Ar
1399 1399 1 0.0 405.35068622680996 1049.2686943410658 328.5653667669095 # Ar
1400 1400 1 0.0 371.6871486162766 33.37221108666624 794.011906563847 # Ar
1401 1401 1 0.0 457.3154269893101 638.0955487932116 361.38810846213664 # Ar
1402 1402 1 0.0 862.1926316615312 914.4459716925406 774.6068234417396 # Ar
1403 1403 1 0.0 896.0704385615564 283.32637228040096 960.8155785291756 # Ar
1404 1404 1 0.0 731.0405969150379 594.8389373495382 1050.9679340471548 # Ar
1405 1405 1 0.0 233.72815175945675 332.7107683850404 1063.038254189576 # Ar
1406 1406 1 0.0 1104.3597643150729 613.5557391922264 548.6091688463123 # Ar
1407 1407 1 0.0 1036.7948903167019 765.2012509630373 1051.369420621441 # Ar
1408 1408 1 0.0 1008.1423591117759 1004.915684537251 592.6612250836903 # Ar
1409 1409 1 0.0 1029.180252204016 499.101685644478 682.5456642507289 # Ar
1410 1410 1 0.0 755.2793118311114 129.97455919065428 481.39139195249106 # Ar
1411 1411 1 0.0 373.77423313964783 616.4979562015789 1071.22141753453 # Ar
1412 1412 1 0.0 804.2834411082417 867.1463924332411 438.4918305457692 # Ar
1413 1413 1 0.0 878.1938694074904 625.0861791886103 983.1586077156046 # Ar
1414 1414 1 0.0 750.4426223963059 833.8399158738248 728.0328022332587 # Ar
1415 1415 1 0.0 617.0244145737128 807.2661697144267 556.9149986662121 # Ar
1416 1416 1 0.0 1039.7545351622264 238.76923160334445 597.2106911295045 # Ar
1417 1417 1 0.0 241.605208599021 138.76378915985092 218.58210944881776 # Ar
1418 1418 1 0.0 941.289779962811 1084.7665110685566 246.9038919284511 # Ar
1419 1419 1 0.0 647.8071946015274 312.8123423082131 922.0270214874682 # Ar
1420 1420 1 0.0 895.9094366935564 886.5608178142137 862.2254923399544 # Ar
1421 1421 1 0.0 164.2825349146172 733.0083981781752 799.7393960762972 # Ar
1422 1422 1 0.0 1023.7645797097584 408.7143783133665 789.8954716472782 # Ar
1423 1423 1 0.0 248.2938760493561 674.3879230365869 1033.441719829815 # Ar
1424 1424 1 0.0 596.5519775023193 1102.6009926715262 207.49850192183607 # Ar
1425 1425 1 0.0 598.9874821400771 1050.706707656999 533.0809815037288 # Ar
1426 1426 1 0.0 546.0422025320491 75.81381288633568 7.27147523002148 # Ar
1427 1427 1 0.0 802.8608916796117 1003.6308164925954 845.7480026298288 # Ar
1428 1428 1 0.0 460.8018026478206 671.1814676671349 392.21284728954424 # Ar
1429 1429 1 0.0 346.6954148690878 341.1458199951483 670.4107449819436 # Ar
1430 1430 1 0.0 351.3019937280206 422.1073618089222 244.13690779047116 # Ar
1431 1431 1 0.0 665.2932497688803 1068.4695530690258 896.2431433173928 # Ar
1432 1432 1 0.0 652.9182464361493 575.8688876271982 17.11582883782554 # Ar
1433 1433 1 0.0 656.1777663423039 548.2699912600011 411.17334636908936 # Ar
1434 1434 1 0.0 394.7491015248745 255.26558483819556 256.4708784947821 # Ar
1435 1435 1 0.0 894.8510385087543 92.22190865122593 893.3960044077102 # Ar
1436 1436 1 0.0 760.3444073158466 1049.9099594673467 289.7984148612328 # Ar
1437 1437 1 0.0 696.9283477295791 564.8827866830837 453.1959010359623 # Ar
1438 1438 1 0.0 800.1373492641757 484.74104137117473 13.602444605675693 # Ar
1439 1439 1 0.0 347.04260652778214 463.805330607577 666.955825524554 # Ar
1440 1440 1 0.0 544.5901476421162 246.56459831509812 822.1734343243372 # Ar
1441 1441 1 0.0 79.7604718642857 1054.9740424826455 857.9400447792584 # Ar
1442 1442 1 0.0 739.3221637785895 696.6728611304231 293.3462787374245 # Ar
1443 1443 1 0.0 943.4591687053394 592.4401152812516 334.5728433428601 # Ar
1444 1444 1 0.0 237.6393369275231 737.2958851131862 558.5356466163548 # Ar
1445 1445 1 0.0 182.42709411846656 395.7007776371554 457.144734955487 # Ar
1446 1446 1 0.0 295.5371574538676 955.532637714412 974.6549626761578 # Ar
1447 1447 1 0.0 228.58781345092208 176.72628425579967 515.3139757334369 # Ar
1448 1448 1 0.0 706.717387377079 132.03770882055372 869.1358384949823 # Ar
1449 1449 1 0.0 363.2409440553362 248.81646143173006 681.0356544081618 # Ar
1450 1450 1 0.0 623.0722610240083 507.9377200138132 858.9052567898655 # Ar
1451 1451 1 0.0 438.1227209660686 630.351719575247 591.3879264007962 # Ar
1452 1452 1 0.0 197.68482849490104 498.6453832264604 735.1437450346347 # Ar
1453 1453 1 0.0 385.49908083342063 394.68589822045124 357.58417316022627 # Ar
1454 1454 1 0.0 959.3884502642699 507.89998525623713 588.2134973502107 # Ar
1455 1455 1 0.0 285.42509258701796 787.8536598952272 602.7116986047471 # Ar
1456 1456 1 0.0 177.2542726643512 298.7482221277335 44.302110187541615 # Ar
1457 1457 1 0.0 595.180610762342 401.4498237290905 1028.8207482972314 # Ar
1458 1458 1 0.0 191.5678657522119 258.5611939310099 384.9797716847185 # Ar
1459 1459 1 0.0 1016.5229731170366 273.32920944906385 425.2815505784559 # Ar
1460 1460 1 0.0 872.566584005543 894.4245015172976 322.3682461248579 # Ar
1461 1461 1 0.0 943.9067942109994 118.42441344260028 40.90584677091879 # Ar
1462 1462 1 0.0 1002.417730933168 272.9721024421511 918.723736618697 # Ar
1463 1463 1 0.0 166.9636196287921 883.9814306679609 380.5062724762563 # Ar
1464 1464 1 0.0 673.8223835806883 924.2073292571138 859.6912042118414 # Ar
1465 1465 1 0.0 92.41325421570096 671.9405025482928 1080.6225547517706 # Ar
1466 1466 1 0.0 648.5042314920947 163.7979904034899 481.377339934381 # Ar
1467 1467 1 0.0 492.06049145871054 873.7258900778832 821.4942020342637 # Ar
1468 1468 1 0.0 244.51738388706474 899.1881087292563 897.0426949755885 # Ar
1469 1469 1 0.0 1073.0688117112554 483.7489473854357 307.0312314143167 # Ar
1470 1470 1 0.0 593.2162727866944 742.611812612459 1107.9871601557054 # Ar
1471 1471 1 0.0 556.4410948490995 20.69845250247372 1102.3431161626006 # Ar
1472 1472 1 0.0 261.985603765834 545.2933638634366 822.9016331282814 # Ar
1473 1473 1 0.0 280.466232369384 477.01352547704397 352.87139988669185 # Ar
1474 1474 1 0.0 961.8584947577434 857.7653400526241 1024.6873660609317 # Ar
1475 1475 1 0.0 272.2517451497748 328.56444379293777 422.0881828803412 # Ar
1476 1476 1 0.0 701.8883138803492 395.827270181589 715.6097373809082 # Ar
1477 1477 1 0.0 584.7383790028781 440.6182087347715 717.4489665491728 # Ar
1478 1478 1 0.0 683.9476388257123 807.7156738369496 271.194138834251 # Ar
1479 1479 1 0.0 380.70694383212145 873.6103596185505 320.10997734019924 # Ar
1480 1480 1 0.0 953.6532460130511 856.0685600598681 382.78980493988166 # Ar
1481 1481 1 0.0 698.7061240800705 598.0280313278562 953.5366517542046 # Ar
1482 1482 1 0.0 847.3655760555706 333.9679210994319 1041.5432528546905 # Ar
1483 1483 1 0.0 438.5132840244091 880.5869270684778 792.5910842735954 # Ar
1484 1484 1 0.0 867.8836174387432 588.9526632326335 447.9814069784528 # Ar
1485 1485 1 0.0 1066.1437472800246 864.7033617377482 181.30532083736264 # Ar
1486 1486 1 0.0 358.223986030606 549.0650798761462 287.2509106377 # Ar
1487 1487 1 0.0 733.7244432277466 172.77947309871536 752.3969119452357 # Ar
1488 1488 1 0.0 539.6087766787862 465.10227933028244 150.96052431161206 # Ar
1489 1489 1 0.0 544.0370779108409 564.1258407435589 877.9683906783947 # Ar
1490 1490 1 0.0 48.72881166099738 568.1483921144124 577.8379768184095 # Ar
1491 1491 1 0.0 114.58702700879601 111.04779823843296 30.594705603765828 # Ar
1492 1492 1 0.0 975.3026353332433 1000.5709612690035 275.87156671995376 # Ar
1493 1493 1 0.0 363.9171053466506 608.4039892830936 229.889405226403 # Ar
1494 1494 1 0.0 1059.3498148905887 1096.6078414691688 1008.5666027820783 # Ar
1495 1495 1 0.0 465.2549753751398 1024.3461334781737 954.83000774815 # Ar
1496 1496 1 0.0 133.0247028184062 518.607854464038 367.88331293266947 # Ar
1497 1497 1 0.0 40.442388446084244 521.0784790147324 797.5300023088334 # Ar
1498 1498 1 0.0 808.0136547236604 277.1958810723312 819.2076202227101 # Ar
1499 1499 1 0.0 132.21072200287648 150.1656823240204 706.6560938973048 # Ar
1500 1500 1 0.0 496.9854665910499 200.3159658615101 1071.9943496361573 # Ar
1501 1501 1 0.0 202.83915617082957 78.6674851632555 963.9455128658825 # Ar
1502 1502 1 0.0 254.5274462295411 21.228643339005355 550.6793369459192 # Ar
1503 1503 1 0.0 758.1439518217627 1046.0116227423212 13.361052715611985 # Ar
1504 1504 1 0.0 202.83034898930148 37.58484350549885 980.2372172109987 # Ar
1505 1505 1 0.0 921.7407139507768 759.3633592576596 396.45314955592784 # Ar
1506 1506 1 0.0 999.8041982914293 562.7168484248756 928.3122482988614 # Ar
1507 1507 1 0.0 1022.2458092087489 679.0047449475248 60.03789218149184 # Ar
1508 1508 1 0.0 232.80234480498342 1003.3631977669595 703.6783971937896 # Ar
1509 1509 1 0.0 278.64365625500886 324.8064552176138 329.31308140487073 # Ar
1510 1510 1 0.0 287.6645479050692 87.60580946368081 915.0009356095638 # Ar
1511 1511 1 0.0 385.48803951798595 106.87323029894904 231.67162443062344 # Ar
1512 1512 1 0.0 787.1073340925439 36.476718719267566 1063.0431820442814 # Ar
1513 1513 1 0.0 939.268511942688 486.0108900876992 855.4480668217087 # Ar
1514 1514 1 0.0 886.4546666399383 1094.1650305201833 1006.8533835352338 # Ar
1515 1515 1 0.0 408.0449142290849 1068.6676627193451 557.7172587962687 # Ar
1516 1516 1 0.0 578.8253065522692 1051.8865314744965 744.9730456386051 # Ar
1517 1517 1 0.0 212.3626568128584 836.4164448516301 710.1033747819201 # Ar
1518 1518 1 0.0 79.80942197593684 558.7991874806868 816.2681119910876 # Ar
1519 1519 1 0.0 503.6553876757725 1062.7406948807745 964.9191327900628 # Ar
1520 1520 1 0.0 387.2464237742449 233.52469584093117 546.0500885167385 # Ar
1521 1521 1 0.0 677.4899720938228 1014.457576019177 82.81034979248058 # Ar
1522 1522 1 0.0 28.259329337207358 964.7022057673598 529.6517047258303 # Ar
1523 1523 1 0.0 283.24877955171786 630.5989738877558 893.368241167514 # Ar
1524 1524 1 0.0 931.2226750407486 780.1555412681329 589.9072578425872 # Ar
1525 1525 1 0.0 1040.2392515606837 296.60952282709275 61.89756468722889 # Ar
1526 1526 1 0.0 302.12503447638477 96.93552956542301 231.91880291570715 # Ar
1527 1527 1 0.0 215.5787987266511 882.2021376525937 632.1584226657782 # Ar
1528 1528 1 0.0 249.27130900151928 956.2004450793619 660.6680055257634 # Ar
1529 1529 1 0.0 887.2498134697577 644.1691399273429 133.45677661804197 # Ar
1530 1530 1 0.0 977.9357616832392 451.0000944003991 592.3118436335699 # Ar
1531 1531 1 0.0 409.1478233415131 1024.6882096705292 213.84702343664088 # Ar
1532 1532 1 0.0 399.96510440047985 516.2362584884113 225.24563366616457 # Ar
1533 1533 1 0.0 892.2113323945083 484.42666339871124 872.5152616122905 # Ar
1534 1534 1 0.0 414.5229372748049 821.7023203824589 513.1103062141956 # Ar
1535 1535 1 0.0 179.77266486460286 794.2083152862318 445.8931195331458 # Ar
1536 1536 1 0.0 419.01622133040314 209.28065360282804 730.5589732759378 # Ar
1537 1537 1 0.0 562.6067197139832 341.5027790702896 922.1339674635572 # Ar
1538 1538 1 0.0 1107.3941004409655 987.5056868889126 744.3696593473969 # Ar
1539 1539 1 0.0 350.2312791463457 521.0637370328391 297.015025147195 # Ar
1540 1540 1 0.0 261.71180759392456 519.3664567254198 347.6267688893955 # Ar
1541 1541 1 0.0 471.865389981259 205.48617838513965 1087.072016961241 # Ar
1542 1542 1 0.0 642.75275627413 958.555021870838 637.2193290560175 # Ar
1543 1543 1 0.0 302.9635145466057 817.7151239080091 247.17402465888102 # Ar
1544 1544 1 0.0 606.4305544253336 66.59795068977266 1002.1040380012134 # Ar
1545 1545 1 0.0 99.92312310366653 719.4235541382615 114.95251061783283 # Ar
1546 1546 1 0.0 733.3067646412661 436.8228715922554 846.5523254870195 # Ar
1547 1547 1 0.0 753.2217840923341 542.6515133518603 621.1168868626553 # Ar
1548 1548 1 0.0 145.72883374756398 245.12535042721044 594.3210744128752 # Ar
1549 1549 1 0.0 429.1652798749853 221.7876092772502 556.6036260748084 # Ar
1550 1550 1 0.0 502.7499499515884 190.03684758591174 693.1534329369235 # Ar
1551 1551 1 0.0 96.51099425486622 144.64613023958586 910.7037758314281 # Ar
1552 1552 1 0.0 149.31182786590063 111.50897304566534 323.7731998493216 # Ar
1553 1553 1 0.0 792.7388220356451 848.0836009957013 87.5706806694876 # Ar
1554 1554 1 0.0 1011.2432513772403 114.61709217949752 1071.236583922685 # Ar
1555 1555 1 0.0 980.7294455380503 8.665930821897065 1078.4850640831967 # Ar
1556 1556 1 0.0 240.7049938965937 909.3681704793156 487.60531257835265 # Ar
1557 1557 1 0.0 265.85187704357435 634.3921837213566 504.0533493576214 # Ar
1558 1558 1 0.0 439.72897131312567 218.76777542222692 722.8614989045959 # Ar
1559 1559 1 0.0 292.7282698820503 804.3721640222258 719.1869026008782 # Ar
1560 1560 1 0.0 207.18606984566026 721.5056939442221 834.9590339631834 # Ar
1561 1561 1 0.0 570.743921204452 211.07592350575416 87.9838511669743 # Ar
1562 1562 1 0.0 237.85148880363707 386.14468672354445 402.06369347865177 # Ar
1563 1563 1 0.0 713.9124410631523 947.3009656397754 327.6672933760879 # Ar
1564 1564 1 0.0 509.9398985305235 776.7342035663283 604.2387998234996 # Ar
1565 1565 1 0.0 700.2582620269606 1100.5609173268065 786.2882212120404 # Ar
1566 1566 1 0.0 647.8226787612723 1085.6015042898564 399.04310856984097 # Ar
1567 1567 1 0.0 683.4671744558434 847.8232733725863 262.82123022155923 # Ar
1568 1568 1 0.0 78.95037542859318 389.50051926846106 525.4698777514252 # Ar
1569 1569 1 0.0 570.3993029135237 1009.4676061682829 116.93004797677513 # Ar
1570 1570 1 0.0 238.6838211400439 313.27265927298663 978.6818172334029 # Ar
1571 1571 1 0.0 87.21207710460116 446.36868090209254 956.2311062326023 # Ar
1572 1572 1 0.0 917.2549870438702 640.2035626654031 939.4558616770286 # Ar
1573 1573 1 0.0 638.4523632332495 571.434738149214 295.9751624605388 # Ar
1574 1574 1 0.0 624.5939315454732 629.2948483897954 282.5337180084337 # Ar
1575 1575 1 0.0 10.585949350727564 1056.616947557262 621.5279852229291 # Ar
1576 1576 1 0.0 7.5975596967189185 699.9537571658973 528.0162133601572 # Ar
1577 1577 1 0.0 343.38498106867377 133.64099701657287 625.1612227590158 # Ar
1578 1578 1 0.0 1099.3137999621779 394.83677683128616 592.3218723964767 # Ar
1579 1579 1 0.0 457.19826766856613 241.50204351729587 61.567032653639195 # Ar
1580 1580 1 0.0 84.87317857427429 542.5317131574399 612.0456399415799 # Ar
1581 1581 1 0.0 851.817230471653 18.463247009557442 1040.0831390722178 # Ar
1582 1582 1 0.0 805.4667794592731 885.7607339959353 130.6133556463224 # Ar
1583 1583 1 0.0 729.832128259993 1054.9181674401427 426.59066496814864 # Ar
1584 1584 1 0.0 48.478444609705534 996.3383388712946 544.6122671736582 # Ar
1585 1585 1 0.0 558.0244193792142 445.76135935974105 1083.0896691754501 # Ar
1586 1586 1 0.0 270.5869738351183 953.5226298952249 150.76004492786814 # Ar
1587 1587 1 0.0 579.750219543687 1071.9962281999424 662.802376746194 # Ar
1588 1588 1 0.0 244.08492064164162 185.33496019208064 136.05482557677777 # Ar
1589 1589 1 0.0 95.84939286003875 888.7974745518164 658.9068397645524 # Ar
1590 1590 1 0.0 501.4889398475334 282.56840910448994 480.6382190669404 # Ar
1591 1591 1 0.0 316.53491258463015 705.9187518723736 452.1882440368327 # Ar
1592 1592 1 0.0 322.6484445926852 873.982521257727 221.17262864491715 # Ar
1593 1593 1 0.0 884.0075911089382 686.2130414887791 746.7491649037639 # Ar
1594 1594 1 0.0 410.6375281470256 58.870992357591284 812.2161427611666 # Ar
1595 1595 1 0.0 14.966426634135061 432.22376205872354 65.9943497838161 # Ar
1596 1596 1 0.0 768.7199566616803 305.6449656968563 256.61542243037644 # Ar
1597 1597 1 0.0 1015.4515291642523 975.924504406292 200.88458841785453 # Ar
1598 1598 1 0.0 981.7530224353876 679.0770299770235 498.69912203924224 # Ar
1599 1599 1 0.0 475.1772638487879 967.4523351202142 262.84291960597915 # Ar
1600 1600 1 0.0 805.0967479548667 878.3597370248984 557.0113949830687 # Ar
1601 1601 1 0.0 94.17178815736959 656.3177665291622 569.6675545363264 # Ar
1602 1602 1 0.0 506.3975063568973 867.6117571256569 498.700071530597 # Ar
1603 1603 1 0.0 1028.367454705954 209.47515191399066 482.51314042646305 # Ar
1604 1604 1 0.0 113.9916398652303 146.9286892097249 235.1199071835497 # Ar
1605 1605 1 0.0 606.820222149639 837.1412390803098 957.85188856885 # Ar
1606 1606 1 0.0 702.8942861099495 1058.6018067797002 824.382828175524 # Ar
1607 1607 1 0.0 242.55664941252084 826.8925704998749 280.58686774013574 # Ar
1608 1608 1 0.0 995.3903222192267 1090.4888344735834 1045.9301353832018 # Ar
1609 1609 1 0.0 1085.6600469675898 364.9314564583808 592.50540121474 # Ar
1610 1610 1 0.0 144.54112328274184 372.60261934277617 554.6891847617834 # Ar
1611 1611 1 0.0 873.0631154862165 226.02749260731477 118.81674176877179 # Ar
1612 1612 1 0.0 224.9462243911975 141.71695940167137 6.90985407053647 # Ar
1613 1613 1 0.0 653.4091551001418 495.8310412136111 527.385027532912 # Ar
1614 1614 1 0.0 117.95863892228213 163.6983735587579 319.2652089995773 # Ar
1615 1615 1 0.0 271.37331160058704 841.8897481283005 579.2726789435859 # Ar
1616 1616 1 0.0 1001.8156724805831 548.7145545442163 547.3730350948083 # Ar
1617 1617 1 0.0 87.56105978386442 127.32827859784958 1033.4777005834678 # Ar
1618 1618 1 0.0 847.9247548764969 621.7116615923801 1014.661256174055 # Ar
1619 1619 1 0.0 962.41581774025 856.6629120504731 664.0483444678662 # Ar
1620 1620 1 0.0 400.2943779319881 152.58730212479279 933.2084514617926 # Ar
1621 1621 1 0.0 430.03679694684354 32.132437689703686 597.7412513735192 # Ar
1622 1622 1 0.0 556.3390769986855 996.0877009473054 715.0026068277926 # Ar
1623 1623 1 0.0 879.6473804470644 553.4272725344399 522.5022556584247 # Ar
1624 1624 1 0.0 1076.744357968185 21.34864810721589 362.2176920446651 # Ar
1625 1625 1 0.0 835.863857402012 10.047757362936776 1072.1623363470571 # Ar
1626 1626 1 0.0 331.5900508722712 81.63998273470627 367.70526980015757 # Ar
1627 1627 1 0.0 392.2027194110822 775.7300012054725 1081.7621008245928 # Ar
1628 1628 1 0.0 663.5300173508962 42.34819683425171 51.43260287483319 # Ar
1629 1629 1 0.0 318.6808993559837 86.22888931794618 300.07512102742345 # Ar
1630 1630 1 0.0 603.0114283148539 218.75765058767195 259.1335913728162 # Ar
1631 1631 1 0.0 290.9279559111354 514.9554535110619 515.7554979669329 # Ar
1632 1632 1 0.0 20.609703304911 5.0293377921115745 469.5949805975303 # Ar
1633 1633 1 0.0 1018.5853265281819 159.0232810252174 341.81812256196633 # Ar
1634 1634 1 0.0 193.64485429408342 487.8338000039001 376.46727133260924 # Ar
1635 1635 1 0.0 46.62989082617556 352.7391962918949 956.0302573957545 # Ar
1636 1636 1 0.0 857.434305152759 969.3013095688715 573.3269725920757 # Ar
1637 1637 1 0.0 554.6948834945325 167.73755598269662 185.5578793765548 # Ar
1638 1638 1 0.0 383.6226020995226 1103.9058759854863 720.9377604012965 # Ar
1639 1639 1 0.0 311.5979885781339 49.948025787790755 13.681887255578049 # Ar
1640 1640 1 0.0 338.9577919224004 979.6348360982504 300.898991209105 # Ar
1641 1641 1 0.0 192.1339941128331 571.0605005756531 604.1647300651533 # Ar
1642 1642 1 0.0 310.27059219043696 497.0698209239033 222.7216797730591 # Ar
1643 1643 1 0.0 25.701348776923584 586.4337829105089 867.7115697318137 # Ar
1644 1644 1 0.0 967.058438196209 254.955902822278 506.20440056721054 # Ar
1645 1645 1 0.0 35.48009719945807 1008.926489442815 488.4332474819424 # Ar
1646 1646 1 0.0 429.7706938920974 946.9185837968481 433.10159910698457 # Ar
1647 1647 1 0.0 805.8546843553545 399.221557990261 459.14939360976757 # Ar
1648 1648 1 0.0 1043.8258837442772 156.5527478303165 813.3719007072045 # Ar
1649 1649 1 0.0 1065.4339353084492 556.8628209625103 950.9547946164979 # Ar
1650 1650 1 0.0 86.1777400988171 258.9374774805338 246.39891214210624 # Ar
1651 1651 1 0.0 1082.8135111420142 339.4382936499998 154.15759525859173 # Ar
1652 1652 1 0.0 686.4878453341541 431.8709444607429 26.198989267989194 # Ar
1653 1653 1 0.0 1057.8608335467063 227.93801228496073 894.6831566739444 # Ar
1654 1654 1 0.0 750.8464839696375 254.79192201320862 624.0908167018067 # Ar
1655 1655 1 0.0 996.5022548508616 734.1904114376453 1044.268510420982 # Ar
1656 1656 1 0.0 198.20993410934008 621.2909271285665 819.1921860112748 # Ar
1657 1657 1 0.0 806.1135120253809 994.5788689292872 698.8772148412273 # Ar
1658 1658 1 0.0 939.7035735317287 538.293996202278 556.6162357826693 # Ar
1659 1659 1 0.0 875.4468502585657 172.3424376614418 794.514714513124 # Ar
1660 1660 1 0.0 842.3426951199875 832.2871408389564 92.43450906962181 # Ar
1661 1661 1 0.0 298.9059620606617 732.158267286305 943.3994533292504 # Ar
1662 1662 1 0.0 841.2961549419405 854.0823615847959 1022.2665697231607 # Ar
1663 1663 1 0.0 719.2463306950818 434.1206744852786 778.2988975148338 # Ar
1664 1664 1 0.0 966.41148255549 174.46159783673647 98.1183064243137 # Ar
1665 1665 1 0.0 390.27583559409646 1082.1072655795501 66.74126366763923 # Ar
1666 1666 1 0.0 281.6821784274745 549.9299885454203 117.72251644693273 # Ar
1667 1667 1 0.0 256.23749980659454 114.14739222633942 812.7988410831003 # Ar
1668 1668 1 0.0 357.99007639581987 908.6577385513671 708.4114819860341 # Ar
1669 1669 1 0.0 555.0657222623252 332.9763334134486 209.96209635917137 # Ar
1670 1670 1 0.0 13.34332673657579 59.5864385146314 565.3172768369292 # Ar
1671 1671 1 0.0 277.95375355123696 227.3851970801941 494.84817300113275 # Ar
1672 1672 1 0.0 862.1496623270145 212.56725092068652 754.5367719724211 # Ar
1673 1673 1 0.0 695.4413534996207 576.0763111026141 638.6738196135235 # Ar
1674 1674 1 0.0 160.29752950527086 136.59153695926832 86.8922941578469 # Ar
1675 1675 1 0.0 266.5230173030993 1023.6754076810242 1004.1817704515953 # Ar
1676 1676 1 0.0 870.8805428741668 425.89051018266935 44.76480080137101 # Ar
1677 1677 1 0.0 560.7659745405803 575.5331832955212 429.34169849242136 # Ar
1678 1678 1 0.0 555.3069757380989 396.3330268877609 947.7459415926761 # Ar
1679 1679 1 0.0 505.9173834738785 813.5749800252593 817.4444304942915 # Ar
1680 1680 1 0.0 129.94614450166864 841.6834779578387 52.40693230766261 # Ar
1681 1681 1 0.0 780.5726490957998 932.5631699892032 444.56479881178353 # Ar
1682 1682 1 0.0 763.2529771221906 1068.5353073753931 976.1130784701503 # Ar
1683 1683 1 0.0 51.91238368279355 887.326796780834 302.7054931589868 # Ar
1684 1684 1 0.0 293.31173937861155 463.4426610105729 823.6618227835534 # Ar
1685 1685 1 0.0 921.7567347428153 1055.479916779495 169.68913632914635 # Ar
1686 1686 1 0.0 510.29815177577206 757.6183671755314 456.6832093904251 # Ar
1687 1687 1 0.0 348.4125376623643 123.10896355523825 288.49085410888114 # Ar
1688 1688 1 0.0 725.6511515287897 676.299990729057 964.8796824769745 # Ar
1689 1689 1 0.0 433.06018686677237 514.711244844779 744.6988502988778 # Ar
1690 1690 1 0.0 412.3953806693079 980.2950514893167 791.5972856017061 # Ar
1691 1691 1 0.0 427.90926020456845 82.10014714631173 592.7594800895317 # Ar
1692 1692 1 0.0 590.3491359181661 217.30361000920269 290.9170256200094 # Ar
1693 1693 1 0.0 150.92393965625433 686.337191751171 774.22523346733 # Ar
1694 1694 1 0.0 1037.0114030050402 340.21944924639104 201.6000862253178 # Ar
1695 1695 1 0.0 551.5909266818804 715.0374755841614 26.00611481787902 # Ar
1696 1696 1 0.0 144.0613285091662 35.1699588684944 539.2483682851132 # Ar
1697 1697 1 0.0 63.14650638002149 401.6730485059592 999.2556789161201 # Ar
1698 1698 1 0.0 299.3752740292185 571.5300006475336 347.21060384379314 # Ar
1699 1699 1 0.0 172.59887137458858 609.5490341322673 4.972514722993358 # Ar
1700 1700 1 0.0 150.35166773092726 973.65853342998 574.5870283369223 # Ar
1701 1701 1 0.0 395.72003718223135 1080.9145075657177 240.11336509264453 # Ar
1702 1702 1 0.0 804.7534032650412 9.019257947575612 269.1230098716556 # Ar
1703 1703 1 0.0 660.0459908895614 763.8003838081246 651.4795584054933 # Ar
1704 1704 1 0.0 128.0993859965862 310.55993638174016 967.8586196348009 # Ar
1705 1705 1 0.0 379.34465917748025 650.4603047709716 659.5105847528904 # Ar
1706 1706 1 0.0 73.09406193648621 24.276752507631507 984.9083457397242 # Ar
1707 1707 1 0.0 690.4356002816078 904.1633109848599 62.851826290843654 # Ar
1708 1708 1 0.0 647.7283723049838 767.810759747182 442.5625584550013 # Ar
1709 1709 1 0.0 15.669717425213614 385.57960782052885 574.3441143602432 # Ar
1710 1710 1 0.0 706.130369484587 1014.488963702243 508.911908720404 # Ar
1711 1711 1 0.0 553.566328817806 945.3102971869179 233.39820107787864 # Ar
1712 1712 1 0.0 792.5094612416326 654.9882124835685 352.3066742146834 # Ar
1713 1713 1 0.0 664.5503730831074 1033.861953438404 857.7578354061619 # Ar
1714 1714 1 0.0 923.2355175756421 990.5298708408371 162.41579869522195 # Ar
1715 1715 1 0.0 646.70679608233 774.855531236287 433.85227410003796 # Ar
1716 1716 1 0.0 23.365131271921378 82.88331771566645 405.2790618833133 # Ar
1717 1717 1 0.0 227.8793886473177 1002.894566006185 104.38718419845013 # Ar
1718 1718 1 0.0 862.5271788980745 717.3435720096982 228.69980997664868 # Ar
1719 1719 1 0.0 475.08282176399894 198.3214010500567 321.00519196114544 # Ar
1720 1720 1 0.0 749.712368480395 1104.4669796137366 433.819780511105 # Ar
1721 1721 1 0.0 91.38130896141749 588.4629546905725 629.4582563527786 # Ar
1722 1722 1 0.0 712.6057215906515 39.57447930624149 278.81929304044587 # Ar
1723 1723 1 0.0 120.12531183127913 38.083815838798984 129.25568369718653 # Ar
1724 1724 1 0.0 599.5062628169952 673.0619029402473 481.90278353330774 # Ar
1725 1725 1 0.0 907.0628123553049 1087.1310857528654 597.9752403126175 # Ar
1726 1726 1 0.0 1045.111337243666 1023.0792418841118 32.490328977494144 # Ar
1727 1727 1 0.0 828.085193088247 39.07958302043077 9.187434169966348 # Ar
1728 1728 1 0.0 900.0331380761868 854.1285345652253 686.2818326199775 # Ar
1729 1729 1 0.0 526.202538877583 6.709147427989526 1031.3905838700118 # Ar
1730 1730 1 0.0 569.5745462102215 92.28934880623505 543.4961192947233 # Ar
1731 1731 1 0.0 863.6900637522025 422.95195375717896 219.75349450343182 # Ar
1732 1732 1 0.0 889.0528173408136 953.4894477450176 138.81110156781662 # Ar
1733 1733 1 0.0 996.0880607606845 715.0945012422144 578.7217424579098 # Ar
1734 1734 1 0.0 231.58345805142665 416.09471398506486 122.6935992878103 # Ar
1735 1735 1 0.0 35.12593165440102 1083.7696211210764 626.5976824584105 # Ar
1736 1736 1 0.0 1056.7881312336915 1056.455776930338 878.9660270198914 # Ar
1737 1737 1 0.0 1027.7888804511217 178.09210600565817 580.1299546019297 # Ar
1738 1738 1 0.0 139.7998245014937 582.4103852601479 378.83314318920765 # Ar
1739 1739 1 0.0 485.718535932164 90.04393453438011 195.01706503537326 # Ar
1740 1740 1 0.0 1071.295351404671 19.825088522896266 873.9956135195426 # Ar
1741 1741 1 0.0 249.09418968210232 471.13125875090765 136.2608160488518 # Ar
1742 1742 1 0.0 217.90190922883573 158.17487517306705 758.8558254084465 # Ar
1743 1743 1 0.0 484.06549149767835 532.0659728159516 144.8749584444854 # Ar
1744 1744 1 0.0 467.50834151763894 740.3075375486211 578.2859530593457 # Ar
1745 1745 1 0.0 419.80926998256734 709.5448848026014 453.4938278973768 # Ar
1746 1746 1 0.0 829.5848870875204 1078.4019446738635 883.7180420517749 # Ar
1747 1747 1 0.0 26.476433965991692 876.9364536155819 461.61113016811737 # Ar
1748 1748 1 0.0 63.80646989824946 580.9949777090568 641.1216566895625 # Ar
1749 1749 1 0.0 1009.1830984816203 338.28600269506285 263.4090383201821 # Ar
1750 1750 1 0.0 534.2917852022404 850.8083524871744 273.61496598563144 # Ar
1751 1751 1 0.0 289.77996306397125 734.1531003108424 592.1241114016043 # Ar
1752 1752 1 0.0 55.229613150995995 454.2949490470921 531.0475375056685 # Ar
1753 1753 1 0.0 91.82112829207912 1082.0906926553077 1065.368522050204 # Ar
1754 1754 1 0.0 539.5086508469805 142.4678819152084 909.5922544018033 # Ar
1755 1755 1 0.0 707.5072370118216 184.73147439707893 838.5635380584017 # Ar
1756 1756 1 0.0 867.0918210222492 478.3303400339978 893.5383502601651 # Ar
1757 1757 1 0.0 806.9584458733526 269.332130217517 1073.0723523865452 # Ar
1758 1758 1 0.0 656.3243027009772 864.8585449678825 197.99988628612215 # Ar
1759 1759 1 0.0 836.9472251897571 1028.96870775858 850.993727174149 # Ar
1760 1760 1 0.0 580.7830345519034 1092.7503837188046 243.42713134345036 # Ar
1761 1761 1 0.0 803.5487629634763 760.52099713524 943.8283902988077 # Ar
1762 1762 1 0.0 741.4332909600215 727.3666767048485 1065.4409428454555 # Ar
1763 1763 1 0.0 281.3102612808275 281.491606481546 469.8546192469766 # Ar
1764 1764 1 0.0 459.15311063396143 267.7797774982188 819.9593385560834 # Ar
1765 1765 1 0.0 102.83234987975052 668.2005903739295 1077.9081415467458 # Ar
1766 1766 1 0.0 52.31235307808291 538.1195559664549 925.7612937615646 # Ar
1767 1767 1 0.0 61.60096624507419 896.7695000643673 458.0026613329351 # Ar
1768 1768 1 0.0 639.6113279809183 80.6939618991508 1.555199463281648 # Ar
1769 1769 1 0.0 86.52327485371136 229.08190622857515 386.1154151113634 # Ar
1770 1770 1 0.0 907.0007454085002 162.78393908053883 119.76165161276542 # Ar
1771 1771 1 0.0 187.91654180728892 192.14044766196423 173.88793816912835 # Ar
1772 1772 1 0.0 773.3610803101536 1102.8802968323869 644.6472541670446 # Ar
1773 1773 1 0.0 853.9212303768666 497.61108114314663 315.48460091280873 # Ar
1774 1774 1 0.0 260.3582465604938 84.63315611139862 646.1671729701321 # Ar
1775 1775 1 0.0 774.0152025435497 653.8815301396756 519.4145686045699 # Ar
1776 1776 1 0.0 10.132875576897705 364.7977999807439 562.3224121321321 # Ar
1777 1777 1 0.0 3.519286961349257 1034.6132476075077 847.6742530437971 # Ar
1778 1778 1 0.0 483.59622202923435 483.16334446243013 1087.766509947474 # Ar
1779 1779 1 0.0 819.3079598433715 404.7353146122389 434.3654451972414 # Ar
1780 1780 1 0.0 40.19569384939928 965.1596738409206 338.9490870120726 # Ar
1781 1781 1 0.0 956.5646239992424 345.37429124216857 186.11351262791229 # Ar
1782 1782 1 0.0 375.97336895567844 523.8762687186688 862.316748903315 # Ar
1783 1783 1 0.0 642.4972850017319 967.4597109630856 1075.2367912126808 # Ar
1784 1784 1 0.0 49.98069978924305 348.6166728016378 205.17404429464113 # Ar
1785 1785 1 0.0 1056.6394826284695 866.8395835920655 908.8014807797135 # Ar
1786 1786 1 0.0 18.163847485093186 7.762626034074186 1047.7971339404014 # Ar
1787 1787 1 0.0 686.7093004506152 5.605094107585043 537.399298873953 # Ar
1788 1788 1 0.0 809.6013371070272 943.5399512673846 279.34946505404196 # Ar
1789 1789 1 0.0 357.43964665079415 385.35296431950036 161.38394286593729 # Ar
1790 1790 1 0.0 988.2536781520826 233.45157542839422 916.5655948766283 # Ar
1791 1791 1 0.0 435.59802416829814 547.8471704719796 571.2539714352989 # Ar
1792 1792 1 0.0 62.35393395450603 661.1388552318425 731.9746709128926 # Ar
1793 1793 1 0.0 577.1437563315351 746.6122104831596 845.3802024119614 # Ar
1794 1794 1 0.0 794.153230238733 688.2677711320639 783.9947680784175 # Ar
1795 1795 1 0.0 564.7550372226256 660.2607413452052 972.2124571672167 # Ar
1796 1796 1 0.0 721.2688825638862 695.7527929182819 4.735673492672592 # Ar
1797 1797 1 0.0 498.0920112465816 843.837399112308 691.4093684212454 # Ar
1798 1798 1 0.0 663.7490842691641 309.41724006548753 1072.0548948320886 # Ar
1799 1799 1 0.0 53.99670547731632 1073.988558057037 571.9214503532135 # Ar
1800 1800 1 0.0 1072.1145908462474 822.5757639814872 118.06012028981608 # Ar
1801 1801 1 0.0 793.5446141242194 486.5197081983105 71.79700126510288 # Ar
1802 1802 1 0.0 562.479753826825 100.44795167908451 79.10621476707873 # Ar
1803 1803 1 0.0 643.3150681992793 714.4310064583109 33.54211572727222 # Ar
1804 1804 1 0.0 286.8572587903043 81.01530596078561 1040.1170827924768 # Ar
1805 1805 1 0.0 899.749362501497 73.79972180933787 934.2850125459092 # Ar
1806 1806 1 0.0 1086.237532316851 325.3206887677738 75.31346563017586 # Ar
1807 1807 1 0.0 282.8411427993527 1094.3259715749318 681.4742298836212 # Ar
1808 1808 1 0.0 783.23915081443 662.9398640949354 555.9707734456061 # Ar
1809 1809 1 0.0 314.9113891415015 561.0387874163797 1051.917876220793 # Ar
1810 1810 1 0.0 84.83306170715991 742.3712532309627 6.9651582787999455 # Ar
1811 1811 1 0.0 293.54405562040023 402.65240965535486 901.3837346306251 # Ar
1812 1812 1 0.0 79.77316875294925 943.153655023783 944.9512264152521 # Ar
1813 1813 1 0.0 1065.3907119989256 83.73763431945574 972.6443481019388 # Ar
1814 1814 1 0.0 644.2400502468453 198.57858085817657 894.4161964809468 # Ar
1815 1815 1 0.0 237.54129196774232 278.7610165766527 939.8228223431256 # Ar
1816 1816 1 0.0 170.0422528608602 1083.8096157780008 706.4382186875913 # Ar
1817 1817 1 0.0 777.7372929141562 988.1534785362572 944.9381384027945 # Ar
1818 1818 1 0.0 145.73699298047106 925.8700430344254 177.2726737940501 # Ar
1819 1819 1 0.0 908.6276319986132 1050.1328413730762 351.18731613653165 # Ar
1820 1820 1 0.0 761.1434873223939 633.4969172135679 958.9035356076962 # Ar
1821 1821 1 0.0 241.58021066663449 892.8569654489359 300.0909894992737 # Ar
1822 1822 1 0.0 737.5970880861906 279.9635704140046 445.1609994335703 # Ar
1823 1823 1 0.0 110.17417046460807 862.4857866669822 509.275121260959 # Ar
1824 1824 1 0.0 856.1467997970142 991.0836617401791 154.16829191658317 # Ar
1825 1825 1 0.0 75.38063571767596 161.18701807564537 720.8057750129203 # Ar
1826 1826 1 0.0 702.0947879315064 374.8082493601213 170.77650620388636 # Ar
1827 1827 1 0.0 586.5415952450211 190.83696495157596 291.1544762645236 # Ar
1828 1828 1 0.0 396.7487915213209 1063.4515725114654 376.2254747310627 # Ar
1829 1829 1 0.0 808.4713443905802 961.9009944191185 431.9784393410856 # Ar
1830 1830 1 0.0 676.7725461157075 333.4819445470458 843.1758077306523 # Ar
1831 1831 1 0.0 892.9234233479808 24.24136308743664 554.0440924171094 # Ar
1832 1832 1 0.0 253.19036306589163 270.58472271464257 613.8132711057733 # Ar
1833 1833 1 0.0 699.9527496155825 498.3616497653017 658.5569534433477 # Ar
1834 1834 1 0.0 260.601247759239 1088.5358247086285 515.4132898162578 # Ar
1835 1835 1 0.0 977.5693411459936 379.88036594876775 737.3206222673452 # Ar
1836 1836 1 0.0 798.4167564447355 205.58547675657704 374.5767967277837 # Ar
1837 1837 1 0.0 940.2795577250068 228.4398222200284 174.6247863967861 # Ar
1838 1838 1 0.0 494.9328235869721 797.9370517412932 817.6006772619336 # Ar
1839 1839 1 0.0 124.01912139271703 713.7917999732335 347.4804839644285 # Ar
1840 1840 1 0.0 168.91214182588956 128.48753107588684 1057.4721047961266 # Ar
1841 1841 1 0.0 418.52260669582074 521.3723174494303 848.0428643759358 # Ar
1842 1842 1 0.0 409.72245609238684 890.8394937623204 437.49523213566926 # Ar
1843 1843 1 0.0 108.67449519319517 186.83950923524392 627.9257432706919 # Ar
1844 1844 1 0.0 940.7784203233344 176.48520732702485 145.3487142780961 # Ar
1845 1845 1 0.0 928.1532895849446 552.09385472836 192.71255610707456 # Ar
1846 1846 1 0.0 1035.3186642327012 701.0723192690232 151.86268250579445 # Ar
1847 1847 1 0.0 711.9994028685725 121.35623372757286 291.03812836781935 # Ar
1848 1848 1 0.0 759.9011806381325 209.79457476400628 955.1311735839771 # Ar
1849 1849 1 0.0 437.02240968163886 51.83440776954342 207.1981020382918 # Ar
1850 1850 1 0.0 533.2936203012133 463.2400144914655 705.1655742803864 # Ar
1851 1851 1 0.0 824.5985050941298 845.0014884576748 998.5514934037063 # Ar
1852 1852 1 0.0 1091.2763418510633 773.6229911605928 406.5878052126952 # Ar
1853 1853 1 0.0 194.63436614750364 567.3459038232097 703.2476493042545 # Ar
1854 1854 1 0.0 420.75429956413285 561.6190136041712 51.55455284352664 # Ar
1855 1855 1 0.0 441.74286093022687 843.8113411493188 138.8386489989473 # Ar
1856 1856 1 0.0 1049.9447034455227 1001.6418404872775 674.3940818515972 # Ar
1857 1857 1 0.0 1032.4921249955971 411.75945033447783 853.0187392097052 # Ar
1858 1858 1 0.0 1086.470348368541 424.0069626939091 609.9097704674758 # Ar
1859 1859 1 0.0 654.3234375045862 771.5217409719571 214.9034657587639 # Ar
1860 1860 1 0.0 343.9805016477238 371.6211035335991 611.5002387841357 # Ar
1861 1861 1 0.0 463.12750427337977 653.2648656236727 155.0350381746791 # Ar
1862 1862 1 0.0 1092.0141482671108 108.5326732439768 294.3853267513029 # Ar
1863 1863 1 0.0 1089.2729388987245 11.141957525760297 108.86861811977643 # Ar
1864 1864 1 0.0 411.98708742203576 746.1323827774582 586.2034738041882 # Ar
1865 1865 1 0.0 668.230186770192 553.3261137682375 547.5164447766417 # Ar
1866 1866 1 0.0 909.9322003143236 861.8721514948771 181.9518599819749 # Ar
1867 1867 1 0.0 120.65334657516617 906.5803021925743 217.92920497472804 # Ar
1868 1868 1 0.0 620.4099413835714 390.35867602996547 603.9379957023166 # Ar
1869 1869 1 0.0 2.8083485499108494 625.5906406095881 7.085310346376878 # Ar
1870 1870 1 0.0 722.48558526285 778.380318881504 282.85976987883623 # Ar
1871 1871 1 0.0 642.85987452213 107.04404161679277 432.07510854700854 # Ar
1872 1872 1 0.0 1108.2861042893767 529.986356890494 371.0225225314916 # Ar
1873 1873 1 0.0 866.4646464521419 15.464746109320217 32.94074822405738 # Ar
1874 1874 1 0.0 151.74103333944683 99.10028570534868 394.74392589842074 # Ar
1875 1875 1 0.0 1076.3871926523113 425.5263469062461 300.3916899942469 # Ar
1876 1876 1 0.0 674.2989003306725 792.7714033833273 677.9677528542213 # Ar
1877 1877 1 0.0 280.82640080967434 289.7584713989781 460.4983907142002 # Ar
1878 1878 1 0.0 811.6062870374323 627.565544766 62.62345890319493 # Ar
1879 1879 1 0.0 252.1887163483791 616.8416236461571 474.2838666926317 # Ar
1880 1880 1 0.0 635.7660634962065 882.3771628989236 31.040324705078405 # Ar
1881 1881 1 0.0 794.9370161266187 266.42948127846256 753.7592025610926 # Ar
1882 1882 1 0.0 295.0827288164502 265.72240122305067 509.239062270785 # Ar
1883 1883 1 0.0 688.2232993494246 172.96681683699765 198.74317311908783 # Ar
1884 1884 1 0.0 993.825153714202 48.56019205949488 386.88133216102005 # Ar
1885 1885 1 0.0 526.6620594073848 474.8197496031469 736.3130988676045 # Ar
1886 1886 1 0.0 1039.6799632748832 1023.2966333461052 768.4436546298015 # Ar
1887 1887 1 0.0 312.50308289772823 716.587139521859 804.8786786079293 # Ar
1888 1888 1 0.0 717.087610463622 69.87210893186418 292.229326415385 # Ar
1889 1889 1 0.0 356.0346647287831 873.5259952492052 276.78318985553 # Ar
1890 1890 1 0.0 367.93736492418674 961.87429928127 272.8812531114349 # Ar
1891 1891 1 0.0 134.84251611165308 631.4864979096501 1083.112454284371 # Ar
1892 1892 1 0.0 27.869820100938313 897.0855405632882 766.8564723428597 # Ar
1893 1893 1 0.0 304.09178486620453 398.0323919444657 444.83304716810716 # Ar
1894 1894 1 0.0 1050.5201846410541 581.1084160881309 969.1709468275177 # Ar
1895 1895 1 0.0 1031.2590577582805 743.3256398744473 461.59810247453134 # Ar
1896 1896 1 0.0 865.1447597158228 1021.1240052323068 909.276090907782 # Ar
1897 1897 1 0.0 395.5812109420992 462.38715233579904 468.7503605175387 # Ar
1898 1898 1 0.0 876.566944622801 236.9810894735723 1026.4810520061515 # Ar
1899 1899 1 0.0 243.96290032893856 797.3885496801918 1075.8850011115157 # Ar
1900 1900 1 0.0 447.9406964980615 570.9422005351284 642.3143125464466 # Ar
1901 1901 1 0.0 37.44261842348923 651.3167478444965 1018.5948880194361 # Ar
1902 1902 1 0.0 407.91951705302364 970.5915798082741 139.297478055862 # Ar
1903 1903 1 0.0 199.99657770147726 937.6731805470806 1102.7912292134265 # Ar
1904 1904 1 0.0 1047.9095355798124 784.7334741428418 196.30326402000034 # Ar
1905 1905 1 0.0 794.9218962132305 205.7430063325811 580.5941737513791 # Ar
1906 1906 1 0.0 1101.7864140714253 771.2295677882576 356.0312064601918 # Ar
1907 1907 1 0.0 534.8539973090034 1058.6561892561208 1066.2449034875522 # Ar
1908 1908 1 0.0 147.7676238746287 522.8895585211893 827.5136933708408 # Ar
1909 1909 1 0.0 274.38861700245377 407.3021287782435 579.4263166159186 # Ar
1910 1910 1 0.0 645.502179630785 569.9949533077627 1106.1273776082453 # Ar
1911 1911 1 0.0 479.40488023148055 1073.829381136785 87.78525486215361 # Ar
1912 1912 1 0.0 1056.8341835148296 897.0943322290403 213.97664700103593 # Ar
1913 1913 1 0.0 690.0754139874318 1062.6431467726713 986.9477809691864 # Ar
1914 1914 1 0.0 882.9335714483393 275.943383111486 889.5964702097899 # Ar
1915 1915 1 0.0 987.7430457088572 432.9155506478561 617.4501217993502 # Ar
1916 1916 1 0.0 960.6350573547363 656.5219997646204 1019.7043534444583 # Ar
1917 1917 1 0.0 904.0122097098518 1087.0068740338836 303.5249805349306 # Ar
1918 1918 1 0.0 365.2498590091243 490.74732737555473 48.38110609815584 # Ar
1919 1919 1 0.0 714.8320157379825 355.2447304042929 553.8727917783767 # Ar
1920 1920 1 0.0 695.8982140168256 974.1754628905744 68.46552372204168 # Ar
1921 1921 1 0.0 577.3594024040297 467.2658550957476 999.0152351565705 # Ar
1922 1922 1 0.0 458.6846954065931 202.35005705806844 792.0384546661235 # Ar
1923 1923 1 0.0 878.4341296933824 790.9517447259808 129.11739814262745 # Ar
1924 1924 1 0.0 733.0622854630468 960.4609551632188 413.1858237314874 # Ar
1925 1925 1 0.0 1003.5139881727873 500.9451530642213 869.0169657023198 # Ar
1926 1926 1 0.0 1083.9198296728011 547.1806300321687 772.1280745643102 # Ar
1927 1927 1 0.0 281.10260822274375 461.33161971579176 304.1713764819821 # Ar
1928 1928 1 0.0 790.6808344277632 65.79034657630325 327.41081520942146 # Ar
1929 1929 1 0.0 725.9671617185521 214.93345256850293 810.5546119830807 # Ar
1930 1930 1 0.0 200.66143098268037 84.76904780454858 876.3105894188587 # Ar
1931 1931 1 0.0 292.07239594352296 871.8609393678136 838.8365969453944 # Ar
1932 1932 1 0.0 983.7754081556395 117.62558808031415 213.6416503944256 # Ar
1933 1933 1 0.0 362.4791804641701 1102.8686196240772 496.6396048484835 # Ar
1934 1934 1 0.0 569.9979460779549 955.9377884014513 1038.2133915980246 # Ar
1935 1935 1 0.0 159.24521124428634 646.7774295132053 953.3521796937167 # Ar
1936 1936 1 0.0 572.6001350080745 925.2139162809762 14.517515942297191 # Ar
1937 1937 1 0.0 254.99236670359562 641.3368946604035 875.5825656432553 # Ar
1938 1938 1 0.0 55.907574469120405 829.0444340352692 698.706739529803 # Ar
1939 1939 1 0.0 789.4493542346795 232.35303893381388 896.4932898590013 # Ar
1940 1940 1 0.0 255.06511623927685 369.3607810518466 97.12685317340403 # Ar
1941 1941 1 0.0 1088.3485718814884 840.5258067889198 267.24638701018387 # Ar
1942 1942 1 0.0 534.3510672208969 135.5871799923721 973.4715879994942 # Ar
1943 1943 1 0.0 414.5375907523214 22.46710082197038 602.9723402185466 # Ar
1944 1944 1 0.0 856.5725395830789 358.93828215025184 255.5479289097718 # Ar
1945 1945 1 0.0 699.9703763840376 616.5631681651789 948.7730277136029 # Ar
1946 1946 1 0.0 933.5598070316788 204.210640922786 829.7427151661035 # Ar
1947 1947 1 0.0 262.31812552652605 963.1128870529354 811.7671980221791 # Ar
1948 1948 1 0.0 400.06733635863066 825.2952282749934 1080.1423346956803 # Ar
1949 1949 1 0.0 422.47468648017156 329.28269465570963 158.49574408754344 # Ar
1950 1950 1 0.0 370.6968619016105 689.6203317003096 695.1074148196392 # Ar
1951 1951 1 0.0 621.5270592614041 485.2301884276617 818.696892833817 # Ar
1952 1952 1 0.0 994.705400125784 206.48982990880378 803.0627519168511 # Ar
1953 1953 1 0.0 541.5722772361918 869.0466955990372 455.16463710394817 # Ar
1954 1954 1 0.0 1043.4368122607762 159.28793167666333 780.285115841777 # Ar
1955 1955 1 0.0 169.46454199129772 1007.2185011043125 958.4742110114065 # Ar
1956 1956 1 0.0 578.0562960541743 424.4788933106178 1086.6156452749526 # Ar
1957 1957 1 0.0 761.1143570620601 332.6943686364519 513.123015116302 # Ar
1958 1958 1 0.0 269.5522188002742 54.09648965390462 379.74630131337454 # Ar
1959 1959 1 0.0 66.965969389986 955.1034009919822 923.8193265846165 # Ar
1960 1960 1 0.0 359.90183430454744 357.1819478520733 414.06100658874453 # Ar
1961 1961 1 0.0 852.7216481965521 1013.2648270836881 75.97012870937257 # Ar
1962 1962 1 0.0 1050.2597384157627 895.0304781314497 454.5394450201551 # Ar
1963 1963 1 0.0 371.4318601200987 855.5424133468258 950.1238407580364 # Ar
1964 1964 1 0.0 642.381561518923 620.9104137063156 770.0311650354136 # Ar
1965 1965 1 0.0 753.177398987962 294.12971612209583 147.63947135801874 # Ar
1966 1966 1 0.0 113.07722395114347 470.16065529336083 616.1499692329467 # Ar
1967 1967 1 0.0 970.2028509928028 91.09050121099585 493.189157842726 # Ar
1968 1968 1 0.0 615.4557995147409 170.16315991478226 365.6541815498489 # Ar
1969 1969 1 0.0 939.1677392140199 765.9494588183546 239.33210643954175 # Ar
1970 1970 1 0.0 912.584575292576 1023.3998302649853 772.2137079611707 # Ar
1971 1971 1 0.0 786.8520837783738 1071.1370876028027 198.2607854178984 # Ar
1972 1972 1 0.0 1031.1702725211057 894.7756283488745 768.9067045089814 # Ar
1973 1973 1 0.0 1106.5322014790904 1090.9801460228823 542.4182199544721 # Ar
1974 1974 1 0.0 119.06907456212952 302.3327386771218 410.17161978585915 # Ar
1975 1975 1 0.0 958.9172582608326 841.8152751912368 511.2334951958914 # Ar
1976 1976 1 0.0 195.1283289042965 120.7806579144863 1076.7523160286876 # Ar
1977 1977 1 0.0 818.0625408939611 146.78509959840903 698.9493566615548 # Ar
1978 1978 1 0.0 1021.8978694558789 649.2305915327573 349.84414110137163 # Ar
1979 1979 1 0.0 659.2837428159787 782.3138606629193 886.591742987026 # Ar
1980 1980 1 0.0 148.42567454689961 520.7084178330823 137.47321881191738 # Ar
1981 1981 1 0.0 730.0043113636361 670.9516275669906 616.387138042436 # Ar
1982 1982 1 0.0 1083.9633214751445 344.5213610123501 8.813429991859167 # Ar
1983 1983 1 0.0 376.6575342740023 1039.1917694607614 109.36190573403525 # Ar
1984 1984 1 0.0 533.5453192972436 558.7915590301762 145.7303840415018 # Ar
1985 1985 1 0.0 801.6770943690319 702.8544919637226 168.732654637374 # Ar
1986 1986 1 0.0 224.29331615773108 32.189845376557294 971.9680949582604 # Ar
1987 1987 1 0.0 518.9788912162304 525.293649975726 660.7701947970752 # Ar
1988 1988 1 0.0 460.86171553821754 1012.8146226017627 293.10055644385073 # Ar
1989 1989 1 0.0 779.0526610474064 288.8833772260393 496.2037661486065 # Ar
1990 1990 1 0.0 733.6165643362884 46.76235299196111 275.7003719303941 # Ar
1991 1991 1 0.0 547.4217740997175 242.30045474429807 217.258839165842 # Ar
1992 1992 1 0.0 827.8852675026418 428.13608254989197 321.8690216297593 # Ar
1993 1993 1 0.0 924.39789259483 435.6342863828451 170.25127940928405 # Ar
1994 1994 1 0.0 469.9964026359645 726.0211501681655 698.1030803552653 # Ar
1995 1995 1 0.0 43.70332683831149 614.7806335266098 463.2143134464321 # Ar
1996 1996 1 0.0 944.7659210189603 218.61221192623833 342.7948087914813 # Ar
1997 1997 1 0.0 562.9139929654079 668.1145115590972 157.06949461861424 # Ar
1998 1998 1 0.0 713.2056814505443 929.4665825826454 676.1734385594528 # Ar
1999 1999 1 0.0 906.0849428581914 30.439089959998334 992.0045045424581 # Ar
2000 2000 1 0.0 264.89223515203366 1083.5607340284366 36.82663896665853 # Ar
