LAMMPS data file -- atom_style full -- generated by chemfiles
2000 atoms
0 bonds
0 angles
0 dihedrals
0 impropers
1 atom types
0 bond types
0 angle types
0 dihedral types
0 improper types
0.00000000 1240.21859 xlo xhi
0.00000000 1240.21859 ylo yhi
0.00000000 1240.21859 zlo zhi

# Pair Coeffs
# 1 Ar

Masses

1 39.948 # Ar

Atoms # full

1 1 1 0.0 1055.896961861659 349.5190558607013 378.0510266523084 # Ar
2 2 1 0.0 709.9663391610436 599.7057257374362 205.34064782743664 # Ar
3 3 1 0.0 232.9803684494461 413.57836130594086 792.7579641123538 # Ar
4 4 1 0.0 335.77678930499064 7.161605744292391 90.72238944760252 # Ar
5 5 1 0.0 241.76900939508212 67.5964258195376 335.68405953670737 # Ar
6 6 1 0.0 688.6236279003042 7.082553102391327 999.4009497211663 # Ar
7 7 1 0.0 1231.1205296701876 597.2282714598775 671.1366298479879 # Ar
8 8 1 0.0 713.253857225731 143.30254928262283 696.0450137868461 # Ar
9 9 1 0.0 755.4400301056869 947.6331082819396 1000.6147043597092 # Ar
10 10 1 0.0 239.78355666021167 844.5180643462736 760.5494859762015 # Ar
11 11 1 0.0 873.9297375875453 47.33308390172126 416.0773917221805 # Ar
12 12 1 0.0 368.1830140408435 325.4624139026598 191.90143633750785 # Ar
13 13 1 0.0 1187.898994625466 1167.4499085626862 781.3689419778162 # Ar
14 14 1 0.0 589.0979613775135 399.53463699383195 825.135980578028 # Ar
15 15 1 0.0 1129.1069352745283 948.1362298219783 56.249616507261464 # Ar
16 16 1 0.0 1028.2078752334241 640.6574378656402 287.8785285837773 # Ar
17 17 1 0.0 79.21447044541229 1079.1179253427294 1108.6441324542361 # Ar
18 18 1 0.0 812.7026442803445 462.1796522951611 299.8086530343292 # Ar
19 19 1 0.0 31.568203314283316 1153.111311013183 839.3988388781862 # Ar
20 20 1 0.0 766.936910010627 443.3505730985656 1.6567116434881521 # Ar
21 21 1 0.0 877.4705608728322 673.2484369060089 141.91418276674557 # Ar
22 22 1 0.0 1062.1001350021447 529.4975240743073 923.9367632579201 # Ar
23 23 1 0.0 981.277851847846 792.6229171926287 635.6134120020965 # Ar
24 24 1 0.0 652.8584783318349 435.59894625367326 1123.8662524817328 # Ar
25 25 1 0.0 390.46953588942847 753.0110666190171 162.06204892100786 # Ar
26 26 1 0.0 1162.4888073571458 56.9155724219903 252.73770412472365 # Ar
27 27 1 0.0 187.61510891888392 402.790015048311 900.5037367934733 # Ar
28 28 1 0.0 1105.0294840771935 1153.6686021900975 1197.1887770171859 # Ar
29 29 1 0.0 209.75708463150661 1199.854711307143 635.4170418638603 # Ar
30 30 1 0.0 838.9542559312479 1021.2782115838033 918.8078064818104 # Ar
31 31 1 0.0 533.8807896463028 974.8249976578725 210.21620020612386 # Ar
32 32 1 0.0 328.6449310411942 200.7318861677342 197.28093486068994 # Ar
33 33 1 0.0 848.7378099663385 105.0730123975955 1117.5785224041933 # Ar
34 34 1 0.0 451.27647320614886 967.9609713432654 447.17381981549175 # Ar
35 35 1 0.0 122.56766478552024 410.23949970149715 305.64260779770063 # Ar
36 36 1 0.0 1022.3189326070395 58.406627724599204 102.14581073709 # Ar
37 37 1 0.0 322.6165102288241 286.8934604488019 603.8852381054594 # Ar
38 38 1 0.0 136.20089906355932 348.1262397221135 523.6488799286956 # Ar
39 39 1 0.0 150.64693446719764 1011.8474285863183 327.3037928110645 # Ar
40 40 1 0.0 1079.933580734239 184.97929911616004 541.9506952667134 # Ar
41 41 1 0.0 1230.8843293620166 357.87576600969146 577.1938285623835 # Ar
42 42 1 0.0 1040.5435085129225 1202.2500071995607 1112.844501771305 # Ar
43 43 1 0.0 146.53213384531605 841.9350138776848 1060.407558167076 # Ar
44 44 1 0.0 61.442469533952014 589.0445837957523 506.38252879889393 # Ar
45 45 1 0.0 332.5739022484897 761.8181437467025 26.431886163623332 # Ar
46 46 1 0.0 766.0477153579315 953.4265748613332 414.7782589786208 # Ar
47 47 1 0.0 1055.1001241185388 774.6110890837276 407.18825206136273 # Ar
48 48 1 0.0 1171.6065044894917 472.29678455640675 20.056977252906417 # Ar
49 49 1 0.0 752.6502040701339 608.473277545823 236.78073713479657 # Ar
50 50 1 0.0 441.66070710138257 617.764258187646 508.1062457540154 # Ar
51 51 1 0.0 1022.0818490203737 1102.1493028659588 847.6472876034466 # Ar
52 52 1 0.0 153.19882969229417 748.7006115806178 713.8131413009017 # Ar
53 53 1 0.0 319.2736758006505 767.2712770987066 1199.819393834489 # Ar
54 54 1 0.0 867.7181659873253 1065.5783026526194 473.3623345075621 # Ar
55 55 1 0.0 572.3342813924501 192.85109110714635 12.193095313528342 # Ar
56 56 1 0.0 757.6733102084567 1172.8333702808523 436.82925592203947 # Ar
57 57 1 0.0 142.6503379426863 1075.5434612184083 1034.6232899893464 # Ar
58 58 1 0.0 107.30567511287221 626.2365543521572 677.1088885959185 # Ar
59 59 1 0.0 213.53068109484533 486.59106644501554 536.1891882292316 # Ar
60 60 1 0.0 1055.186679233861 234.5039314075515 1194.4351933351809 # Ar
61 61 1 0.0 862.5455708878665 267.86297313063653 635.8091648950518 # Ar
62 62 1 0.0 353.34625008863827 235.17748347253058 680.8688996798073 # Ar
63 63 1 0.0 1142.536003892325 799.4369015984096 103.73880010630045 # Ar
64 64 1 0.0 533.8005154701402 1040.261193309194 521.0741256113554 # Ar
65 65 1 0.0 637.6533588917234 233.78479912939116 578.0927374701382 # Ar
66 66 1 0.0 538.0707073113958 969.2360152750422 271.41152193432123 # Ar
67 67 1 0.0 571.794888588877 13.559893881429986 430.6141310310508 # Ar
68 68 1 0.0 1048.1173549229359 1236.4968458124972 477.24983404955356 # Ar
69 69 1 0.0 238.1174820352764 705.1855899866292 305.1661214290539 # Ar
70 70 1 0.0 21.692563160654696 833.3274276305218 928.0484994570706 # Ar
71 71 1 0.0 844.7831411261418 196.08695106281644 469.7215016070776 # Ar
72 72 1 0.0 500.0451659490815 966.7664414608056 52.79500801620129 # Ar
73 73 1 0.0 891.7165173519154 576.1187467226349 1110.6909374249317 # Ar
74 74 1 0.0 102.04582060543022 540.6587073199919 326.819919180163 # Ar
75 75 1 0.0 1085.719252092526 91.33604366655143 201.1089482946904 # Ar
76 76 1 0.0 871.6242337957885 909.254624557103 705.8941893887085 # Ar
77 77 1 0.0 397.2955142036018 1240.062280117912 394.0406726574034 # Ar
78 78 1 0.0 767.7838409717668 145.41291237562461 1116.4329701825343 # Ar
79 79 1 0.0 669.0606175675905 1039.858032285926 278.4801492070762 # Ar
80 80 1 0.0 819.6812258271212 287.34367269466725 1119.6035799767549 # Ar
81 81 1 0.0 1094.4165008116067 233.93702669071703 701.4988526452719 # Ar
82 82 1 0.0 332.8505284019929 119.69810625476185 1189.6613350048906 # Ar
83 83 1 0.0 1164.8918006795989 1140.2760401942792 1083.0792188451342 # Ar
84 84 1 0.0 46.1117868613395 822.2494803846448 769.063388326373 # Ar
85 85 1 0.0 162.58511903385843 469.7845261869561 977.440670951009 # Ar
86 86 1 0.0 19.892089474082713 998.6202317551251 1081.1633088987228 # Ar
87 87 1 0.0 363.8086212322639 774.3136396485727 1170.779452131013 # Ar
88 88 1 0.0 340.0708611952574 801.8858611562404 87.9959030578023 # Ar
89 89 1 0.0 59.018381106404604 98.35182388394767 1181.9465404028301 # Ar
90 90 1 0.0 532.9304937672953 1156.4431729460398 340.1449860276316 # Ar
91 91 1 0.0 366.6593876143997 284.9590880776778 1194.5423963347948 # Ar
92 92 1 0.0 309.0650402881313 255.77946198446952 862.5220095866968 # Ar
93 93 1 0.0 862.183670062151 1104.376314225216 1180.7841071716223 # Ar
94 94 1 0.0 367.3541389792171 168.247177071344 740.3481674176743 # Ar
95 95 1 0.0 1134.910060457106 786.2347963538493 1066.6280780875088 # Ar
96 96 1 0.0 321.5350361868482 718.2882081417284 660.3415910758548 # Ar
97 97 1 0.0 515.9540573144791 487.41452317075033 44.16354014739204 # Ar
98 98 1 0.0 211.97955602022677 133.1456752622229 18.05765084743271 # Ar
99 99 1 0.0 399.05454498702085 1191.908335764761 155.91481712753625 # Ar
100 100 1 0.0 1051.6671644640348 335.75864568474503 1115.044289995781 # Ar
101 101 1 0.0 457.73569783182256 758.5920786867283 64.26361613225815 # Ar
102 102 1 0.0 109.6236864926856 541.9136288418341 281.57741226885076 # Ar
103 103 1 0.0 1173.7582178725036 245.1724830383331 243.48574361356248 # Ar
104 104 1 0.0 931.0168417995768 106.37667293468081 543.0800054242949 # Ar
105 105 1 0.0 1080.6543783751447 301.95823485090193 415.4925562543669 # Ar
106 106 1 0.0 303.66940250064863 199.2271469258263 1062.2896094430255 # Ar
107 107 1 0.0 147.45218414132646 780.3018745353385 474.07742916877993 # Ar
108 108 1 0.0 971.4140138540866 724.8153399217592 793.6199840843299 # Ar
109 109 1 0.0 728.5907499934149 645.3543482701577 1097.385136423565 # Ar
110 110 1 0.0 1183.599149809687 587.218007984514 242.6331888339077 # Ar
111 111 1 0.0 1010.239735603812 602.4630175645526 1238.736126056391 # Ar
112 112 1 0.0 767.6326250013597 497.1875679783913 772.8565892022447 # Ar
113 113 1 0.0 894.5544504006448 1006.4649011691045 829.1119580353189 # Ar
114 114 1 0.0 319.2549969809674 186.97560395462162 254.28452042140887 # Ar
115 115 1 0.0 80.67262616969919 609.2289680634659 1228.466120451955 # Ar
116 116 1 0.0 385.69047032966483 54.3923010310275 587.8374401913584 # Ar
117 117 1 0.0 360.6179487371955 1100.4505246309343 1190.5932541717082 # Ar
118 118 1 0.0 956.3346574971545 1188.729493444099 519.2344749529985 # Ar
119 119 1 0.0 835.936097496397 498.2660006310466 103.48043784283811 # Ar
120 120 1 0.0 556.9973434368392 219.44193948714556 167.74323918892313 # Ar
121 121 1 0.0 806.6119574219388 607.5539788242987 782.1272715915679 # Ar
122 122 1 0.0 815.0922177319202 553.9233420371024 820.7506238454229 # Ar
123 123 1 0.0 517.2165838987219 963.7078028066571 254.48455799796847 # Ar
124 124 1 0.0 997.903855781628 1122.5644098925723 894.9231741897831 # Ar
125 125 1 0.0 22.291662577711637 548.3364582704027 437.6229556714872 # Ar
126 126 1 0.0 1113.6771644711168 316.08485895823503 625.4932527443302 # Ar
127 127 1 0.0 572.4562595221848 1168.1758946590137 124.57511835421217 # Ar
128 128 1 0.0 786.1648985542469 1076.6051003945172 610.909607782539 # Ar
129 129 1 0.0 964.299531995344 1119.885448434202 439.34140694476844 # Ar
130 130 1 0.0 460.6952874191963 5.8470620645574005 137.30899406864114 # Ar
131 131 1 0.0 764.1199933244045 509.9813654888307 304.14605357132723 # Ar
132 132 1 0.0 769.4053849302851 449.4306461473407 277.52441794051595 # Ar
133 133 1 0.0 285.47936218227085 220.78461286126188 854.6244382701276 # Ar
134 134 1 0.0 21.581007437603418 97.53093968434683 7.850490897326893 # Ar
135 135 1 0.0 782.6583095801017 812.7750867620983 668.7445796766826 # Ar
136 136 1 0.0 381.4917038372134 259.1880696816137 680.2250752571741 # Ar
137 137 1 0.0 858.9239654545364 964.2675100403095 922.6157507789643 # Ar
138 138 1 0.0 1191.2360947942473 60.45923705549145 790.4268877082999 # Ar
139 139 1 0.0 406.0458021816245 1041.003976265391 817.7586354174839 # Ar
140 140 1 0.0 1090.5436579166185 223.75384481763993 1231.640882684745 # Ar
141 141 1 0.0 659.3333531552438 480.55980956567277 301.4211646726717 # Ar
142 142 1 0.0 345.20143699752913 917.5369761619453 710.42715198 # Ar
143 143 1 0.0 884.097354250691 149.299701896904 353.1669851920994 # Ar
144 144 1 0.0 292.82862799572433 719.8273355856592 553.6349898900293 # Ar
145 145 1 0.0 1181.1786241802995 228.69774037264114 440.48292847604296 # Ar
146 146 1 0.0 294.74521907098506 538.5816658089599 89.5174848603205 # Ar
147 147 1 0.0 974.8461186069641 814.8407210031779 177.57569215562478 # Ar
148 148 1 0.0 1140.453367207804 1011.4012584658703 1151.945413317696 # Ar
149 149 1 0.0 262.81620265683983 1146.7285495581489 207.0460273759734 # Ar
150 150 1 0.0 880.1150014646481 1005.018627659722 1165.580062372577 # Ar
151 151 1 0.0 1227.6059716030984 1.5341460589055045 395.05420186243634 # Ar
152 152 1 0.0 573.5270063660683 970.9132611391776 1043.386860300815 # Ar
153 153 1 0.0 564.4886048446373 525.0780414558095 835.1722317296426 # Ar
154 154 1 0.0 292.56829925921465 26.782636782533057 516.4819469932712 # Ar
155 155 1 0.0 1181.4825111165098 625.4122464095943 162.15359500374515 # Ar
156 156 1 0.0 1104.896100853378 28.43143183719579 404.1141416163042 # Ar
157 157 1 0.0 767.3189628226614 376.4853998815115 579.7966651952457 # Ar
158 158 1 0.0 976.236249036249 969.004497646506 653.1957871069405 # Ar
159 159 1 0.0 100.47927910327812 182.08116327123972 708.5653339349944 # Ar
160 160 1 0.0 914.9309276815866 1159.2352710696575 1161.2270719705637 # Ar
161 161 1 0.0 863.337296443831 238.67379938554257 787.7539811875043 # Ar
162 162 1 0.0 228.36400265913656 1175.8777842208183 39.64704473440381 # Ar
163 163 1 0.0 254.81623731532676 1029.7335179094014 550.5460305067229 # Ar
164 164 1 0.0 1067.358503293148 659.1186934021731 727.6740401787044 # Ar
165 165 1 0.0 1090.7987915830197 1101.1315030727133 7.4595065525575475 # Ar
166 166 1 0.0 517.9356600264114 267.466073573407 304.61583533668795 # Ar
167 167 1 0.0 962.2087106699192 1217.7696069563049 578.5985360868302 # Ar
168 168 1 0.0 1082.33550675923 317.5347894218914 34.87390676772758 # Ar
169 169 1 0.0 1128.3241614769188 825.2384018918652 1020.6269850389848 # Ar
170 170 1 0.0 205.42004745414974 911.1405579579998 992.9075665989521 # Ar
171 171 1 0.0 492.8752072923115 636.4137444081609 886.2616934999056 # Ar
172 172 1 0.0 365.4532273905859 418.23734625153065 983.3100266862507 # Ar
173 173 1 0.0 824.9683261738793 1125.1359793493489 62.84432375610462 # Ar
174 174 1 0.0 1233.3370661850456 559.3290218964872 151.75302499486682 # Ar
175 175 1 0.0 439.1352822124353 165.8741162574606 530.3035733652359 # Ar
176 176 1 0.0 204.53036009377786 1068.9887740000945 139.8020598674973 # Ar
177 177 1 0.0 912.4541845431353 823.8937767254583 1066.0433423160282 # Ar
178 178 1 0.0 1082.224242809388 981.1530463636757 747.7545997922289 # Ar
179 179 1 0.0 570.7791958441056 1098.0531806445065 579.2970826419524 # Ar
180 180 1 0.0 318.6258865317288 96.35277705637313 216.21972521047462 # Ar
181 181 1 0.0 673.5019947926853 781.5328874424873 996.614663246732 # Ar
182 182 1 0.0 1231.2638058675495 537.3444400614273 1025.719739094557 # Ar
183 183 1 0.0 0.9989279465830323 282.41445281634395 673.5127635398103 # Ar
184 184 1 0.0 38.34982034443234 564.6294556820745 100.46233745596604 # Ar
185 185 1 0.0 397.53819293417183 667.4213251290184 499.41947282433637 # Ar
186 186 1 0.0 1167.568650267244 772.2046477685589 101.66190791033092 # Ar
187 187 1 0.0 323.7325753662172 419.8833989660898 600.8383525119056 # Ar
188 188 1 0.0 329.56117650347556 844.5975499281408 8.258659188560884 # Ar
189 189 1 0.0 961.4814644121783 89.70945640984334 283.67409604277054 # Ar
190 190 1 0.0 473.706022532246 744.0216490141399 914.4681315661667 # Ar
191 191 1 0.0 167.5413207546371 460.59254873625383 1089.0012161968875 # Ar
192 192 1 0.0 1158.6436493290275 1181.734744312059 161.22442572702073 # Ar
193 193 1 0.0 324.5713316985325 1005.4086206718313 791.202666726479 # Ar
194 194 1 0.0 1210.54511825729 1145.5582181652014 241.66197219650923 # Ar
195 195 1 0.0 647.0110277916144 333.64157218311567 162.70619547031282 # Ar
196 196 1 0.0 230.6013393400218 903.8539450168106 80.11009741017216 # Ar
197 197 1 0.0 659.0788413530807 333.3441766301943 257.2894053919962 # Ar
198 198 1 0.0 136.29549905170248 188.10438589518063 1200.8666575159182 # Ar
199 199 1 0.0 274.14211300201663 324.1030683464688 1239.2817094700777 # Ar
200 200 1 0.0 1231.4140799444897 356.8930859041816 47.2655267150345 # Ar
201 201 1 0.0 1188.845512528231 153.94404663918357 418.3312859170888 # Ar
202 202 1 0.0 399.862131115098 843.6392132687398 567.4068717235249 # Ar
203 203 1 0.0 987.6237755251276 233.17797772856272 1210.5599249900065 # Ar
204 204 1 0.0 1184.4171072797246 151.1432475256884 908.8682153898021 # Ar
205 205 1 0.0 514.9594156889285 427.93688955883664 716.523805512584 # Ar
206 206 1 0.0 1164.730480301651 29.48167995805374 754.5501407457491 # Ar
207 207 1 0.0 516.9702784669457 425.02272518415907 351.8290788945579 # Ar
208 208 1 0.0 10.434862144915032 952.1730518596155 383.6167052603291 # Ar
209 209 1 0.0 586.0032942858309 794.0996664602807 396.6032759310744 # Ar
210 210 1 0.0 409.1648188508529 275.9466703702536 509.8968562601906 # Ar
211 211 1 0.0 1024.6416580536775 231.32336720704416 1220.7994211177727 # Ar
212 212 1 0.0 607.2516592551203 1164.2197337877353 613.4535716277752 # Ar
213 213 1 0.0 676.8377634600421 448.00018821831884 979.03083432045 # Ar
214 214 1 0.0 1049.8075893052546 454.06278748563574 937.4325932270049 # Ar
215 215 1 0.0 1097.0081580833307 627.0914443971534 875.0495776316595 # Ar
216 216 1 0.0 888.3335964422051 908.9084468927886 30.426146417602574 # Ar
217 217 1 0.0 835.7746980481454 1149.3225704888519 891.5431226022571 # Ar
218 218 1 0.0 938.1331536559304 114.13157190115297 1010.3770350369027 # Ar
219 219 1 0.0 1215.2852538844177 100.36297198798204 0.8633409307999245 # Ar
220 220 1 0.0 779.3063959647885 1159.6777076932435 738.6631141419325 # Ar
221 221 1 0.0 323.8224744922751 1179.184301853664 232.07006408849162 # Ar
222 222 1 0.0 1048.9231615751057 1181.0072767066156 1147.1184784003447 # Ar
223 223 1 0.0 216.7412942856839 134.18339548029556 1213.171647213875 # Ar
224 224 1 0.0 548.2683738844661 1107.6718958198949 260.8400361595642 # Ar
225 225 1 0.0 1000.8095098993666 174.9461097188896 711.3577586128121 # Ar
226 226 1 0.0 522.4635271753554 434.14003444973 427.64484182102365 # Ar
227 227 1 0.0 352.83298292605207 940.8618688697627 1238.8452990906376 # Ar
228 228 1 0.0 829.8274669967352 589.3222420138674 963.2813372173648 # Ar
229 229 1 0.0 336.65109301090445 865.2008504086125 820.6519871983829 # Ar
230 230 1 0.0 408.0101061139496 726.596761159558 837.4238671736982 # Ar
231 231 1 0.0 524.2603644222764 1046.2538663174378 602.7304645959648 # Ar
232 232 1 0.0 36.19547880928415 55.31879420675597 75.82468352670975 # Ar
233 233 1 0.0 502.8250171836586 1027.6254511758964 148.09826406241268 # Ar
234 234 1 0.0 816.5965979376025 344.1934790957112 918.5341052236315 # Ar
235 235 1 0.0 747.3775195975626 398.4430568474459 1178.4264397348095 # Ar
236 236 1 0.0 861.3722423426599 458.4734609401605 461.8712404327864 # Ar
237 237 1 0.0 836.936560541549 947.5559602775862 163.77546080696695 # Ar
238 238 1 0.0 739.6136603166616 735.8360162043662 448.62406047354875 # Ar
239 239 1 0.0 1141.3405976455424 867.6694935653262 746.6171177945674 # Ar
240 240 1 0.0 564.625884570281 101.82034766418751 709.5613738018078 # Ar
241 241 1 0.0 1044.8968692676074 757.8326829644567 44.94816766648429 # Ar
242 242 1 0.0 1222.0936279145042 415.2204115151766 803.981509551958 # Ar
243 243 1 0.0 855.2337012413032 1162.1733342226532 1172.8901993185186 # Ar
244 244 1 0.0 942.4304899115061 683.2841934888138 530.5673011047406 # Ar
245 245 1 0.0 1157.5517796864553 249.46624332645422 393.5630319972449 # Ar
246 246 1 0.0 311.3419022209219 466.16252292555737 362.2677783493529 # Ar
247 247 1 0.0 254.74196624724112 1215.4245579655071 737.7619735033876 # Ar
248 248 1 0.0 297.8702176489387 644.0700705329015 327.18086491395724 # Ar
249 249 1 0.0 856.3529513914629 234.33958210963723 170.86363896288572 # Ar
250 250 1 0.0 357.0354469861042 89.9926824757836 144.16366197068365 # Ar
251 251 1 0.0 890.8323075749579 301.5570810624903 56.15160426036101 # Ar
252 252 1 0.0 57.954364520136544 331.8158307454353 1074.8793140892176 # Ar
253 253 1 0.0 446.07385173568457 3.5790579859120526 766.8117408545087 # Ar
254 254 1 0.0 110.58502549897946 454.7407391542687 257.7790724355954 # Ar
255 255 1 0.0 816.0449551504552 420.853548918595 686.9234092366509 # Ar
256 256 1 0.0 212.75712083296023 1100.2759539412525 456.8774041235812 # Ar
257 257 1 0.0 1048.0706462860257 930.6595490212085 38.632349060476756 # Ar
258 258 1 0.0 889.8455370614485 1061.45638519233 200.13920758007882 # Ar
259 259 1 0.0 750.1108526633375 1117.3972329636065 447.31487715036525 # Ar
260 260 1 0.0 60.317552581706416 1009.4024398469815 18.410295915629515 # Ar
261 261 1 0.0 248.1096245589911 127.14514824941712 1106.945588195668 # Ar
262 262 1 0.0 132.05050359172665 1193.6420055068402 108.54533616264246 # Ar
263 263 1 0.0 839.6137082883376 427.69167703684866 572.899161434572 # Ar
264 264 1 0.0 614.6734825233673 272.75849519911765 949.3552119128075 # Ar
265 265 1 0.0 500.4351763750049 237.10246560252259 244.20297703976814 # Ar
266 266 1 0.0 534.0959019595915 411.1214178758012 603.1030903270298 # Ar
267 267 1 0.0 449.01525666706243 1043.1817749589736 540.4024098831536 # Ar
268 268 1 0.0 292.0220217139771 823.66706986432 52.48108975343341 # Ar
269 269 1 0.0 182.4138842219337 1100.2411074186607 717.8296788957426 # Ar
270 270 1 0.0 865.9281400682688 250.724251612369 839.6043385631838 # Ar
271 271 1 0.0 1125.0289894940981 855.4565998435709 286.065453432264 # Ar
272 272 1 0.0 744.1357463212909 44.96082566914739 831.5872520671846 # Ar
273 273 1 0.0 1147.2044579434637 66.93815544724056 1106.579336213137 # Ar
274 274 1 0.0 259.05759856413295 899.3195859978765 333.0507638263404 # Ar
275 275 1 0.0 398.54720432769403 609.2884495930256 1007.192639490603 # Ar
276 276 1 0.0 698.284858576844 32.96924190231985 437.4591267857953 # Ar
277 277 1 0.0 687.4329780894368 820.3149722671047 928.6901481287014 # Ar
278 278 1 0.0 649.961747679918 615.8583673121152 672.942404681451 # Ar
279 279 1 0.0 413.51838316135013 37.113860622639265 680.5372403761168 # Ar
280 280 1 0.0 43.934180964354546 65.36798075894092 620.7870607714367 # Ar
281 281 1 0.0 492.08025514315375 1130.8857146993475 775.0377081903885 # Ar
282 282 1 0.0 280.2309585144812 295.75555226001444 145.96290053465623 # Ar
283 283 1 0.0 749.3200920962917 587.5021983763876 170.6131581314599 # Ar
284 284 1 0.0 593.6508942852082 166.2429972972019 1106.4597373565252 # Ar
285 285 1 0.0 398.3422488093774 736.3154579382799 772.3504990429545 # Ar
286 286 1 0.0 563.3247306933876 842.8438680954036 619.3852143454673 # Ar
287 287 1 0.0 1088.9907208177324 687.535398689146 818.2480881062338 # Ar
288 288 1 0.0 259.8077720146594 1193.1483462117114 734.9870477239181 # Ar
289 289 1 0.0 271.4621171864336 1077.8648626494005 461.88186960725 # Ar
290 290 1 0.0 631.2910269915748 1083.9991319677104 567.4412011676337 # Ar
291 291 1 0.0 59.05651092187476 812.6234830578585 775.6044123541631 # Ar
292 292 1 0.0 638.2038407709526 222.55401031754909 126.94703382616238 # Ar
293 293 1 0.0 981.0614924155254 976.952182234755 909.5182879512627 # Ar
294 294 1 0.0 529.6922672394096 78.76497714994798 782.6487295817775 # Ar
295 295 1 0.0 1153.2505839487226 198.92054462244224 705.2562028706976 # Ar
296 296 1 0.0 1235.8094026054591 786.2086810411107 709.6220315893274 # Ar
297 297 1 0.0 784.9638056013667 146.30280697752434 965.4395259719493 # Ar
298 298 1 0.0 1131.4653912377448 1033.620749945098 146.9103351174588 # Ar
299 299 1 0.0 796.663830242703 12.238613381031357 808.2654054249745 # Ar
300 300 1 0.0 600.1610088094578 541.7584360690806 838.9996318607726 # Ar
301 301 1 0.0 285.0739484040337 1034.9395328775238 784.3600614021839 # Ar
302 302 1 0.0 386.5529009827083 758.1835618495573 942.8097787079913 # Ar
303 303 1 0.0 408.29888666671116 897.2396719869333 972.6449112425494 # Ar
304 304 1 0.0 884.0868201415245 1106.1879292612634 1140.2473588932476 # Ar
305 305 1 0.0 110.29611843929045 493.3906007274235 1074.1791718246495 # Ar
306 306 1 0.0 568.9497764586333 1208.6424250204157 556.0815594409177 # Ar
307 307 1 0.0 922.8860459397198 1226.8847902733457 174.10796066838358 # Ar
308 308 1 0.0 757.2349894741609 510.31032676691405 574.8950999824094 # Ar
309 309 1 0.0 272.70827981354336 80.1097291187313 68.01551097156351 # Ar
310 310 1 0.0 380.9070028744314 49.82977761989022 876.9339028081553 # Ar
311 311 1 0.0 459.49389881327727 682.2333800789565 964.3532113244607 # Ar
312 312 1 0.0 1184.4482409484401 382.80878539803706 218.7188718717032 # Ar
313 313 1 0.0 65.85135804338496 439.0226104992207 639.0574125849744 # Ar
314 314 1 0.0 649.5818973601466 1040.536054454616 264.2912080611042 # Ar
315 315 1 0.0 86.25431397601528 508.9295689683263 1235.9507475033715 # Ar
316 316 1 0.0 738.6689138819183 346.4103433895151 1008.4416180380405 # Ar
317 317 1 0.0 1039.7280589065194 524.1569812711457 408.36199364986703 # Ar
318 318 1 0.0 1008.3769050358724 801.8274488505097 109.66915809509887 # Ar
319 319 1 0.0 948.3838195918606 416.2710023776512 800.7490263452968 # Ar
320 320 1 0.0 313.347498471362 300.4695807930067 854.7487203311774 # Ar
321 321 1 0.0 860.3861201230422 667.3421889443766 301.9616584458022 # Ar
322 322 1 0.0 116.81024106497865 682.8290555135251 303.4279110581491 # Ar
323 323 1 0.0 192.7987213845261 493.13947504966393 1064.5997859700733 # Ar
324 324 1 0.0 936.6907197598296 1208.202560218382 567.4746712223796 # Ar
325 325 1 0.0 298.9142464478289 539.0473295228975 217.8319069408824 # Ar
326 326 1 0.0 762.2310817869743 93.90853513681408 802.3549773397267 # Ar
327 327 1 0.0 754.8116901007138 584.7395106799727 1028.2597355822097 # Ar
328 328 1 0.0 520.0011303678629 160.88165993305776 846.8626735909648 # Ar
329 329 1 0.0 835.5972821289627 101.7640865475073 729.7596759095344 # Ar
330 330 1 0.0 434.92416605046583 1070.5069038120796 80.95242646186857 # Ar
331 331 1 0.0 1083.663909811771 31.71373550749934 171.91520979163272 # Ar
332 332 1 0.0 798.3231700157992 711.8374753127384 444.3731015345176 # Ar
333 333 1 0.0 130.55559799062576 8.85161648522777 1165.5885723106928 # Ar
334 334 1 0.0 790.8848844813143 936.1498578254993 645.4815008986701 # Ar
335 335 1 0.0 228.49935474175226 156.51869502889048 171.28195955370916 # Ar
336 336 1 0.0 308.9349325975899 108.29648331135657 243.40419626185346 # Ar
337 337 1 0.0 458.4855102654259 101.56722466214248 775.5991663778477 # Ar
338 338 1 0.0 976.7484746864486 1168.8986884849837 686.1397805889129 # Ar
339 339 1 0.0 776.9987687367974 1233.0097137460805 934.9165179049063 # Ar
340 340 1 0.0 1108.6944653547578 543.975327492635 1013.7294645224674 # Ar
341 341 1 0.0 1181.7448832552852 824.9267428770856 1045.8425547492964 # Ar
342 342 1 0.0 1160.9410672338881 199.2092688044802 871.6127516317196 # Ar
343 343 1 0.0 1065.1874724282998 182.64429883655714 727.8849502269235 # Ar
344 344 1 0.0 1060.257822386541 963.728804550828 847.439933680547 # Ar
345 345 1 0.0 411.50675380707304 485.5906116961144 430.87018786665146 # Ar
346 346 1 0.0 1090.6894081267471 261.7667013061747 806.1400240516315 # Ar
347 347 1 0.0 1021.9898587582015 472.0372718258133 345.0522107001324 # Ar
348 348 1 0.0 808.0049730244242 1105.8349626314414 1170.9951756888306 # Ar
349 349 1 0.0 69.69486074149982 1157.9803636456052 12.432760120314112 # Ar
350 350 1 0.0 565.808036712094 735.7061156625823 966.3266606108056 # Ar
351 351 1 0.0 673.5529512092793 943.8957037424689 810.8387620872152 # Ar
352 352 1 0.0 197.14782398409238 34.11601552296774 1150.9173446887503 # Ar
353 353 1 0.0 667.3630838728042 42.82361871419372 769.1736382771209 # Ar
354 354 1 0.0 952.5476121548404 271.9120427504384 745.6079727278731 # Ar
355 355 1 0.0 878.5013460619368 1024.4781436789215 189.28520729747058 # Ar
356 356 1 0.0 570.1217776097965 447.54654816759717 591.638409891574 # Ar
357 357 1 0.0 918.9643444975217 38.540519017996566 1054.9639151259375 # Ar
358 358 1 0.0 650.9285845078234 790.5142781114909 340.98368375973695 # Ar
359 359 1 0.0 897.0239569408031 574.5108535991632 1179.78895311921 # Ar
360 360 1 0.0 901.964182951106 1154.7384466998628 1084.2986474061327 # Ar
361 361 1 0.0 650.5840505926001 1205.5984286980502 498.8502713272512 # Ar
362 362 1 0.0 416.18430220468827 37.47422229725786 1131.9125333466616 # Ar
363 363 1 0.0 859.8970114729494 744.6259085989628 478.37827599261055 # Ar
364 364 1 0.0 488.8139078788116 1237.312911579234 636.9737540765793 # Ar
365 365 1 0.0 792.3161921467272 166.9889652466732 646.9808476226386 # Ar
366 366 1 0.0 1236.8603869936435 382.0462947026981 489.5748390319649 # Ar
367 367 1 0.0 606.0904378182738 1079.810649120889 243.04966489069946 # Ar
368 368 1 0.0 70.32636990191617 640.6126353604047 454.0599093283178 # Ar
369 369 1 0.0 96.48998843529776 43.816177212212686 705.4111283278212 # Ar
370 370 1 0.0 1159.7610323415036 1071.024447875462 386.81752880671945 # Ar
371 371 1 0.0 428.83244644935974 169.8540964943269 109.17908077338902 # Ar
372 372 1 0.0 115.72097663110105 751.5420384647261 350.9102675139474 # Ar
373 373 1 0.0 936.1980345441357 652.2812877035668 588.4146335319668 # Ar
374 374 1 0.0 387.7417780883125 1204.670183898259 812.5324396392278 # Ar
375 375 1 0.0 894.5660143862328 1022.8835524489596 584.5678893378772 # Ar
376 376 1 0.0 949.1145942840865 993.9729354664995 177.74468632886723 # Ar
377 377 1 0.0 585.7465733390636 734.1306867493647 68.98808567274607 # Ar
378 378 1 0.0 893.8028077921068 98.69305582344793 819.9956865555395 # Ar
379 379 1 0.0 188.46916473572412 106.15053244267925 224.16429183968143 # Ar
380 380 1 0.0 344.4973635482424 452.8930787697406 855.6397968014593 # Ar
381 381 1 0.0 428.0010349068114 371.0344771792945 1162.008674408331 # Ar
382 382 1 0.0 555.0874301153041 1113.8223957250514 561.5181319618887 # Ar
383 383 1 0.0 669.8781450214448 781.3667151229979 150.06514530065388 # Ar
384 384 1 0.0 274.12889249779664 625.8511861266566 764.8016918614304 # Ar
385 385 1 0.0 1122.0097357244906 87.63032107076513 806.488588446711 # Ar
386 386 1 0.0 1100.7752750046213 358.85667658287565 462.3562098438283 # Ar
387 387 1 0.0 1125.2515438415255 507.00493553642684 127.90406270675413 # Ar
388 388 1 0.0 271.43659266378205 1020.5245998659553 723.8968333744326 # Ar
389 389 1 0.0 993.8467909985533 772.5729767378521 438.9472333500757 # Ar
390 390 1 0.0 614.9391133742809 48.1592279318495 1129.258748060103 # Ar
391 391 1 0.0 285.14178695514227 335.6491604143031 1118.798354689246 # Ar
392 392 1 0.0 548.6294743500102 89.03609708546487 1045.6619334538068 # Ar
393 393 1 0.0 80.23808726886766 909.7484839187498 646.1474873517965 # Ar
394 394 1 0.0 891.8826469851623 35.99810381556083 558.6110635865973 # Ar
395 395 1 0.0 845.1450383455842 453.6788509540924 128.08783489533099 # Ar
396 396 1 0.0 152.91934924265433 32.124899652061934 126.03257053389964 # Ar
397 397 1 0.0 256.29655744616696 754.0428138467432 621.0237039277409 # Ar
398 398 1 0.0 668.4228234081629 27.325466657825363 757.7602866071144 # Ar
399 399 1 0.0 1186.4227587190146 630.8523695662752 693.2872892051041 # Ar
400 400 1 0.0 164.3510011708108 389.1529957894269 1212.1611338806783 # Ar
401 401 1 0.0 379.73731822547325 81.57886742124668 373.24843813470636 # Ar
402 402 1 0.0 932.9697393323523 1035.0590927651845 173.59475427182878 # Ar
403 403 1 0.0 579.0796165310185 195.47512419875886 983.4927469656072 # Ar
404 404 1 0.0 612.8138791295174 139.94222340458785 358.46820781872196 # Ar
405 405 1 0.0 655.9795125168647 839.0017723466715 582.5763246472027 # Ar
406 406 1 0.0 138.13462404975255 491.2706574551105 1006.7809207259405 # Ar
407 407 1 0.0 905.2679128092904 897.8893412662927 395.9549124306953 # Ar
408 408 1 0.0 1122.1819618283255 103.09200552438952 490.5027896595471 # Ar
409 409 1 0.0 854.8210147441555 915.0456621879068 333.19769489877933 # Ar
410 410 1 0.0 1080.7668680093213 1105.9789404595829 313.39452640250573 # Ar
411 411 1 0.0 59.00969189319746 635.4648620154677 1203.103417735796 # Ar
412 412 1 0.0 144.78667923666492 941.1977968355872 1045.894416070361 # Ar
413 413 1 0.0 446.3582031099797 631.5884009250228 516.7701124754163 # Ar
414 414 1 0.0 1028.5645760240056 495.81618257048865 266.24396235100636 # Ar
415 415 1 0.0 981.3165456703338 578.0568286796531 766.6630068189968 # Ar
416 416 1 0.0 518.840253906529 624.731813208581 538.982694833776 # Ar
417 417 1 0.0 277.85481651478636 440.64219613272275 1117.0091914330678 # Ar
418 418 1 0.0 226.6278833447107 1158.0831506007887 1117.494210151533 # Ar
419 419 1 0.0 1069.8070204520895 608.5715539356512 346.97881303804974 # Ar
420 420 1 0.0 421.20151078111974 903.4845967693075 283.6194364029443 # Ar
421 421 1 0.0 1020.2628595801833 209.50037385040355 355.26708016626054 # Ar
422 422 1 0.0 133.77325932760354 332.57320592886674 281.89902185252197 # Ar
423 423 1 0.0 638.9267995796749 1129.877343204744 953.6515520785453 # Ar
424 424 1 0.0 1119.6750301888387 372.1225280926459 233.83737638863403 # Ar
425 425 1 0.0 371.14764346433674 516.8857328803867 1046.850307154129 # Ar
426 426 1 0.0 27.58992240953441 610.597760106415 1172.9999426255147 # Ar
427 427 1 0.0 1181.919915837991 179.1229989471208 828.0677865671493 # Ar
428 428 1 0.0 1088.6438858342372 99.99743263022486 1064.0734671028551 # Ar
429 429 1 0.0 424.3967771944349 197.8395681258382 939.8281434978338 # Ar
430 430 1 0.0 1063.1543339822051 1170.7472770556128 133.80374652388147 # Ar
431 431 1 0.0 1014.9386570140381 1046.7437723666355 1153.1444459231845 # Ar
432 432 1 0.0 267.15997043266384 863.279668335648 855.1130589382005 # Ar
433 433 1 0.0 260.4713502115669 211.43002545957165 54.423885825040614 # Ar
434 434 1 0.0 431.5408744218946 557.2132026544454 569.6716027069319 # Ar
435 435 1 0.0 204.72511674720835 875.488479160828 793.4056138765192 # Ar
436 436 1 0.0 1062.2762153482925 19.493172552435205 796.4990255626523 # Ar
437 437 1 0.0 27.59097851751003 515.1064811588947 14.122081774548741 # Ar
438 438 1 0.0 7.753102496712581 26.87135227299244 1145.7417597549095 # Ar
439 439 1 0.0 640.7033991924424 420.89301625629867 537.5615930315375 # Ar
440 440 1 0.0 174.1647628450261 494.559801920465 1098.946463821038 # Ar
441 441 1 0.0 87.16633891617441 813.5833307574943 443.06010882919054 # Ar
442 442 1 0.0 449.8719422511907 824.2150696757068 205.852622307085 # Ar
443 443 1 0.0 374.4898669728774 1208.8394739240152 902.6749406123259 # Ar
444 444 1 0.0 741.4051411408153 483.99206688306595 667.6002089565131 # Ar
445 445 1 0.0 407.89405008782967 911.6993114460445 471.7080118236959 # Ar
446 446 1 0.0 587.1544364179398 476.1586357904074 47.807211478495006 # Ar
447 447 1 0.0 1185.0159736650958 342.1737152096719 749.2532894567114 # Ar
448 448 1 0.0 678.3041717199022 934.8605727921357 996.425263311876 # Ar
449 449 1 0.0 958.2650617224858 1197.2486159368093 376.1185848334439 # Ar
450 450 1 0.0 1064.6172923291504 1019.1947796586464 571.667419886064 # Ar
451 451 1 0.0 674.0557806956298 274.87796465637354 332.6185184680749 # Ar
452 452 1 0.0 579.9756795906641 408.9098944139387 353.04643739146286 # Ar
453 453 1 0.0 1006.6167290515903 729.7417251080207 498.6564063173557 # Ar
454 454 1 0.0 183.12401275031175 1128.9664984959072 286.48257898092385 # Ar
455 455 1 0.0 530.6601252825494 637.4708567922203 675.6739550520209 # Ar
456 456 1 0.0 399.94856062625945 946.4394321942067 475.35228526910856 # Ar
457 457 1 0.0 327.4514732929464 718.5356198355363 383.3615188647701 # Ar
458 458 1 0.0 16.498735837196605 684.1997637207559 112.25171986803242 # Ar
459 459 1 0.0 1.5419690937876065 292.3705108821382 300.28728036556794 # Ar
460 460 1 0.0 1141.4729394216638 740.3947938906825 638.7580721523143 # Ar
461 461 1 0.0 927.74417589472 1142.365900383008 949.959465739324 # Ar
462 462 1 0.0 797.2309745808124 8.148075089346326 676.7833573376237 # Ar
463 463 1 0.0 83.37475757684028 195.8918258275443 143.41110721874279 # Ar
464 464 1 0.0 313.01524874092996 855.3613653524764 1136.9238627899078 # Ar
465 465 1 0.0 1037.3658828002235 143.25950609738103 452.7009822020361 # Ar
466 466 1 0.0 689.5950255584509 417.05951340124693 575.3666901881666 # Ar
467 467 1 0.0 901.9934744000668 179.8855281584041 138.97488142010172 # Ar
468 468 1 0.0 613.4069646503214 233.5805163746311 211.98588624279213 # Ar
469 469 1 0.0 916.3179016906488 663.6925112363456 544.6335867449559 # Ar
470 470 1 0.0 367.779842354473 1218.996958307779 898.7727502925267 # Ar
471 471 1 0.0 1228.3675427679545 1112.939792394788 233.75164825356381 # Ar
472 472 1 0.0 1047.3418658966575 893.8888210058169 554.0848387550583 # Ar
473 473 1 0.0 1124.8615321646673 967.3408450597994 383.9993743110639 # Ar
474 474 1 0.0 92.77698970093218 455.27296738043 589.1684090304882 # Ar
475 475 1 0.0 548.3869720367476 1033.0816628685207 894.0158084591216 # Ar
476 476 1 0.0 229.45041851806783 137.92480143801492 1025.5112994088527 # Ar
477 477 1 0.0 410.8559201949707 121.40316224888991 625.2329820818434 # Ar
478 478 1 0.0 427.59209346945846 701.5335193704462 665.5392172698223 # Ar
479 479 1 0.0 935.9204067529889 786.0847159254279 167.7690933952841 # Ar
480 480 1 0.0 1023.32051030756 642.2223453405219 702.9315930538545 # Ar
481 481 1 0.0 151.08881493030242 458.8877463852545 762.797644580556 # Ar
482 482 1 0.0 1185.454310659455 389.6492372792076 1170.6625061555985 # Ar
483 483 1 0.0 419.5858255371898 464.5929414231642 380.00657802951685 # Ar
484 484 1 0.0 107.30996894688734 213.3615801679316 213.77636259652033 # Ar
485 485 1 0.0 483.52153692388947 552.0470115361709 538.248753530682 # Ar
486 486 1 0.0 104.48086840685588 987.1821053626952 387.95095291588456 # Ar
487 487 1 0.0 762.4141535029479 265.49002084290584 190.13431566817772 # Ar
488 488 1 0.0 277.32888667885516 232.26045202646762 2.703916546539115 # Ar
489 489 1 0.0 610.1599524433972 617.8895398218915 1063.4753288593986 # Ar
490 490 1 0.0 87.97119982995102 237.38403813814264 141.28906026669665 # Ar
491 491 1 0.0 1109.4449530249294 293.63694695436834 1007.3355603499862 # Ar
492 492 1 0.0 827.2156350573691 1214.5501127952512 1078.8811983216156 # Ar
493 493 1 0.0 545.276758378814 903.0771599794571 990.5552020145437 # Ar
494 494 1 0.0 1025.8622192042803 743.2360380605236 53.500166070233185 # Ar
495 495 1 0.0 400.4543949339949 839.2713176819827 125.13485978238148 # Ar
496 496 1 0.0 43.869931029391545 197.11106906899843 3.9330021896588456 # Ar
497 497 1 0.0 518.1940331740013 631.8324935095044 721.8869677764651 # Ar
498 498 1 0.0 449.8748379728054 317.6690953017121 1158.4031713327665 # Ar
499 499 1 0.0 771.6572638221655 1105.7969995664132 945.0280522703141 # Ar
500 500 1 0.0 54.2955161432981 10.958491900074554 298.448768589977 # Ar
501 501 1 0.0 999.1622615206812 17.879905724221828 1240.0358358008662 # Ar
502 502 1 0.0 483.1996443501317 551.6717338662319 1233.3921210761553 # Ar
503 503 1 0.0 648.1972034500792 746.1736455444133 1081.2624955636852 # Ar
504 504 1 0.0 1030.6231119588595 866.3148757599441 488.28330547732173 # Ar
505 505 1 0.0 1100.4262247290717 1034.7910472099775 747.4459434446861 # Ar
506 506 1 0.0 903.2464508722849 983.7583726898879 580.1917829144579 # Ar
507 507 1 0.0 1083.2919525211848 198.46456882756897 173.08926166060584 # Ar
508 508 1 0.0 822.9068904714059 702.3117357008671 638.025264897488 # Ar
509 509 1 0.0 333.53173173494423 363.3713726453074 526.6960626576854 # Ar
510 510 1 0.0 932.241054114047 1220.4829817446305 310.64439654422284 # Ar
511 511 1 0.0 384.4863554756908 227.57656816666213 584.7343632009233 # Ar
512 512 1 0.0 946.8325774329701 116.47190287142352 554.7050256977714 # Ar
513 513 1 0.0 932.5814475993873 126.87165662462901 476.2195321271677 # Ar
514 514 1 0.0 489.1702964605958 805.2605612926739 404.9280501078844 # Ar
515 515 1 0.0 847.8930999706009 839.4793520163415 560.0641910245512 # Ar
516 516 1 0.0 277.3266646969025 1040.6195333101996 279.62788853981533 # Ar
517 517 1 0.0 150.15863859439816 350.33157856924873 1201.8449596814612 # Ar
518 518 1 0.0 746.8576433875635 55.22918530258643 1232.3732799728114 # Ar
519 519 1 0.0 292.536892115494 803.075595683647 573.0072022785288 # Ar
520 520 1 0.0 305.0965287585744 3.1808525947400597 245.2094366529243 # Ar
521 521 1 0.0 375.1652466051203 337.04849449744813 171.4975204148093 # Ar
522 522 1 0.0 468.78391691869666 221.85404549085735 911.6563573879071 # Ar
523 523 1 0.0 1103.0768967898584 286.8845137067638 860.411497229998 # Ar
524 524 1 0.0 187.0994208661861 993.2807897421521 967.8915590455335 # Ar
525 525 1 0.0 583.7911423406266 135.2240500156982 963.955996247426 # Ar
526 526 1 0.0 1049.6899625905587 1114.4922584567212 1122.4778259256566 # Ar
527 527 1 0.0 937.4823040942334 457.31912745740715 995.6513712718212 # Ar
528 528 1 0.0 901.7094680982814 84.0411982282717 9.754127096766267 # Ar
529 529 1 0.0 585.4901309561837 231.3340733282266 708.6453030535612 # Ar
530 530 1 0.0 1073.2004165260962 86.13391460456108 1107.7264300164018 # Ar
531 531 1 0.0 159.56337198889557 555.0001458399687 458.269911184196 # Ar
532 532 1 0.0 306.9221711153161 458.28914216362057 278.48605825910226 # Ar
533 533 1 0.0 37.828289162035844 851.2873830028616 62.19517408644818 # Ar
534 534 1 0.0 858.8132915978591 591.7595257564408 486.24591346225645 # Ar
535 535 1 0.0 38.935009195272556 313.71634102974934 378.52038083221083 # Ar
536 536 1 0.0 165.20996345720036 745.33905845331 230.63369074469176 # Ar
537 537 1 0.0 511.74084915759124 857.487158688214 407.09636166320814 # Ar
538 538 1 0.0 687.8042282064075 680.4426903743334 345.49495427393185 # Ar
539 539 1 0.0 1149.4629020475422 345.7167741174454 1168.3634103556271 # Ar
540 540 1 0.0 266.6557658864425 1040.341744740886 223.1709399566596 # Ar
541 541 1 0.0 170.85400120771473 455.5837333273481 1163.1214669795831 # Ar
542 542 1 0.0 517.1944517098019 67.73128059885224 421.7477776521322 # Ar
543 543 1 0.0 632.0054418995717 413.8207363486255 733.3008715910292 # Ar
544 544 1 0.0 469.78672222539234 590.8434484134681 951.7755811188584 # Ar
545 545 1 0.0 770.0895815187988 1014.0427055061839 1111.1996517821765 # Ar
546 546 1 0.0 274.3992125330465 1097.9016515806493 232.8414514138171 # Ar
547 547 1 0.0 119.27380649348349 824.2972524836662 248.55520935573023 # Ar
548 548 1 0.0 297.87965505985335 27.783540560943795 49.12975617757116 # Ar
549 549 1 0.0 1131.4706854471376 27.19108583961099 646.1459506330767 # Ar
550 550 1 0.0 349.7107146115356 538.3945450030322 907.8056755893328 # Ar
551 551 1 0.0 626.7876590151161 371.2980420304435 402.3931622412607 # Ar
552 552 1 0.0 837.9089200635808 817.616225204384 755.729875920732 # Ar
553 553 1 0.0 40.33413021153829 365.7639699947242 634.8038484631334 # Ar
554 554 1 0.0 839.5671158638971 632.5154190979097 234.71742183838177 # Ar
555 555 1 0.0 1164.3697367307386 402.7898404641359 295.3276835786492 # Ar
556 556 1 0.0 985.8768094256475 874.4806033987193 1097.6338793713785 # Ar
557 557 1 0.0 178.98365703552162 1157.1130892932842 144.09814329054296 # Ar
558 558 1 0.0 473.7663531947398 311.2829665922682 337.0443610816124 # Ar
559 559 1 0.0 110.58611016563296 86.38044432989538 337.25750278335914 # Ar
560 560 1 0.0 1024.0144023565067 257.6482679076817 224.00210534852548 # Ar
561 561 1 0.0 315.4246765539097 418.7251521290747 715.5873666317289 # Ar
562 562 1 0.0 80.71797087779059 699.9693680576348 866.2845359875395 # Ar
563 563 1 0.0 158.91878051776246 883.0727725010913 1065.247610678379 # Ar
564 564 1 0.0 690.0689882925379 1064.1550245113783 845.5678568977866 # Ar
565 565 1 0.0 548.6006471566071 639.2323112520368 532.8341089842357 # Ar
566 566 1 0.0 75.66591894492649 986.6315247084824 246.8247722156212 # Ar
567 567 1 0.0 338.82195138505523 640.8471555308256 585.6182005267368 # Ar
568 568 1 0.0 1024.503090281107 1008.3727182921418 1035.1510315811188 # Ar
569 569 1 0.0 1239.3207145337446 1050.0864386937337 603.0349225710868 # Ar
570 570 1 0.0 275.05419181167815 115.32371928521019 99.6750697054049 # Ar
571 571 1 0.0 1153.0004489994194 1114.1260151752463 1005.682540569067 # Ar
572 572 1 0.0 1026.1235376667826 325.80648704357077 139.5041903234453 # Ar
573 573 1 0.0 777.359441204754 160.6466953752725 799.0655842344305 # Ar
574 574 1 0.0 826.0235131725478 447.60078988683665 1132.2887848502367 # Ar
575 575 1 0.0 222.8331213783729 1217.5600223029712 262.47071728829593 # Ar
576 576 1 0.0 709.2794129217733 771.3127616617566 124.67380775464896 # Ar
577 577 1 0.0 63.852545514033295 798.8617747744521 975.375948683059 # Ar
578 578 1 0.0 17.429527875538994 726.7633035838003 618.228600507807 # Ar
579 579 1 0.0 878.3310533139584 60.98492371473868 466.1924089272378 # Ar
580 580 1 0.0 884.5140354028129 707.3283562921456 64.07374461746119 # Ar
581 581 1 0.0 1036.6964859064 103.58618936516812 118.62098171395454 # Ar
582 582 1 0.0 1029.232051804396 500.7677423231061 763.8674390612019 # Ar
583 583 1 0.0 597.4661771208262 709.9740452128578 634.84364370941 # Ar
584 584 1 0.0 1202.340676704549 268.93261364567667 1092.531613806162 # Ar
585 585 1 0.0 885.082195153009 766.6106591830986 1032.9633735265336 # Ar
586 586 1 0.0 730.8536904028359 849.4337289684819 706.0074891417348 # Ar
587 587 1 0.0 845.738751990119 885.2857440823244 885.1687377540842 # Ar
588 588 1 0.0 827.3764565127933 557.2903107522756 1059.4456400670801 # Ar
589 589 1 0.0 725.5231280169587 1189.2865277498263 172.25209049778763 # Ar
590 590 1 0.0 660.0370701143735 278.93188007763706 1188.449113216177 # Ar
591 591 1 0.0 841.1132934623972 780.939008300374 1198.2368066047081 # Ar
592 592 1 0.0 1191.8051017196715 1151.760880668071 1009.3690649984059 # Ar
593 593 1 0.0 1174.9980954683124 361.1351752798612 905.7984508928462 # Ar
594 594 1 0.0 307.9320018099345 597.3098879295401 821.5636159739455 # Ar
595 595 1 0.0 397.18135344686317 1042.812026577065 1106.790993052951 # Ar
596 596 1 0.0 680.601510238269 931.3043191420921 404.0523617467847 # Ar
597 597 1 0.0 470.3727385998009 415.45745198373885 200.6759475778489 # Ar
598 598 1 0.0 624.9320788889751 448.70792662771487 703.143391495185 # Ar
599 599 1 0.0 759.9047085173751 432.73167694765743 549.9098114867584 # Ar
600 600 1 0.0 716.7039347262962 667.8039529376348 47.2566819303959 # Ar
601 601 1 0.0 717.2457654527431 1097.275813996438 601.2640086921914 # Ar
602 602 1 0.0 901.5049192594105 1194.9633616629433 640.428782189236 # Ar
603 603 1 0.0 281.2396961591431 334.86425931262494 1066.5708707446267 # Ar
604 604 1 0.0 677.8119449332988 1108.2197259886027 1141.57632954689 # Ar
605 605 1 0.0 29.42202832777646 817.3306991050936 1109.3576962999246 # Ar
606 606 1 0.0 716.6897916915499 458.3751652165995 1154.8904085388663 # Ar
607 607 1 0.0 972.3543539564946 438.88396325266086 365.26759485687774 # Ar
608 608 1 0.0 1217.6816986800056 339.62505121387636 1188.306536926599 # Ar
609 609 1 0.0 401.16828345366014 982.2047041364142 831.4020247999698 # Ar
610 610 1 0.0 1177.5865953358789 236.89502691111534 52.41085408263782 # Ar
611 611 1 0.0 684.5702236176154 224.7468470258588 412.4443618665336 # Ar
612 612 1 0.0 787.4531241141625 1142.7073715755203 74.11293218791816 # Ar
613 613 1 0.0 158.7480789741186 82.80031809761527 420.88017610574275 # Ar
614 614 1 0.0 1183.8211124901152 897.6660672536561 1130.3127482519853 # Ar
615 615 1 0.0 186.09231940417482 442.985920360012 818.8493445013911 # Ar
616 616 1 0.0 29.03998959655871 540.7892682288813 1210.627664444549 # Ar
617 617 1 0.0 1063.1722561952581 261.37358159876317 430.6331594453238 # Ar
618 618 1 0.0 408.1548725561958 184.16294064251395 611.1719110856744 # Ar
619 619 1 0.0 124.03394305231944 1190.8589977121046 613.4798510737006 # Ar
620 620 1 0.0 254.45526997693042 895.8512219743931 983.8038219726079 # Ar
621 621 1 0.0 197.52201013793777 1082.5426597410546 260.2242307683257 # Ar
622 622 1 0.0 1068.0496825442492 474.6552467525273 13.367624045965709 # Ar
623 623 1 0.0 421.71900234240707 1215.347651885142 427.76437962737185 # Ar
624 624 1 0.0 788.2953412521924 291.8629733947481 949.6244130970196 # Ar
625 625 1 0.0 116.11390358663635 431.57996263952214 1165.1323719340135 # Ar
626 626 1 0.0 276.458325371835 753.197609008462 459.3351400334289 # Ar
627 627 1 0.0 115.79185050983945 357.0940715463574 1033.974559376038 # Ar
628 628 1 0.0 606.0735465785435 219.98774335795002 241.22351391800595 # Ar
629 629 1 0.0 319.4952097211751 505.6135040176089 213.3308442626974 # Ar
630 630 1 0.0 1163.3936910364662 599.3317052926769 1110.6184595313998 # Ar
631 631 1 0.0 35.005202796096384 286.3679049534493 381.80711539049906 # Ar
632 632 1 0.0 1015.6106522392621 454.1370944310203 649.0172281483485 # Ar
633 633 1 0.0 210.87605483726355 925.2146192402477 865.0587275276507 # Ar
634 634 1 0.0 908.9931604883974 622.6089683453529 734.59031393099 # Ar
635 635 1 0.0 296.5921360830511 1010.3807509680338 1104.7940733103371 # Ar
636 636 1 0.0 407.2305164172919 1231.0758520940028 296.2689862714455 # Ar
637 637 1 0.0 787.0035387063451 719.7591830062958 498.40156172234373 # Ar
638 638 1 0.0 724.9269474076368 309.7057898122657 186.64700813240952 # Ar
639 639 1 0.0 1160.719577135887 1099.8644592595883 375.7073194273638 # Ar
640 640 1 0.0 199.12978785930702 518.336281184773 657.8743869525997 # Ar
641 641 1 0.0 963.6173223285225 688.8919826726683 960.4491002059799 # Ar
642 642 1 0.0 998.5608311785032 755.509320984547 334.3390833813481 # Ar
643 643 1 0.0 350.8805320713839 307.94726136924373 14.32920022057846 # Ar
644 644 1 0.0 747.8475589884807 427.0399890667361 290.4080983543801 # Ar
645 645 1 0.0 532.1460405864916 714.7850457512855 68.45118340128664 # Ar
646 646 1 0.0 925.1200329347462 42.800444549942476 781.2964199523984 # Ar
647 647 1 0.0 776.8500220158008 560.0158423320463 555.8813389050799 # Ar
648 648 1 0.0 1216.6018259237321 681.8762653202714 1100.1127164386005 # Ar
649 649 1 0.0 238.52602910445424 828.5724356662248 836.5482653796706 # Ar
650 650 1 0.0 830.0824115690111 1044.5811979527089 533.2369107267427 # Ar
651 651 1 0.0 717.5988259993259 72.16410026409515 852.6987363006851 # Ar
652 652 1 0.0 128.44564753590922 1115.1057927123268 1094.7331909615693 # Ar
653 653 1 0.0 554.6700522284617 993.931018823331 186.01026670274413 # Ar
654 654 1 0.0 1082.2211207555797 344.5936354070906 447.1135956136197 # Ar
655 655 1 0.0 432.93104291535116 918.6643538707281 681.3402125292312 # Ar
656 656 1 0.0 344.25357052981093 406.6029817893249 440.4276800724485 # Ar
657 657 1 0.0 854.8889536926124 308.616894183215 987.9273248156462 # Ar
658 658 1 0.0 792.0540683472301 602.4804752998602 1237.7433153565842 # Ar
659 659 1 0.0 915.0558203979574 1154.1667696848804 909.4213409742222 # Ar
660 660 1 0.0 164.32368449294333 825.2966798639562 139.95936510386082 # Ar
661 661 1 0.0 444.88142819509227 530.480156149308 474.2408973761863 # Ar
662 662 1 0.0 921.3601153212489 516.289314331469 295.0090097702412 # Ar
663 663 1 0.0 440.42761201851147 1199.5469477948625 527.622861506371 # Ar
664 664 1 0.0 836.7942865480311 867.4334717789006 123.24275194710553 # Ar
665 665 1 0.0 477.5544271448133 192.872067847941 861.7434224250991 # Ar
666 666 1 0.0 1070.4962464292864 317.05471498962544 1151.6881166174041 # Ar
667 667 1 0.0 742.9502307191824 97.17765907886117 880.8558955590532 # Ar
668 668 1 0.0 841.5206675773985 1106.3193266248697 692.789082539698 # Ar
669 669 1 0.0 203.89694989149933 106.24096778802317 964.6962216913678 # Ar
670 670 1 0.0 644.728257808453 124.55465376576967 695.4066490773706 # Ar
671 671 1 0.0 1131.2208142040015 7.778632394681357 48.2640663111332 # Ar
672 672 1 0.0 392.68542837403237 847.4811965857482 428.9173371533384 # Ar
673 673 1 0.0 150.1203874590854 320.0619974619878 1000.4419284704337 # Ar
674 674 1 0.0 270.32068856956886 414.6854505641402 954.1893441484865 # Ar
675 675 1 0.0 1098.2547000013583 703.3547173193573 277.09382161181975 # Ar
676 676 1 0.0 374.25683646869516 186.1908748457764 41.890973962756675 # Ar
677 677 1 0.0 1123.0749081773495 1017.346662076808 699.0390641449978 # Ar
678 678 1 0.0 443.281577963827 327.0118620365747 1093.225413910022 # Ar
679 679 1 0.0 1074.098318177405 560.9996070658415 144.8118492688001 # Ar
680 680 1 0.0 272.10693022210677 524.2136753881368 39.69209304621572 # Ar
681 681 1 0.0 851.8384459274928 75.22843661776366 280.20264033288 # Ar
682 682 1 0.0 15.93196619931481 577.9025610976693 1052.0972292841525 # Ar
683 683 1 0.0 672.6678003660929 762.3364720110428 1166.8332767821478 # Ar
684 684 1 0.0 983.5044857335321 286.1560870213345 905.7876985297063 # Ar
685 685 1 0.0 440.01297698847634 71.3063044708518 379.0927286757466 # Ar
686 686 1 0.0 1187.6630560503131 1106.6388791433862 97.98882700354528 # Ar
687 687 1 0.0 1183.9558468806151 630.9227266272788 809.1186396469825 # Ar
688 688 1 0.0 1149.8408756869005 1022.7577738522401 747.2381720344291 # Ar
689 689 1 0.0 569.6654692125649 417.9780122927027 458.94086641764693 # Ar
690 690 1 0.0 236.60945840509595 1011.7426907839642 1048.0397353713774 # Ar
691 691 1 0.0 464.939773226117 699.2351191424132 1118.8768931784482 # Ar
692 692 1 0.0 1060.813228357491 88.4733228536142 538.4185347559876 # Ar
693 693 1 0.0 318.0975402485978 1178.0204316843785 577.5161389912952 # Ar
694 694 1 0.0 1096.810818458657 988.3704544922535 7.907757876083991 # Ar
695 695 1 0.0 1117.810556769374 94.5586517859485 369.02090395832323 # Ar
696 696 1 0.0 1082.7466588731847 822.0799611404178 1200.381415419811 # Ar
697 697 1 0.0 965.2294370516051 990.1628103060307 1096.821940192192 # Ar
698 698 1 0.0 1181.4939569316543 509.63210827448484 1104.4519811405082 # Ar
699 699 1 0.0 739.4421609193722 857.4629206661144 595.2397170076011 # Ar
700 700 1 0.0 269.44447219790504 689.4550880757502 772.5190903738337 # Ar
701 701 1 0.0 1055.700233432334 850.8246426449653 641.3596293481579 # Ar
702 702 1 0.0 764.7320327479147 875.7749028680936 1190.0456867211126 # Ar
703 703 1 0.0 877.4461501134394 1187.756228878918 313.7357882038966 # Ar
704 704 1 0.0 1024.2883395908066 745.9844934413323 475.98471344826777 # Ar
705 705 1 0.0 497.3075347031102 75.29270796054885 73.66791395410226 # Ar
706 706 1 0.0 270.1219549632937 312.4807933371274 275.83664517745643 # Ar
707 707 1 0.0 655.1193761689364 1169.7290909177877 288.67526620496403 # Ar
708 708 1 0.0 10.549744977863192 1082.1610258797107 285.26371439370683 # Ar
709 709 1 0.0 34.15316131008455 1040.883213146526 1021.1678354531091 # Ar
710 710 1 0.0 1044.3457302322877 169.42595547651305 454.04927146904663 # Ar
711 711 1 0.0 868.6866130948736 481.1010066712584 793.4423462210738 # Ar
712 712 1 0.0 1099.038801044454 118.54367334227825 920.99221580241 # Ar
713 713 1 0.0 645.312837242487 635.9702284914957 1172.9699767259308 # Ar
714 714 1 0.0 1062.9836573505283 502.46665861311294 669.5756756355142 # Ar
715 715 1 0.0 800.5677954777236 853.4703602463082 210.97073464011106 # Ar
716 716 1 0.0 1062.7197901815393 1061.3541677005994 1072.3019535598548 # Ar
717 717 1 0.0 168.61975466865118 586.9562615620172 760.9357749848235 # Ar
718 718 1 0.0 983.7247781126558 1157.8319761199955 661.3679289439233 # Ar
719 719 1 0.0 554.5988131669856 856.9060243888089 1180.347646372301 # Ar
720 720 1 0.0 961.0353456169607 797.2417474394176 369.7497547318833 # Ar
721 721 1 0.0 403.3203524411399 233.8935517724221 443.92920162914936 # Ar
722 722 1 0.0 975.2260336751277 825.3980752711769 380.2327653122775 # Ar
723 723 1 0.0 990.0161804211239 86.71245997229124 1049.9389907250672 # Ar
724 724 1 0.0 87.8364269226751 26.27852819581463 133.46619666555392 # Ar
725 725 1 0.0 167.45605030265008 835.4996956139046 1048.0822407139829 # Ar
726 726 1 0.0 993.3867008660922 498.9793310703838 478.54435220693824 # Ar
727 727 1 0.0 860.7634477647525 290.70770979850045 573.761468133662 # Ar
728 728 1 0.0 941.2219879116595 682.3459950204209 734.5118120710129 # Ar
729 729 1 0.0 357.3492667459645 918.6925728919441 324.7743352177143 # Ar
730 730 1 0.0 1155.0396899367445 911.857563066375 801.0665083947769 # Ar
731 731 1 0.0 432.76162675937434 778.1999046457876 644.2924014833285 # Ar
732 732 1 0.0 460.1587522151536 515.3554426475898 247.8857272933903 # Ar
733 733 1 0.0 571.0996339175525 1044.4175400828035 610.0380441161789 # Ar
734 734 1 0.0 668.6519865056454 459.08855586703925 1043.4025234366118 # Ar
735 735 1 0.0 662.9253492180044 936.5148635882908 650.8113235767485 # Ar
736 736 1 0.0 1166.5701700023108 843.6231796037613 653.9757849374248 # Ar
737 737 1 0.0 557.5932695875714 333.0993904132491 1038.472759041198 # Ar
738 738 1 0.0 598.8401941760236 21.857914243652605 431.47348846753493 # Ar
739 739 1 0.0 1154.1426324881293 1112.786403574875 749.3834999010871 # Ar
740 740 1 0.0 333.79238709532257 519.1970489171075 500.5733261897042 # Ar
741 741 1 0.0 140.76091173287847 895.9673842083197 1219.266849444206 # Ar
742 742 1 0.0 69.40540766430534 996.1780797882441 774.4779523010735 # Ar
743 743 1 0.0 946.5989682719935 795.0880006590924 346.08866751320744 # Ar
744 744 1 0.0 1218.4733972337758 657.3023923566075 265.14899643166376 # Ar
745 745 1 0.0 873.7997129652015 247.92191990239658 849.7389108184935 # Ar
746 746 1 0.0 946.0171260874866 525.1078684352249 589.040091881189 # Ar
747 747 1 0.0 294.9680563318384 505.9339442286434 48.45215054420954 # Ar
748 748 1 0.0 85.29418152789002 441.8432091206882 322.57691572432975 # Ar
749 749 1 0.0 446.38149614274545 185.54311296049258 351.42126549250173 # Ar
750 750 1 0.0 493.3338277319907 945.8209113707752 170.6732940116268 # Ar
751 751 1 0.0 377.775524169935 573.6567451879939 1211.4537858670847 # Ar
752 752 1 0.0 906.5562324229645 582.1664816849485 161.59688245617525 # Ar
753 753 1 0.0 586.203183108211 856.772243455292 745.4598587505373 # Ar
754 754 1 0.0 289.68234149377514 1007.3173119722779 133.5675008985375 # Ar
755 755 1 0.0 1023.1721437967763 672.6114841574316 64.16074013995268 # Ar
756 756 1 0.0 618.6369417166097 1020.4760210562104 738.8298957661509 # Ar
757 757 1 0.0 569.5549057514023 992.4596918802761 820.8704751800507 # Ar
758 758 1 0.0 149.8209650500423 1086.5689521394509 814.9669822954614 # Ar
759 759 1 0.0 868.4241869578598 29.55628214474734 873.8762076878835 # Ar
760 760 1 0.0 1203.3295863520098 1026.0169361077583 812.9496318166282 # Ar
761 761 1 0.0 23.016928792342924 587.4540985057363 383.9832027176162 # Ar
762 762 1 0.0 805.637667526724 87.21635909793909 183.80113023360963 # Ar
763 763 1 0.0 237.78324626712543 587.4248374667482 458.8927312253078 # Ar
764 764 1 0.0 296.68203644979354 66.63681727645266 651.6456249522446 # Ar
765 765 1 0.0 637.4327710576763 623.8487594023675 413.6506810823249 # Ar
766 766 1 0.0 1067.6422100023706 1096.9300843803887 367.97763683802305 # Ar
767 767 1 0.0 660.7065837546545 1159.6830798651183 661.0636114662846 # Ar
768 768 1 0.0 1225.9615878182215 23.094826522120186 767.6853061626258 # Ar
769 769 1 0.0 580.9911622856773 569.1847075296415 313.25590076910487 # Ar
770 770 1 0.0 1208.8262709121718 1013.4385205897369 740.9887905376968 # Ar
771 771 1 0.0 334.6819341444611 422.6569176149532 973.6547761484511 # Ar
772 772 1 0.0 490.0036877050692 1229.958455865462 954.6562770947131 # Ar
773 773 1 0.0 776.7881688158719 78.60016463313777 614.6111673130891 # Ar
774 774 1 0.0 1089.4989732052438 1010.8658514324724 731.488376933907 # Ar
775 775 1 0.0 762.6507732139728 94.95453653061793 682.568015812152 # Ar
776 776 1 0.0 1239.9743976338486 903.3532029118691 815.6924703766649 # Ar
777 777 1 0.0 606.5502127583611 845.5839438427123 912.6532330423584 # Ar
778 778 1 0.0 1232.905472627675 166.5718419254464 726.1480724586005 # Ar
779 779 1 0.0 491.6378460134446 723.6834311217958 613.36606507563 # Ar
780 780 1 0.0 483.2812004904495 544.5123829022052 448.2937715019853 # Ar
781 781 1 0.0 1090.8858890803692 262.5410669836524 25.84854666580573 # Ar
782 782 1 0.0 1220.6857190963908 892.4402106819689 616.2296336119699 # Ar
783 783 1 0.0 511.08618352827403 312.9814708402129 716.6029709633921 # Ar
784 784 1 0.0 708.5427939241489 1072.6025572120939 288.7013555794984 # Ar
785 785 1 0.0 1172.6026711148002 313.88920014637375 557.5431682584853 # Ar
786 786 1 0.0 1041.3201631656946 565.4545429008721 926.6434291252057 # Ar
787 787 1 0.0 604.3321516083896 209.07576201707326 23.69108481335888 # Ar
788 788 1 0.0 1015.1255534123239 1101.7024113427274 1172.9118658157524 # Ar
789 789 1 0.0 952.7367059246375 734.4160284954206 218.64437159133985 # Ar
790 790 1 0.0 936.3614797764898 675.6347400780487 277.16794535215473 # Ar
791 791 1 0.0 874.7058695173637 1107.3780873548335 900.7465207824141 # Ar
792 792 1 0.0 956.7470221333633 144.24942822140738 143.1982499372788 # Ar
793 793 1 0.0 796.6723686623354 1196.0403166666574 1145.928071397648 # Ar
794 794 1 0.0 707.080415718724 1131.2427846012197 734.8585362667922 # Ar
795 795 1 0.0 581.4984497989539 262.77554246917316 1132.2289375753126 # Ar
796 796 1 0.0 1234.483573782133 473.18205633305115 1168.4149793412394 # Ar
797 797 1 0.0 30.223285264696457 362.0901553851355 190.57958865210975 # Ar
798 798 1 0.0 155.3681562879441 850.4737242408765 584.5465842937477 # Ar
799 799 1 0.0 431.3949384088749 811.2633812164938 761.3773124278664 # Ar
800 800 1 0.0 586.4046663515398 234.15350503307124 448.52751234277576 # Ar
801 801 1 0.0 654.175301883503 112.45517842655866 432.7844292365777 # Ar
802 802 1 0.0 1099.3526713405927 533.6487156047938 665.982670596341 # Ar
803 803 1 0.0 172.92576836263137 910.2028825598759 99.48985940245929 # Ar
804 804 1 0.0 369.70405844305975 136.27761459871928 755.6050076586647 # Ar
805 805 1 0.0 819.5611544269614 1229.4682094359664 530.7761479832187 # Ar
806 806 1 0.0 961.8480856062463 101.09117298986904 1140.1841753891738 # Ar
807 807 1 0.0 435.8745787284428 693.8033192899811 572.500960200185 # Ar
808 808 1 0.0 1003.5451583737076 178.93972898426037 1143.2682853128954 # Ar
809 809 1 0.0 554.7616370006998 1163.3714523741223 674.4253521822875 # Ar
810 810 1 0.0 953.1866634386464 851.1315438664105 562.4536667160985 # Ar
811 811 1 0.0 762.1854982213869 1089.7385061332805 939.9325788128483 # Ar
812 812 1 0.0 717.1772692494219 412.63907626769236 188.1438797944662 # Ar
813 813 1 0.0 1004.771243317745 682.3708938239565 391.4614196358743 # Ar
814 814 1 0.0 1078.2766997205622 1148.2985885799178 237.42611947940622 # Ar
815 815 1 0.0 1176.980209205201 737.6669575137236 1024.4138009407147 # Ar
816 816 1 0.0 647.0870303280743 583.0056219801993 117.57271092526024 # Ar
817 817 1 0.0 592.1000059764624 513.32828964117 1087.3704662621408 # Ar
818 818 1 0.0 163.7504929805886 199.71112402995428 5.698286929129358 # Ar
819 819 1 0.0 1068.661282088421 1127.0821541618186 1182.3723693163747 # Ar
820 820 1 0.0 945.8867174797755 611.0844572096063 909.4606521681111 # Ar
821 821 1 0.0 217.3975546349234 575.6387729928571 1199.4463338037638 # Ar
822 822 1 0.0 1041.1760895417294 306.01404699559515 862.6209399346436 # Ar
823 823 1 0.0 1015.9810923955041 250.96796826051016 846.1728032369558 # Ar
824 824 1 0.0 323.6975838472662 396.29087522229725 121.97209042621128 # Ar
825 825 1 0.0 191.09130026004584 966.4680248089135 295.1297995310785 # Ar
826 826 1 0.0 151.22974852158987 83.01840809050223 1146.2783731434224 # Ar
827 827 1 0.0 1141.6860467267486 45.031520025483545 667.7891163316611 # Ar
828 828 1 0.0 626.998608237471 446.3554514748289 336.09822676257136 # Ar
829 829 1 0.0 347.3395004082626 1168.555927255785 964.4125157489689 # Ar
830 830 1 0.0 950.254373045132 387.6208552558703 553.478105635884 # Ar
831 831 1 0.0 32.65933941661058 523.1344994849316 202.56266723277403 # Ar
832 832 1 0.0 1075.094400601419 1123.9133805638219 902.3556629428558 # Ar
833 833 1 0.0 292.34230805927837 343.67091626813186 527.832114269197 # Ar
834 834 1 0.0 155.89016278231304 1180.4215723288924 662.3139632608329 # Ar
835 835 1 0.0 1138.6164869031954 299.03973950605035 890.9652219377786 # Ar
836 836 1 0.0 231.50132523958698 1050.7888727669479 159.47764027306002 # Ar
837 837 1 0.0 492.62649586315064 798.9206867873429 518.3915393691996 # Ar
838 838 1 0.0 613.7210981354128 479.71615363238584 979.4151867991612 # Ar
839 839 1 0.0 544.0190631360077 1135.982726182727 1043.438084863905 # Ar
840 840 1 0.0 702.2153361154914 493.01654856283494 808.0646355470748 # Ar
841 841 1 0.0 276.2272569687502 792.6243631274622 1130.6030072201584 # Ar
842 842 1 0.0 1232.3275478826433 705.182900738066 1211.679586262834 # Ar
843 843 1 0.0 75.14411499202436 579.4846465904509 36.04911836737511 # Ar
844 844 1 0.0 854.849847295341 1122.1067027567144 1024.5080352037812 # Ar
845 845 1 0.0 258.55992678695515 941.3944475283356 886.4215198421276 # Ar
846 846 1 0.0 186.79532646677467 478.4005255111351 635.4084625157041 # Ar
847 847 1 0.0 484.65810082447905 883.230694766962 829.1943868446195 # Ar
848 848 1 0.0 900.2783836836829 673.8216208261765 221.7922654501839 # Ar
849 849 1 0.0 362.34299987350613 329.7251836481188 829.5228312105547 # Ar
850 850 1 0.0 0.7512476252469288 1062.3549304334726 193.88432665436676 # Ar
851 851 1 0.0 811.567638892718 1093.4462453946808 715.3116411730875 # Ar
852 852 1 0.0 966.635549134362 1041.5227206947961 619.6578250207915 # Ar
853 853 1 0.0 1048.9319697061878 635.5934596683259 570.2615559156368 # Ar
854 854 1 0.0 788.1141512180084 40.793899158428296 202.00501491945747 # Ar
855 855 1 0.0 136.88458962267248 166.50861979017293 936.1408267102105 # Ar
856 856 1 0.0 526.5601606759135 578.5806039692367 910.3685471392665 # Ar
857 857 1 0.0 1048.84484548654 728.7268685216386 833.3666343980622 # Ar
858 858 1 0.0 32.38786865749792 251.14697524392682 52.00880446002901 # Ar
859 859 1 0.0 711.931011065399 558.2550403573204 1092.0246231365188 # Ar
860 860 1 0.0 620.2820164711313 959.0140137414293 531.0989087091077 # Ar
861 861 1 0.0 806.0671259534206 222.05307876488408 462.68757795858687 # Ar
862 862 1 0.0 212.13019661412562 871.2740221988382 778.3847345086681 # Ar
863 863 1 0.0 1209.1191308148477 651.6219085785734 1120.9272235125693 # Ar
864 864 1 0.0 360.18298689449506 1124.0247526230753 485.52891357976955 # Ar
865 865 1 0.0 161.28670434599397 423.69338117544925 70.26986993838534 # Ar
866 866 1 0.0 1172.8207446953036 457.8243980259181 522.0199320860606 # Ar
867 867 1 0.0 133.00301180295938 1216.3019899160124 839.2703043967047 # Ar
868 868 1 0.0 886.6979555521707 430.2329991927117 892.0983186863286 # Ar
869 869 1 0.0 813.2166934799147 536.2640912034705 649.2222066194679 # Ar
870 870 1 0.0 438.27472992143794 488.49647988073394 1159.1472519128006 # Ar
871 871 1 0.0 620.8170038911301 1128.8724544651068 1173.3434032923549 # Ar
872 872 1 0.0 346.1167963726473 812.7811081756369 1024.8401823106844 # Ar
873 873 1 0.0 551.3976489542713 720.1517737567847 665.6151410643358 # Ar
874 874 1 0.0 467.81487799697965 1201.9362728298374 811.8602961959464 # Ar
875 875 1 0.0 295.64274310950105 1137.1288138149175 506.068192148453 # Ar
876 876 1 0.0 1237.1774608037817 946.6123336626122 1104.5503506840428 # Ar
877 877 1 0.0 784.6526456345292 446.2368425260494 640.1147437343199 # Ar
878 878 1 0.0 126.80275078146092 1060.9430091281865 803.1438171043344 # Ar
879 879 1 0.0 95.53979793623554 264.0374821620007 669.0090882838336 # Ar
880 880 1 0.0 412.57694534576683 823.3279040128741 998.0551468770785 # Ar
881 881 1 0.0 722.9167749567011 879.1284836552934 242.83470310898497 # Ar
882 882 1 0.0 644.7377052108835 201.01194883195376 68.54534495453457 # Ar
883 883 1 0.0 84.28752035411259 1217.3095120723112 157.4066908094471 # Ar
884 884 1 0.0 924.3747291502268 206.96875185678596 443.3905533644887 # Ar
885 885 1 0.0 300.8885181767357 304.56461781612 695.7611559847055 # Ar
886 886 1 0.0 1155.6494217090087 328.50447939985213 542.6093714310498 # Ar
887 887 1 0.0 170.25316342413544 463.75879411911853 1217.3386297324512 # Ar
888 888 1 0.0 1156.7911956438688 954.3132578518135 179.979707245389 # Ar
889 889 1 0.0 454.0661164699553 456.05682935187747 358.4874889645234 # Ar
890 890 1 0.0 24.264949198858034 601.7033975733028 1088.6406107670384 # Ar
891 891 1 0.0 551.4251015415023 812.2321208500177 471.46418299838973 # Ar
892 892 1 0.0 504.5399946746943 487.08104891872915 35.7950473566396 # Ar
893 893 1 0.0 318.01738561156924 909.8231189512052 959.5769271118495 # Ar
894 894 1 0.0 1123.878857390043 1205.6264863327347 752.8193220234701 # Ar
895 895 1 0.0 639.4319939811279 516.2213445258117 127.13578024565382 # Ar
896 896 1 0.0 1053.887320709572 340.02373354205497 1088.1470529672024 # Ar
897 897 1 0.0 835.9789933979267 641.0928769368238 810.0717741771878 # Ar
898 898 1 0.0 381.5705395425634 757.4921341173186 1062.1996115295415 # Ar
899 899 1 0.0 1158.2677754018894 339.1847588640118 167.61800050620448 # Ar
900 900 1 0.0 80.72023269556558 1222.991280796872 1039.1172413458596 # Ar
901 901 1 0.0 819.1110983558166 962.4135579518166 556.5194984386538 # Ar
902 902 1 0.0 291.77863816923826 635.8750754091242 725.0709276043906 # Ar
903 903 1 0.0 648.9899669940833 891.8941587184571 719.0245540524917 # Ar
904 904 1 0.0 209.26981682624205 1154.3493899480866 864.0751401335191 # Ar
905 905 1 0.0 467.83643144430243 624.4224271798597 531.876800898471 # Ar
906 906 1 0.0 1161.5394111029996 534.6453537905024 558.0848421787883 # Ar
907 907 1 0.0 620.5464582835599 560.9953596590569 221.56206865357143 # Ar
908 908 1 0.0 994.4430159306148 379.86791472782846 502.27544573541655 # Ar
909 909 1 0.0 738.770645502372 1023.0355867921861 931.4459463893962 # Ar
910 910 1 0.0 64.89938718368224 898.7424570568104 924.4587687129181 # Ar
911 911 1 0.0 116.1581852665088 489.3755891094527 1143.4361914991723 # Ar
912 912 1 0.0 19.1006377287795 323.9012901281138 826.6302514513482 # Ar
913 913 1 0.0 122.13737223342463 31.23272545170624 1026.7000501448645 # Ar
914 914 1 0.0 586.0141412311609 873.9255919178629 306.77941711601187 # Ar
915 915 1 0.0 35.68823778205613 639.8735632022116 735.6131468189437 # Ar
916 916 1 0.0 856.3713410054839 291.9960159651959 781.1860038860726 # Ar
917 917 1 0.0 845.4401033520204 409.41441462833046 482.1477379320195 # Ar
918 918 1 0.0 1017.3351973284223 881.8547722867523 1058.9845728728296 # Ar
919 919 1 0.0 977.8145009302219 1029.5557833283779 1030.7379230361357 # Ar
920 920 1 0.0 910.869939146462 33.329380556079656 531.2270804004935 # Ar
921 921 1 0.0 105.15312625850879 29.895056347490645 820.9286825329475 # Ar
922 922 1 0.0 677.3644650338641 526.0356643782488 554.4808348206042 # Ar
923 923 1 0.0 1114.6038826890547 1060.3499041528103 743.9849868202026 # Ar
924 924 1 0.0 309.816322706487 55.74969630880745 453.46794184883515 # Ar
925 925 1 0.0 469.2964434863529 231.04902617944606 237.46046311996153 # Ar
926 926 1 0.0 1211.6548982891084 1035.3825856998365 668.5709247629121 # Ar
927 927 1 0.0 798.3677801735608 989.6884366814608 683.54737091385 # Ar
928 928 1 0.0 430.55023618006135 476.4439467305001 381.7587182946602 # Ar
929 929 1 0.0 1192.6662898652858 1140.929930912267 352.3218189497497 # Ar
930 930 1 0.0 416.1599561963084 106.04607408071362 510.69327931791327 # Ar
931 931 1 0.0 657.3999006537922 469.7799064967391 840.4833301251116 # Ar
932 932 1 0.0 474.29183893218146 1219.756771237815 77.84153548982137 # Ar
933 933 1 0.0 121.1630803622688 966.4611866402738 234.0410915218363 # Ar
934 934 1 0.0 932.0819248073815 37.453205253816364 809.8716465821315 # Ar
935 935 1 0.0 765.9344216549991 493.92284603515714 300.7175250085588 # Ar
936 936 1 0.0 99.71259142169153 695.8775777893636 680.665988426892 # Ar
937 937 1 0.0 720.3716173187614 817.621103781522 817.8889478699018 # Ar
938 938 1 0.0 922.0719640394494 1186.2561173042793 24.36243865327302 # Ar
939 939 1 0.0 1112.3209571250939 584.7695133043103 479.76753302618005 # Ar
940 940 1 0.0 384.8973726290597 112.70863261223091 554.6273448226783 # Ar
941 941 1 0.0 667.3498954474628 1191.269539758045 924.3874659577486 # Ar
942 942 1 0.0 945.2201199613228 882.6339325475235 150.69137239639053 # Ar
943 943 1 0.0 628.6542575626415 272.2694381247763 520.317552354448 # Ar
944 944 1 0.0 1128.666039406397 473.50395533267 329.5348073851551 # Ar
945 945 1 0.0 223.43999668880292 563.8383918135502 788.4461092742663 # Ar
946 946 1 0.0 16.171602080971894 575.8007800741792 610.0030868747565 # Ar
947 947 1 0.0 133.76677464016169 296.93257006160337 704.7990727360668 # Ar
948 948 1 0.0 400.8472110551593 318.3449784821469 267.00240510534536 # Ar
949 949 1 0.0 556.2678443827486 65.26429767590568 678.5368772319629 # Ar
950 950 1 0.0 347.7165837268805 1114.070522890381 1105.077515672348 # Ar
951 951 1 0.0 445.9172440980592 166.2183576263796 478.13144356884345 # Ar
952 952 1 0.0 1160.8737894824626 254.34774507636507 289.8923441745469 # Ar
953 953 1 0.0 211.61717040006528 460.49915989213866 132.9182654460683 # Ar
954 954 1 0.0 403.15961581198593 1051.4990618126674 905.0819709361588 # Ar
955 955 1 0.0 367.09664060461216 194.81774648885545 599.337074845546 # Ar
956 956 1 0.0 634.2375148255525 16.308703080532947 849.8572294694067 # Ar
957 957 1 0.0 603.5644053707654 754.8488101283763 986.1894250116067 # Ar
958 958 1 0.0 387.268863424001 206.37116544121292 74.48336536330254 # Ar
959 959 1 0.0 280.84708342431986 859.0000975295486 568.1734997860761 # Ar
960 960 1 0.0 405.4608114633548 408.26818432820323 818.4312909026737 # Ar
961 961 1 0.0 912.1807632156472 1104.5874504638084 1092.5090068240672 # Ar
962 962 1 0.0 1216.4715856526248 388.4654617860016 511.64319061084547 # Ar
963 963 1 0.0 210.69867178831421 279.3647765225808 970.6776092009668 # Ar
964 964 1 0.0 63.03583170296582 266.0435905775233 757.2226268503535 # Ar
965 965 1 0.0 1034.1025814872864 720.0103827866816 1017.4089876438875 # Ar
966 966 1 0.0 392.81137766103456 120.44848784677563 102.56904462391856 # Ar
967 967 1 0.0 220.9116459802434 457.0007956889565 1060.088530930679 # Ar
968 968 1 0.0 429.0860390734597 1170.3040752469722 553.0994814176972 # Ar
969 969 1 0.0 311.4696516972304 363.3872379134129 1100.3485120223045 # Ar
970 970 1 0.0 1105.2675488116765 398.1292170354916 429.79252404776554 # Ar
971 971 1 0.0 593.2869498854388 263.0761996940766 958.6753633977141 # Ar
972 972 1 0.0 839.75985510245 725.2754021624922 860.9970038379392 # Ar
973 973 1 0.0 40.58349904296223 189.25613871639106 764.2807743139716 # Ar
974 974 1 0.0 772.8073875706717 652.5349764019583 848.3990794528058 # Ar
975 975 1 0.0 562.3117495839507 275.0317904174911 739.0175640664477 # Ar
976 976 1 0.0 845.1599227237385 202.9557359150092 1058.6313757652815 # Ar
977 977 1 0.0 1009.900987518678 280.42506922140956 200.4755328927098 # Ar
978 978 1 0.0 261.66393919834866 832.4629609042761 209.71814195052204 # Ar
979 979 1 0.0 848.3774917899492 1083.259951114764 229.762950892371 # Ar
980 980 1 0.0 332.0484328356418 757.8766718652358 593.3132039748106 # Ar
981 981 1 0.0 1106.0674022050846 956.4636250095363 256.8436305039077 # Ar
982 982 1 0.0 23.681815680881783 969.7938454435862 783.5817923788826 # Ar
983 983 1 0.0 769.3903790724146 480.52152317379887 810.368405903716 # Ar
984 984 1 0.0 475.615614016052 257.349245969127 280.0189619089006 # Ar
985 985 1 0.0 1011.639966807319 749.8074688798554 494.17479887646635 # Ar
986 986 1 0.0 1146.7100998213184 122.92517442498884 724.3673528513966 # Ar
987 987 1 0.0 477.380429971737 890.4606047321425 1093.2120028598672 # Ar
988 988 1 0.0 1067.5367069981278 942.7098716863958 327.3923701041149 # Ar
989 989 1 0.0 47.712242929496234 1107.2241262968867 405.5784836352864 # Ar
990 990 1 0.0 1069.102117312568 770.5189901380422 954.4460591863932 # Ar
991 991 1 0.0 775.7333978992993 155.3664050823866 372.3076723547504 # Ar
992 992 1 0.0 257.1245682577368 1174.8465949486877 1155.276636678381 # Ar
993 993 1 0.0 709.3026704817441 711.3815747262639 842.4259153816531 # Ar
994 994 1 0.0 669.9562305940602 885.2064608416291 1048.9353540421343 # Ar
995 995 1 0.0 498.2635394348134 680.3950447941086 1122.6444687776573 # Ar
996 996 1 0.0 818.323828429712 138.05358614500855 1026.8579596278703 # Ar
997 997 1 0.0 37.142606791510154 440.96455711492393 862.3863202063027 # Ar
998 998 1 0.0 982.62240192567 91.09222843610964 681.0809314173838 # Ar
999 999 1 0.0 700.5288352168683 289.7278222133425 937.4725654272323 # Ar
1000 1000 1 0.0 353.7363140483523 1075.2912869739325 952.0948342097558 # Ar
1001 1001 1 0.0 693.5770801088095 30.760160941756407 131.9532464166694 # Ar
1002 1002 1 0.0 609.7828342576584 1047.1848089544435 483.5868178137991 # Ar
1003 1003 1 0.0 1145.7463759017508 79.06961150351832 1072.7397374483285 # Ar
1004 1004 1 0.0 191.65344518562677 794.5490453848971 499.1750996190672 # Ar
1005 1005 1 0.0 279.40845823155854 465.6179869280728 1195.8537188426662 # Ar
1006 1006 1 0.0 581.4344354688882 465.7263178978047 484.7870145925396 # Ar
1007 1007 1 0.0 998.8970911239006 134.15966457989074 981.765216708521 # Ar
1008 1008 1 0.0 769.9910450400349 82.68653273747468 22.256667185248464 # Ar
1009 1009 1 0.0 1112.7653887500664 486.4427586032929 815.7907185924606 # Ar
1010 1010 1 0.0 824.0873016485292 387.7956807186582 932.5598112105316 # Ar
1011 1011 1 0.0 159.3849784957395 811.1391936772701 555.1566821052735 # Ar
1012 1012 1 0.0 225.35798593707392 551.0779366116828 353.55620782262594 # Ar
1013 1013 1 0.0 1227.366024332759 867.1267618733673 59.105231783581175 # Ar
1014 1014 1 0.0 370.0993801990517 1187.9031765706911 865.9091421220572 # Ar
1015 1015 1 0.0 77.4635901156687 632.7213421451474 1039.836080155089 # Ar
1016 1016 1 0.0 967.6404691835725 519.39227761707 196.00313785593428 # Ar
1017 1017 1 0.0 748.5178405154542 609.9971694393998 118.95900573922172 # Ar
1018 1018 1 0.0 365.0663138184222 1030.497539434797 264.2829818479763 # Ar
1019 1019 1 0.0 536.7816571556274 952.4166585877645 929.417964195294 # Ar
1020 1020 1 0.0 1013.1053177888241 1079.393523505132 878.2054527971579 # Ar
1021 1021 1 0.0 1081.2864687221206 370.7932227343788 411.55429380434833 # Ar
1022 1022 1 0.0 215.47772088430023 980.3106682174457 119.30919821526085 # Ar
1023 1023 1 0.0 841.8658795692224 1175.9215458006115 871.4077692780394 # Ar
1024 1024 1 0.0 155.18398995710214 544.2938648852735 1060.2200564078041 # Ar
1025 1025 1 0.0 1176.6257871233577 1162.7237148713184 338.8590657612163 # Ar
1026 1026 1 0.0 874.4754295491703 928.0404779839179 851.4639494117106 # Ar
1027 1027 1 0.0 299.8574806545242 111.70163855998341 344.57686383547264 # Ar
1028 1028 1 0.0 962.0553342800682 166.84339903685225 523.1028461085228 # Ar
1029 1029 1 0.0 81.94230809436944 14.610304430910295 713.1134818071343 # Ar
1030 1030 1 0.0 551.8922193824149 1106.1447186144171 539.1185836015806 # Ar
1031 1031 1 0.0 234.18654065614078 809.5697543685392 119.11458095136669 # Ar
1032 1032 1 0.0 585.6084677714109 38.553706215529296 1133.0598524678933 # Ar
1033 1033 1 0.0 450.75256372663347 66.90189021691079 53.26593188878003 # Ar
1034 1034 1 0.0 755.558201627558 1238.0624397910508 1212.0157611820132 # Ar
1035 1035 1 0.0 816.6232496031809 688.3565350188591 493.8782877970074 # Ar
1036 1036 1 0.0 312.7187337303644 791.8766763274731 462.92128004334256 # Ar
1037 1037 1 0.0 330.0304599871508 902.771448044186 666.4854160111445 # Ar
1038 1038 1 0.0 1066.2887664949444 332.9339280623566 437.1680521276951 # Ar
1039 1039 1 0.0 362.45374664253154 100.8576771589046 118.20467953151022 # Ar
1040 1040 1 0.0 93.65801838208412 1057.7560043921683 955.1585589402865 # Ar
1041 1041 1 0.0 1225.3683133916052 300.4443668766142 58.44090606669378 # Ar
1042 1042 1 0.0 498.2483435236681 854.0942658656644 838.9118280589003 # Ar
1043 1043 1 0.0 635.5834619800906 787.6263401810025 80.40197783346103 # Ar
1044 1044 1 0.0 862.0716043618885 964.5151231861992 560.0699979805095 # Ar
1045 1045 1 0.0 492.40469847912254 392.138527335622 1220.3383255120082 # Ar
1046 1046 1 0.0 954.8445419971797 903.9626440431929 1040.3412502832302 # Ar
1047 1047 1 0.0 334.8771645889021 786.788149988219 432.14644288953303 # Ar
1048 1048 1 0.0 398.0537355552165 266.07649053221417 492.33396012707556 # Ar
1049 1049 1 0.0 262.2472699815645 1127.495817278173 928.1519692209833 # Ar
1050 1050 1 0.0 864.4667334962613 1220.459607027948 992.7666772096891 # Ar
1051 1051 1 0.0 1075.4115434054984 394.62051299297815 1113.3928682845938 # Ar
1052 1052 1 0.0 875.7364332752423 412.19772691175416 301.4470515673642 # Ar
1053 1053 1 0.0 242.22665646227603 288.15410290377184 931.979610600054 # Ar
1054 1054 1 0.0 341.40748229380154 865.1702093123878 691.6947250646366 # Ar
1055 1055 1 0.0 1106.3837497421432 201.45517442942827 1159.7088321939527 # Ar
1056 1056 1 0.0 987.8054463036312 96.0976506296965 1040.6476887376564 # Ar
1057 1057 1 0.0 653.5767672717975 977.5384214339363 589.8032288723068 # Ar
1058 1058 1 0.0 198.76725254661488 926.9571739846032 391.6597735446614 # Ar
1059 1059 1 0.0 572.0710226318195 355.88277378283516 775.1740999877223 # Ar
1060 1060 1 0.0 653.2846891716348 362.4425034778022 463.9543943912768 # Ar
1061 1061 1 0.0 237.85651249265885 375.0856299127111 277.58113717069136 # Ar
1062 1062 1 0.0 721.4340440098123 626.6660345124877 597.6267942354286 # Ar
1063 1063 1 0.0 776.9123454069401 1038.235202494866 721.7974941886239 # Ar
1064 1064 1 0.0 390.82105337481477 498.51177867165836 469.94490734027687 # Ar
1065 1065 1 0.0 1086.66561661712 883.0909029084985 1088.0270349752514 # Ar
1066 1066 1 0.0 862.6359767248978 949.7135936908198 245.0825659908882 # Ar
1067 1067 1 0.0 493.187823939466 61.33032755715682 293.8233373400449 # Ar
1068 1068 1 0.0 681.7722561539872 945.7573717681307 979.3660816255461 # Ar
1069 1069 1 0.0 7.466288430275943 675.4136430851336 875.3415166049822 # Ar
1070 1070 1 0.0 271.7260827327938 1085.0649277010841 308.64128737562714 # Ar
1071 1071 1 0.0 973.1163940003108 1103.439466403551 85.79936543816963 # Ar
1072 1072 1 0.0 267.4146002566935 1004.3661063136176 1107.4076224672071 # Ar
1073 1073 1 0.0 627.854565150014 702.0841839508623 589.8374182234095 # Ar
1074 1074 1 0.0 997.8358687235645 548.6461482776338 750.5788847232789 # Ar
1075 1075 1 0.0 318.1053126253347 922.5666023707125 120.99103016099349 # Ar
1076 1076 1 0.0 116.85473073103891 769.842975889869 77.64310424674395 # Ar
1077 1077 1 0.0 291.58796107401156 878.3845693853136 724.8863201637031 # Ar
1078 1078 1 0.0 18.286055376984397 653.0886247021135 361.9013362391552 # Ar
1079 1079 1 0.0 808.0239626235506 648.6628966009357 595.0880459273128 # Ar
1080 1080 1 0.0 24.007938019969863 982.7887746178417 178.72552497676764 # Ar
1081 1081 1 0.0 101.46893306407807 886.3133231608219 253.9270062648299 # Ar
1082 1082 1 0.0 665.5983984381414 560.865284933043 771.0888387704509 # Ar
1083 1083 1 0.0 1120.1514471870971 830.0941184712119 473.3080102354437 # Ar
1084 1084 1 0.0 1222.13457287121 47.01159125877361 67.19754397721503 # Ar
1085 1085 1 0.0 951.524476711024 652.148348774416 226.4169776006168 # Ar
1086 1086 1 0.0 1039.3716197012498 333.76788016329925 1122.9041432208157 # Ar
1087 1087 1 0.0 210.42330030148355 392.9700255097712 652.6331462682164 # Ar
1088 1088 1 0.0 64.49022003218202 118.61815849047014 235.6685574099021 # Ar
1089 1089 1 0.0 678.0170070997931 763.9249552551813 460.2545645242698 # Ar
1090 1090 1 0.0 558.953097515929 878.6425494944668 866.2481026327966 # Ar
1091 1091 1 0.0 874.0945819462348 1191.5210472154681 824.161701902713 # Ar
1092 1092 1 0.0 1005.5325995404412 616.9248905437959 795.7655152014652 # Ar
1093 1093 1 0.0 527.9625145013988 1057.5004878118061 1076.4030751192563 # Ar
1094 1094 1 0.0 307.12740315215484 588.8066073451216 899.0403407870367 # Ar
1095 1095 1 0.0 237.89885168802098 552.1723531060906 98.81787105291416 # Ar
1096 1096 1 0.0 99.29260772681415 825.6518824231146 273.0224144472951 # Ar
1097 1097 1 0.0 1129.6145614269456 65.03564392821274 531.4547630890011 # Ar
1098 1098 1 0.0 151.55811754549484 54.943202667711546 810.4965676302133 # Ar
1099 1099 1 0.0 403.4519345079477 456.595223678451 845.0422084984987 # Ar
1100 1100 1 0.0 1120.4481337454283 1164.58642021141 1186.676940946084 # Ar
1101 1101 1 0.0 607.6063925658707 1180.8528459517584 150.3271815019661 # Ar
1102 1102 1 0.0 836.6228616529171 769.2541700054901 1164.244878396396 # Ar
1103 1103 1 0.0 983.6718817543242 371.667081692971 202.51175555202713 # Ar
1104 1104 1 0.0 890.7911114651858 837.654961346056 232.22424431408731 # Ar
1105 1105 1 0.0 972.4836826128598 271.6471014314864 430.8769305207795 # Ar
1106 1106 1 0.0 993.324844186131 572.0342863811478 429.8926155940586 # Ar
1107 1107 1 0.0 1063.444170676453 1032.9204301576535 1223.3069704206255 # Ar
1108 1108 1 0.0 968.3774947624138 1195.254300611669 1079.5568919534023 # Ar
1109 1109 1 0.0 587.6191613937881 650.769590675933 1140.435492256516 # Ar
1110 1110 1 0.0 324.44029668558903 328.2094290227766 869.6193501438885 # Ar
1111 1111 1 0.0 1078.0993464558073 1233.233783860407 286.07526947815023 # Ar
1112 1112 1 0.0 31.601181434425136 568.1148498260161 393.9220434783433 # Ar
1113 1113 1 0.0 868.4702181620085 398.2477711028493 678.252240422687 # Ar
1114 1114 1 0.0 593.7685838325615 659.5730807936955 1138.93274374561 # Ar
1115 1115 1 0.0 396.18027994713805 860.0912559733657 186.33740902551975 # Ar
1116 1116 1 0.0 906.944957716855 1037.7632047221819 431.466063720423 # Ar
1117 1117 1 0.0 917.5352308711471 668.4541446252997 859.0320187011191 # Ar
1118 1118 1 0.0 650.7799428669512 1070.5380975889775 1133.1438688102241 # Ar
1119 1119 1 0.0 723.2101209900295 532.0653921120858 1221.692478306371 # Ar
1120 1120 1 0.0 81.52425060864648 217.83032247282733 1131.0997621386698 # Ar
1121 1121 1 0.0 986.5466561133849 214.37848645503522 828.3782969958564 # Ar
1122 1122 1 0.0 18.56034024449926 654.7957413750638 195.86742927351935 # Ar
1123 1123 1 0.0 866.7525628376761 1170.084176469592 736.617420903722 # Ar
1124 1124 1 0.0 43.73313282380795 892.8186970020218 415.8614036298479 # Ar
1125 1125 1 0.0 477.94219201632313 151.4113107345555 292.52214830315836 # Ar
1126 1126 1 0.0 41.14298850133053 118.91282129208034 543.9521578486901 # Ar
1127 1127 1 0.0 344.98206132879915 16.67200953119993 1147.025758893546 # Ar
1128 1128 1 0.0 800.3451651712185 314.22133835009504 960.7897372794476 # Ar
1129 1129 1 0.0 946.7217163643099 540.7681733531513 131.4952462538934 # Ar
1130 1130 1 0.0 264.11685601678414 809.9144280453079 720.0640456459746 # Ar
1131 1131 1 0.0 917.3143236701668 1165.6208151665005 916.8249598346731 # Ar
1132 1132 1 0.0 969.7922792568436 621.3674240474829 1149.516318202506 # Ar
1133 1133 1 0.0 608.4950568712098 510.6689778246479 280.2853180890942 # Ar
1134 1134 1 0.0 723.0653854220891 320.7387597814692 363.69933463057623 # Ar
1135 1135 1 0.0 62.13738230571827 434.61404057228697 871.2778973829501 # Ar
1136 1136 1 0.0 135.6774307442148 65.41403105988898 1159.6110649989525 # Ar
1137 1137 1 0.0 203.29225246968386 726.466941815655 842.3276093582183 # Ar
1138 1138 1 0.0 644.2480498525413 474.1127604585104 847.8227837810952 # Ar
1139 1139 1 0.0 421.87350905288497 957.6639681719342 138.75470216712228 # Ar
1140 1140 1 0.0 500.1333805155906 265.9495717824791 757.9297671197971 # Ar
1141 1141 1 0.0 819.0885976537515 110.43675115703084 1200.940982780157 # Ar
1142 1142 1 0.0 441.9888068066609 830.7468576912837 558.3944512633407 # Ar
1143 1143 1 0.0 523.8136378587997 386.16273705073405 630.6160227218379 # Ar
1144 1144 1 0.0 1193.8991369092794 16.277957871814614 67.53237882871277 # Ar
1145 1145 1 0.0 195.55285386047916 431.27294159312214 61.17702936969955 # Ar
1146 1146 1 0.0 82.96287703402918 1137.8653866248221 583.3755739933619 # Ar
1147 1147 1 0.0 267.049970640305 997.8728341435993 78.5873056118874 # Ar
1148 1148 1 0.0 205.66041032367085 654.699945063559 998.1737973829788 # Ar
1149 1149 1 0.0 140.64163453768086 326.52726353514885 1223.0136393312875 # Ar
1150 1150 1 0.0 926.8949813773754 1062.420204966668 118.48555359575354 # Ar
1151 1151 1 0.0 386.90557901832307 90.01052949476484 877.8374658796012 # Ar
1152 1152 1 0.0 1237.7270337520938 850.6905782272639 431.38636441921165 # Ar
1153 1153 1 0.0 612.3192503003505 625.2827501486273 335.1190214954903 # Ar
1154 1154 1 0.0 130.98710302927284 582.7456670057929 746.6742372076478 # Ar
1155 1155 1 0.0 841.8769690780655 1197.3026960227076 158.63883377078915 # Ar
1156 1156 1 0.0 1087.6847800725666 757.0117968871307 1126.165887805758 # Ar
1157 1157 1 0.0 54.1580845505277 101.14744293528223 75.92440768317054 # Ar
1158 1158 1 0.0 495.0903045106193 1066.7484777867455 575.7343270603888 # Ar
1159 1159 1 0.0 914.0229141478437 884.839973879089 481.476047219886 # Ar
1160 1160 1 0.0 327.4626307515402 448.2334485325955 975.014245801744 # Ar
1161 1161 1 0.0 709.5244880935205 1172.0231175735898 41.171723922648866 # Ar
1162 1162 1 0.0 427.4772950095841 257.07627601437673 2.2066105566728056 # Ar
1163 1163 1 0.0 1152.3340967046806 1175.085407824529 963.2677043737153 # Ar
1164 1164 1 0.0 1158.7943968125746 16.27666373435007 1136.178697377846 # Ar
1165 1165 1 0.0 626.585174858828 485.51102563115273 352.91866587420543 # Ar
1166 1166 1 0.0 1082.6531519848918 140.48416321468883 1047.6802274743966 # Ar
1167 1167 1 0.0 778.3835234515615 948.7422957089799 255.330574454046 # Ar
1168 1168 1 0.0 1119.2962032746227 1102.6203967010144 676.6238591351624 # Ar
1169 1169 1 0.0 590.8156616734976 6.226160664885642 160.1294890709874 # Ar
1170 1170 1 0.0 59.0227398411123 1047.7974286779174 756.9622000256813 # Ar
1171 1171 1 0.0 449.25840519856916 180.08634037191126 653.1766255814928 # Ar
1172 1172 1 0.0 826.569849796561 344.24475239340563 425.05447889810415 # Ar
1173 1173 1 0.0 915.1389585394821 745.3105466084065 368.206771338191 # Ar
1174 1174 1 0.0 497.21025215105266 464.7793878409269 270.47553526679104 # Ar
1175 1175 1 0.0 915.4319123447009 914.5565701686786 504.848667952452 # Ar
1176 1176 1 0.0 706.6325394570312 952.6681309616985 532.4611783527456 # Ar
1177 1177 1 0.0 140.65027775806612 1205.627909158106 1222.8966721459544 # Ar
1178 1178 1 0.0 1121.3777069868495 460.4159822900574 1041.2787762556954 # Ar
1179 1179 1 0.0 877.9467702186342 634.3825749826019 899.7243131634876 # Ar
1180 1180 1 0.0 1035.4069506164865 1085.100937646178 868.5064763026547 # Ar
1181 1181 1 0.0 193.84708501314228 251.44654441808987 430.0540196405833 # Ar
1182 1182 1 0.0 520.4281033548389 794.4805221248747 1091.425138646924 # Ar
1183 1183 1 0.0 1217.0341568228728 348.18019164448805 1031.652076600493 # Ar
1184 1184 1 0.0 199.12530908806582 738.1486651587968 992.705294489047 # Ar
1185 1185 1 0.0 102.96247828135635 609.6578532850264 1140.8308961791076 # Ar
1186 1186 1 0.0 521.1455207659158 172.9670633553987 955.6675001775388 # Ar
1187 1187 1 0.0 849.6333433766757 37.69835518221269 831.2584329702529 # Ar
1188 1188 1 0.0 891.7375360234852 667.6053854586064 441.52727673362966 # Ar
1189 1189 1 0.0 1009.3168765304625 336.8056319256396 1081.4709654956507 # Ar
1190 1190 1 0.0 988.460329932406 489.20453338321306 1081.3728174127943 # Ar
1191 1191 1 0.0 583.806347917921 1097.5902707366915 415.4030376235739 # Ar
1192 1192 1 0.0 570.5582187512692 771.3929211723604 895.3274436894473 # Ar
1193 1193 1 0.0 320.5100915021064 496.07660725082013 1178.0350669114846 # Ar
1194 1194 1 0.0 1220.2067128686936 242.5762130230599 369.52160198596005 # Ar
1195 1195 1 0.0 1168.5879590274926 430.98546792633346 287.2015310615279 # Ar
1196 1196 1 0.0 936.3565635833692 1053.0720249487629 273.1873377716945 # Ar
1197 1197 1 0.0 1015.6630886894555 1223.8169959799818 159.83322334863135 # Ar
1198 1198 1 0.0 711.571162068032 30.086754440255028 962.6393599737457 # Ar
1199 1199 1 0.0 892.0518987778092 1151.2304990378213 1169.4820001193814 # Ar
1200 1200 1 0.0 372.7431349016909 416.3160123380656 386.3526733813758 # Ar
1201 1201 1 0.0 540.9475111584698 602.394456478825 583.7670369181533 # Ar
1202 1202 1 0.0 435.97618594889025 1167.674668391814 623.8198983230234 # Ar
1203 1203 1 0.0 783.9815819502135 828.294221000554 26.20029160060586 # Ar
1204 1204 1 0.0 594.0967585910088 1120.082795588272 824.7108192466335 # Ar
1205 1205 1 0.0 265.4660909371163 479.8387743610566 1062.541851500812 # Ar
1206 1206 1 0.0 1080.7584224403358 278.5088612079478 637.1034197450864 # Ar
1207 1207 1 0.0 615.6538180195789 635.4970711367797 719.8261795208942 # Ar
1208 1208 1 0.0 1094.4548164438283 1079.357316484145 50.79964875461429 # Ar
1209 1209 1 0.0 440.99424065537596 1215.857907243465 192.97740041414804 # Ar
1210 1210 1 0.0 417.04101956984044 172.5423330595108 40.78648960702823 # Ar
1211 1211 1 0.0 509.26640076845626 38.49951295780243 52.535129820190015 # Ar
1212 1212 1 0.0 463.07801079959665 696.5659364065506 303.65937916513974 # Ar
1213 1213 1 0.0 437.70427667515725 550.294994840123 1195.4364382377032 # Ar
1214 1214 1 0.0 567.6310439825878 580.4216933584911 42.40593560384659 # Ar
1215 1215 1 0.0 967.1310842896531 688.1673849446922 547.1643591066814 # Ar
1216 1216 1 0.0 1048.6597033122662 142.24294939810477 641.6653580529196 # Ar
1217 1217 1 0.0 1030.5886217039897 110.68429334046401 449.5565746268645 # Ar
1218 1218 1 0.0 808.6052201012537 1051.6214865131967 1134.88121522773 # Ar
1219 1219 1 0.0 1095.8460175374923 486.22010691914744 2.5305999964217056 # Ar
1220 1220 1 0.0 1128.5152741751608 586.6966623810332 891.3532288281239 # Ar
1221 1221 1 0.0 355.4546037980866 596.17281047701 1202.183358388549 # Ar
1222 1222 1 0.0 291.4741389536369 425.242698222169 332.33908323484593 # Ar
1223 1223 1 0.0 117.99813899252744 987.3642975145809 1072.364103186973 # Ar
1224 1224 1 0.0 27.128676896167622 399.32736196545636 64.31955916282075 # Ar
1225 1225 1 0.0 863.8762844898021 598.1193272074871 831.2876849821603 # Ar
1226 1226 1 0.0 906.7893846766035 595.310660846641 681.5259437759174 # Ar
1227 1227 1 0.0 342.56495677083893 3.320115489871024 339.7626011146264 # Ar
1228 1228 1 0.0 1026.5661157629092 285.8113445587312 88.91821353476435 # Ar
1229 1229 1 0.0 828.5231371478365 570.0870669727183 37.76112523916066 # Ar
1230 1230 1 0.0 118.16268079267532 136.05864616729068 811.4845183985142 # Ar
1231 1231 1 0.0 531.8431773058603 1238.3164959498467 945.2482533528736 # Ar
1232 1232 1 0.0 1161.3388600221442 1219.3530481066389 1161.4573398358418 # Ar
1233 1233 1 0.0 1123.155553981089 1107.988428652276 1228.6440487116847 # Ar
1234 1234 1 0.0 273.1522439940318 180.10281414098228 1126.171725164489 # Ar
1235 1235 1 0.0 1092.6260799800993 733.5595104166708 673.0550477365996 # Ar
1236 1236 1 0.0 322.9978734339856 948.5360615614034 158.57783823977172 # Ar
1237 1237 1 0.0 380.2279261830904 579.7755864098517 1189.1586154183715 # Ar
1238 1238 1 0.0 177.11320047400125 821.7502434115478 1061.0872573127554 # Ar
1239 1239 1 0.0 122.99320169038123 204.2107694919351 281.8721751342457 # Ar
1240 1240 1 0.0 921.7268429496438 199.1900723507877 581.3891226021653 # Ar
1241 1241 1 0.0 816.5231789432893 231.20588361029607 1013.400232134539 # Ar
1242 1242 1 0.0 386.58472265838697 1177.355208024553 952.3401469952979 # Ar
1243 1243 1 0.0 1011.1156212128677 670.3218093340329 284.43944462889834 # Ar
1244 1244 1 0.0 816.1786587725676 837.6714706744301 133.67991363866668 # Ar
1245 1245 1 0.0 534.3380972194059 556.1342531633478 574.6001889173851 # Ar
1246 1246 1 0.0 956.0841438781854 449.6787312038801 413.70538498231736 # Ar
1247 1247 1 0.0 565.2016788245688 337.8541348338294 620.7731624379726 # Ar
1248 1248 1 0.0 561.3949969506326 283.4546737169843 901.5421284905528 # Ar
1249 1249 1 0.0 667.5942103747959 1013.445526931561 661.4724919664985 # Ar
1250 1250 1 0.0 501.1193502718064 328.2937726161977 678.0261427371851 # Ar
1251 1251 1 0.0 313.69948680690334 548.234894077925 707.4145145071113 # Ar
1252 1252 1 0.0 212.42567479528404 961.9252579710718 730.5093937821961 # Ar
1253 1253 1 0.0 897.8321961162542 631.6245192396232 466.70080404830594 # Ar
1254 1254 1 0.0 496.09781906582583 1188.7929432969142 130.46170988575074 # Ar
1255 1255 1 0.0 168.60406569261062 479.24408948278307 599.1926268708381 # Ar
1256 1256 1 0.0 562.9412468145438 962.5788383200268 1135.839026174146 # Ar
1257 1257 1 0.0 1232.4291651820395 163.11668838326818 216.61381353123602 # Ar
1258 1258 1 0.0 800.0268627907059 197.86283175735454 19.465043244495075 # Ar
1259 1259 1 0.0 255.99401051081895 1185.2675602260267 537.1651105566108 # Ar
1260 1260 1 0.0 496.6906799473856 624.0181835910086 249.98865345222944 # Ar
1261 1261 1 0.0 898.8062575357767 744.1118317206952 159.5544103295303 # Ar
1262 1262 1 0.0 666.4528456051838 603.0105207710452 184.1282603259923 # Ar
1263 1263 1 0.0 376.69187031236453 1040.9497637071752 452.3398542174317 # Ar
1264 1264 1 0.0 86.55458870078782 7.693921510353598 577.6235464841511 # Ar
1265 1265 1 0.0 366.8719686951853 1032.2433186039113 459.5549625638941 # Ar
1266 1266 1 0.0 355.23289591891813 975.4860561761271 859.9769211023918 # Ar
1267 1267 1 0.0 997.9431275288941 481.12352601783647 989.3575499750904 # Ar
1268 1268 1 0.0 550.0811125987905 1115.1953325946813 428.3122148311302 # Ar
1269 1269 1 0.0 614.5809723329666 514.325666125513 539.9207703812551 # Ar
1270 1270 1 0.0 425.4269334401215 875.6781908387195 1196.71122366108 # Ar
1271 1271 1 0.0 1010.2862235750172 224.28515567093652 357.86643963218717 # Ar
1272 1272 1 0.0 1185.003832449411 228.21520868623804 168.89213730000225 # Ar
1273 1273 1 0.0 622.9568963645587 824.0261596736896 724.1714270120474 # Ar
1274 1274 1 0.0 169.99206809620023 1228.4508347182834 676.7736883354884 # Ar
1275 1275 1 0.0 793.1069469038166 115.00195563266283 208.2255755864816 # Ar
1276 1276 1 0.0 1083.6786303021343 625.8404319257451 1088.7442253842921 # Ar
1277 1277 1 0.0 888.6313670804277 785.8978998184456 1009.4364698811123 # Ar
1278 1278 1 0.0 247.18329137477915 869.5706817850347 382.1742049921205 # Ar
1279 1279 1 0.0 843.238350273767 126.28217503135517 974.1004785618511 # Ar
1280 1280 1 0.0 398.8636982406141 1023.8321367287165 720.7387623009018 # Ar
1281 1281 1 0.0 561.6177352950608 368.85296875741443 473.13498335040714 # Ar
1282 1282 1 0.0 757.6525514196361 70.23098581123274 176.46908009719849 # Ar
1283 1283 1 0.0 41.22493964282555 1141.0894025425105 333.36669957915734 # Ar
1284 1284 1 0.0 301.1944352350443 78.29200111951785 795.3072564117372 # Ar
1285 1285 1 0.0 893.3487900195607 628.3008165806987 719.9922470084518 # Ar
1286 1286 1 0.0 373.18826507951894 603.2274352142117 1041.9690397096153 # Ar
1287 1287 1 0.0 839.6019337519107 382.8877267916436 318.17666039144484 # Ar
1288 1288 1 0.0 542.0324241267815 308.0538475910418 129.9318543537255 # Ar
1289 1289 1 0.0 1219.6010547762348 1210.550902288627 1127.3351352091056 # Ar
1290 1290 1 0.0 874.2176384984366 764.4761077757042 782.164606104201 # Ar
1291 1291 1 0.0 830.1704526330183 811.1481556127599 464.57055718253923 # Ar
1292 1292 1 0.0 805.4394441308947 265.143250397031 1115.4383365218632 # Ar
1293 1293 1 0.0 120.1475902948933 206.4405493976012 813.532775184754 # Ar
1294 1294 1 0.0 1202.565169671767 645.8432484419319 222.0456434879978 # Ar
1295 1295 1 0.0 659.0757143956649 67.17273650440461 933.3788141390193 # Ar
1296 1296 1 0.0 852.0308537722075 760.9472231714129 1193.1166964578135 # Ar
1297 1297 1 0.0 180.9347881684894 391.80039284158454 432.22434151725633 # Ar
1298 1298 1 0.0 187.5262249512772 1037.395068461023 594.7038748746678 # Ar
1299 1299 1 0.0 855.332507576719 481.179482719136 306.6242500855892 # Ar
1300 1300 1 0.0 786.5656489758059 319.9681418786171 442.0062636482407 # Ar
1301 1301 1 0.0 972.9644135814004 294.73850337131756 1140.6647508964627 # Ar
1302 1302 1 0.0 683.6909373414558 730.4690693372694 792.3169659111671 # Ar
1303 1303 1 0.0 30.665935044085362 177.65018490213475 1129.8458354153354 # Ar
1304 1304 1 0.0 247.99550311139734 393.0882733763155 887.3773025258424 # Ar
1305 1305 1 0.0 25.47844530071439 614.0903265124218 1210.1080355056233 # Ar
1306 1306 1 0.0 995.987511075581 986.506612974283 770.299838238934 # Ar
1307 1307 1 0.0 652.3583205962652 923.9320245735472 627.864799131898 # Ar
1308 1308 1 0.0 549.825929517795 436.83839306141294 259.207745264524 # Ar
1309 1309 1 0.0 1181.6818669057593 680.9790703885128 318.6455463951384 # Ar
1310 1310 1 0.0 789.8439046930677 428.3193359544633 920.4054315079803 # Ar
1311 1311 1 0.0 525.4574086769064 1085.0178260193607 761.4605537625915 # Ar
1312 1312 1 0.0 737.8358345869352 953.2180588663281 247.71101394712238 # Ar
1313 1313 1 0.0 671.0828408986563 1112.1818500029585 296.65940838620844 # Ar
1314 1314 1 0.0 1163.231382728276 939.1055918555685 834.6040507186486 # Ar
1315 1315 1 0.0 439.8755951565154 274.8087033649408 896.9448333232272 # Ar
1316 1316 1 0.0 1201.2432922347534 425.47211605542475 740.9447643464648 # Ar
1317 1317 1 0.0 716.6283140530784 5.414498998844559 880.969743388494 # Ar
1318 1318 1 0.0 822.2509350372353 826.5106958006896 625.2655204405248 # Ar
1319 1319 1 0.0 199.26963801369328 1005.4150661930047 474.2326523010863 # Ar
1320 1320 1 0.0 1059.7138227712162 1085.1853225883713 1020.5648952591329 # Ar
1321 1321 1 0.0 1162.9794587500187 134.1098529560775 1021.1023524301685 # Ar
1322 1322 1 0.0 520.0638343116918 475.9182976898157 771.959891361521 # Ar
1323 1323 1 0.0 982.6094087895456 204.7928442986868 44.81525683915326 # Ar
1324 1324 1 0.0 835.2190614541673 514.6209726561968 1180.461934320592 # Ar
1325 1325 1 0.0 510.77491670028195 513.4389570914556 722.8033398706392 # Ar
1326 1326 1 0.0 134.81577769556213 863.3377763370661 459.37690288836546 # Ar
1327 1327 1 0.0 912.0330426335307 489.72139966348993 431.7695296189311 # Ar
1328 1328 1 0.0 84.04763620323934 431.8558994725934 579.6442443151378 # Ar
1329 1329 1 0.0 365.99529323278495 445.4435464592445 70.1105028376879 # Ar
1330 1330 1 0.0 265.3510449585327 1084.9142424021056 769.7832317543233 # Ar
1331 1331 1 0.0 1117.761637433427 1239.77685630981 312.3757275933035 # Ar
1332 1332 1 0.0 487.639632877479 1135.7821291205748 1015.7461268986312 # Ar
1333 1333 1 0.0 928.194911943063 585.5960088529405 34.60550751728831 # Ar
1334 1334 1 0.0 981.3557555716613 663.3722556634812 954.965562720767 # Ar
1335 1335 1 0.0 845.2588341395045 786.1692945351151 921.9112825385215 # Ar
1336 1336 1 0.0 7.545393939831153 1011.0622056507659 864.5743678700684 # Ar
1337 1337 1 0.0 1108.0960374323681 527.9316837027321 516.0716987411798 # Ar
1338 1338 1 0.0 217.46996491755178 647.4361705969523 32.13164864100431 # Ar
1339 1339 1 0.0 573.5701434626761 388.5273107586432 1042.007997310692 # Ar
1340 1340 1 0.0 671.2268360969717 906.3308138241762 316.0743317226103 # Ar
1341 1341 1 0.0 975.2926995113475 917.5036061640764 1025.9431736698639 # Ar
1342 1342 1 0.0 855.9405560382053 92.71434576766737 203.88857149516218 # Ar
1343 1343 1 0.0 112.72138501819877 1184.4945289201808 549.4599668252076 # Ar
1344 1344 1 0.0 1104.4708504217842 407.1826594773935 848.7081737655402 # Ar
1345 1345 1 0.0 58.75495877043478 1175.7988861074905 708.2304352037528 # Ar
1346 1346 1 0.0 1117.8644560778332 954.2283594696069 408.80331648839456 # Ar
1347 1347 1 0.0 310.4932200726463 550.5860834940554 419.92772840061315 # Ar
1348 1348 1 0.0 236.5762229127842 1034.1235725281394 739.3287463187271 # Ar
1349 1349 1 0.0 258.6454376737308 272.3342048135804 1007.0831240504407 # Ar
1350 1350 1 0.0 113.84722984891319 570.397474664656 445.49628328327316 # Ar
1351 1351 1 0.0 1053.8834916983028 216.00297506628266 863.4848591025238 # Ar
1352 1352 1 0.0 762.8216986569528 383.4597884316716 112.36708079712943 # Ar
1353 1353 1 0.0 880.2442563808161 638.816736629362 1041.1196854318353 # Ar
1354 1354 1 0.0 120.35725439427625 690.8040582528351 179.37131574769208 # Ar
1355 1355 1 0.0 470.02924920420526 636.6118361870123 559.1149720341174 # Ar
1356 1356 1 0.0 385.35227646568455 358.9303496158071 524.4143088115754 # Ar
1357 1357 1 0.0 1037.2587649860159 356.7167487787283 216.6292081290852 # Ar
1358 1358 1 0.0 1186.9744157994514 148.78769892402204 803.4374921760274 # Ar
1359 1359 1 0.0 811.2789527385462 341.415097092748 1119.2261177777464 # Ar
1360 1360 1 0.0 711.9456859470298 526.5995802270961 757.3487885208126 # Ar
1361 1361 1 0.0 1010.6399787995845 555.1848062504182 315.96122080336266 # Ar
1362 1362 1 0.0 729.9779381293388 352.00189551506384 504.34950211248497 # Ar
1363 1363 1 0.0 1143.7539492584424 485.9813903487779 1210.5396218908015 # Ar
1364 1364 1 0.0 155.0720156701936 1046.199029490787 618.1178786838504 # Ar
1365 1365 1 0.0 207.4022179118859 1044.0208507036539 1237.5604790276777 # Ar
1366 1366 1 0.0 570.9539855245056 494.2165419719592 784.5623277423374 # Ar
1367 1367 1 0.0 506.4861995290638 1034.9920155786192 827.083033979932 # Ar
1368 1368 1 0.0 175.0106508613238 91.90683566030093 353.1722101005094 # Ar
1369 1369 1 0.0 284.2089200013807 484.0990298228418 338.11685829976255 # Ar
1370 1370 1 0.0 856.0031325157444 214.76811921080804 447.3136263013422 # Ar
1371 1371 1 0.0 1086.392066934499 321.6385456749235 1176.4547949547527 # Ar
1372 1372 1 0.0 88.10266767654146 154.47723186022904 647.1640628817355 # Ar
1373 1373 1 0.0 187.98586540084338 1072.3988061568643 1224.748429423889 # Ar
1374 1374 1 0.0 109.08620225804259 271.41521460820684 97.30801601255087 # Ar
1375 1375 1 0.0 618.9461817476038 182.49438904897352 671.5781471200031 # Ar
1376 1376 1 0.0 452.99350202949154 933.3623554671128 180.9352951336587 # Ar
1377 1377 1 0.0 148.82827629726552 96.09271575698843 90.29774957662487 # Ar
1378 1378 1 0.0 577.3181104861117 1021.7414887788976 548.3686409660709 # Ar
1379 1379 1 0.0 40.71434668097299 758.1362527029116 1186.5852638278755 # Ar
1380 1380 1 0.0 434.1413156341323 1159.9937990813905 611.2481003518612 # Ar
1381 1381 1 0.0 1022.5268650242597 1141.5920531819954 495.896752259748 # Ar
1382 1382 1 0.0 249.26053782168094 146.28709125346654 1056.9039225559222 # Ar
1383 1383 1 0.0 994.3820158260554 115.19074030477435 358.7905098498639 # Ar
1384 1384 1 0.0 677.0754784067024 105.35575323811001 244.8321962537373 # Ar
1385 1385 1 0.0 988.4731485529252 1033.4359808938964 444.05771635074814 # Ar
1386 1386 1 0.0 65.58917038950943 30.534646064089408 313.5290923209621 # Ar
1387 1387 1 0.0 1170.6549884318179 414.3379681290247 674.0749435272804 # Ar
1388 1388 1 0.0 1162.556433230992 446.5498793366665 1187.7958330193774 # Ar
1389 1389 1 0.0 1199.2137211078762 334.44788895009344 1114.4703846692535 # Ar
1390 1390 1 0.0 1155.3941162118533 951.4101528418373 278.97456394857215 # Ar
1391 1391 1 0.0 1089.6013337645963 1187.441196059405 254.99977514986 # Ar
1392 1392 1 0.0 245.00212378569861 112.83068287312298 336.23178929960153 # Ar
1393 1393 1 0.0 1150.4288423422133 41.0754259560189 702.3459786726391 # Ar
1394 1394 1 0.0 368.87866967219696 54.6890771646277 1226.1306839411338 # Ar
1395 1395 1 0.0 627.2757069729093 668.5940602955603 700.5419623835639 # Ar
1396 1396 1 0.0 647.3953140090616 176.92884259170398 1209.7788199920117 # Ar
1397 1397 1 0.0 1034.2124649059642 206.8998046621215 465.8372558245392 # Ar
1398 1398 1 0.0 235.24481807849617 328.31335052355337 597.9821874575405 # Ar
1399 1399 1 0.0 308.79591879738507 996.7991720823559 172.74424896145072 # Ar
1400 1400 1 0.0 596.4355633334517 1019.6765063969526 461.71867048902595 # Ar
1401 1401 1 0.0 883.9843486385398 1220.7091150645729 412.7623972801474 # Ar
1402 1402 1 0.0 170.88548196768477 449.7261286020154 513.9206486580231 # Ar
1403 1403 1 0.0 341.4135178263267 1016.5723825916067 570.1544948522599 # Ar
1404 1404 1 0.0 910.9087253286211 107.14911185467531 884.4907540597312 # Ar
1405 1405 1 0.0 419.6594208145591 727.6463678160405 1055.3882767062075 # Ar
1406 1406 1 0.0 86.02979791337157 843.1940463834474 886.152715170263 # Ar
1407 1407 1 0.0 233.3670786905868 216.1707005616704 444.996236775431 # Ar
1408 1408 1 0.0 679.7841268040216 682.9470889912475 207.15408206903112 # Ar
1409 1409 1 0.0 996.6954631942593 406.8204675412228 1027.2481934285304 # Ar
1410 1410 1 0.0 1178.4904823949582 289.52104983397913 869.4633713908818 # Ar
1411 1411 1 0.0 566.7128407699729 26.433968114188236 38.68509970453262 # Ar
1412 1412 1 0.0 133.78102527988358 659.4568715059153 225.7427768307879 # Ar
1413 1413 1 0.0 1094.6263247977613 563.6533901403013 384.0996219410068 # Ar
1414 1414 1 0.0 175.32724391685986 1214.562628047202 1061.0548940671652 # Ar
1415 1415 1 0.0 116.54001760232656 497.11835966995864 792.3734016388541 # Ar
1416 1416 1 0.0 1000.3907054517139 996.9799352941106 1177.9334994459982 # Ar
1417 1417 1 0.0 1204.4154860710069 361.7526310707623 300.2837536708167 # Ar
1418 1418 1 0.0 811.7784818888377 748.8319876103934 989.6831267005294 # Ar
1419 1419 1 0.0 740.8675412004357 496.8548829115343 409.69995831260843 # Ar
1420 1420 1 0.0 496.2544417211376 810.2959166075505 389.72851003681575 # Ar
1421 1421 1 0.0 532.6917373496441 339.9852198227836 1207.2508327820221 # Ar
1422 1422 1 0.0 150.62438947544786 965.9314746753797 1065.2226885874986 # Ar
1423 1423 1 0.0 169.7967655571572 380.5123440899761 550.408425831329 # Ar
1424 1424 1 0.0 881.4519170127138 589.5500003202752 874.6681618593843 # Ar
1425 1425 1 0.0 726.8154998141799 774.6669770295292 345.3451081987709 # Ar
1426 1426 1 0.0 376.89987543493766 780.3557925968496 1194.9138537121748 # Ar
1427 1427 1 0.0 837.6073488519114 296.20713451249134 887.1306660466417 # Ar
1428 1428 1 0.0 218.49789642676294 729.3745201802925 1016.6884245700561 # Ar
1429 1429 1 0.0 998.5627004584462 98.48395115386185 770.3698768822968 # Ar
1430 1430 1 0.0 1080.324002970334 1235.164479691773 803.0278395452061 # Ar
1431 1431 1 0.0 132.4938883914476 1180.9537250412718 386.9830605814545 # Ar
1432 1432 1 0.0 755.6280270136024 715.8343488719872 668.4968256616703 # Ar
1433 1433 1 0.0 1099.2565807517217 1155.6331929535488 923.7080163493915 # Ar
1434 1434 1 0.0 1164.475653702618 753.9602826336678 809.6290016312524 # Ar
1435 1435 1 0.0 326.7918264993469 131.84859909683982 1062.335738082832 # Ar
1436 1436 1 0.0 453.8135457598863 145.2395924119274 168.49624025475953 # Ar
1437 1437 1 0.0 1068.6789518031494 1056.3784225501977 303.85571692158544 # Ar
1438 1438 1 0.0 468.7147261532533 240.8928089776546 452.63193542946533 # Ar
1439 1439 1 0.0 338.19080061792005 103.0387000297177 617.7718615088282 # Ar
1440 1440 1 0.0 907.7452585028183 612.8629591202948 1223.2290257841455 # Ar
1441 1441 1 0.0 924.7536981160266 151.51510800912305 340.403152599362 # Ar
1442 1442 1 0.0 1098.237971137279 1076.5509079677624 470.6460193235037 # Ar
1443 1443 1 0.0 847.687259382547 994.7532995898575 263.250859198584 # Ar
1444 1444 1 0.0 1038.4485164795183 117.23641495688416 469.2691117891591 # Ar
1445 1445 1 0.0 1139.1238394673117 831.6797201228254 2.523855525556138 # Ar
1446 1446 1 0.0 264.52983043555076 127.02146073687099 1017.3284364249472 # Ar
1447 1447 1 0.0 647.8672951745505 8.626997044070743 866.5018676921767 # Ar
1448 1448 1 0.0 371.01648610902265 663.5133808575723 1127.6294155191554 # Ar
1449 1449 1 0.0 1198.2120748591888 569.2066782490458 25.459899602474678 # Ar
1450 1450 1 0.0 723.7971333286398 1053.3983981438582 991.3336367110824 # Ar
1451 1451 1 0.0 937.0489757631739 1158.0679421310012 293.51597035608387 # Ar
1452 1452 1 0.0 290.80682632708147 400.2616130764546 875.9775819348384 # Ar
1453 1453 1 0.0 233.92899754739426 762.0075925107552 1239.915976475487 # Ar
1454 1454 1 0.0 759.3236882582358 74.04722268318477 183.14932032674153 # Ar
1455 1455 1 0.0 98.78448651912409 484.0679314830385 898.7853278619951 # Ar
1456 1456 1 0.0 248.62877315931271 658.4933121631577 883.2910811084869 # Ar
1457 1457 1 0.0 679.46311051658 346.1935790300495 1071.0798489845663 # Ar
1458 1458 1 0.0 409.62076003890087 201.28036368296736 701.810045776283 # Ar
1459 1459 1 0.0 1118.9933678837788 847.5024967843232 718.9394515020915 # Ar
1460 1460 1 0.0 605.5799762811515 332.0363000430025 1209.7427116168321 # Ar
1461 1461 1 0.0 578.7748701014897 677.3742680130684 1221.3652078698187 # Ar
1462 1462 1 0.0 341.343697637047 27.23966031325536 635.0505709862092 # Ar
1463 1463 1 0.0 1232.956371586852 994.7056647107198 292.7776267949204 # Ar
1464 1464 1 0.0 625.9650535609527 581.1005460670822 462.11617387382057 # Ar
1465 1465 1 0.0 799.2622589812212 774.0389122554126 354.4515995081675 # Ar
1466 1466 1 0.0 660.3205654325815 147.48673739840072 936.092275447148 # Ar
1467 1467 1 0.0 21.325648479298046 93.64321672082355 535.9244157711795 # Ar
1468 1468 1 0.0 594.633167073074 1065.4628674037713 52.833656681687415 # Ar
1469 1469 1 0.0 358.4890901212964 991.7487491534473 1149.9907247896306 # Ar
1470 1470 1 0.0 410.7200902485325 696.6513181937141 495.1878689650473 # Ar
1471 1471 1 0.0 195.78350148418085 186.97454227824846 49.50736665308606 # Ar
1472 1472 1 0.0 237.48940526721083 299.417011791468 644.0612930264988 # Ar
1473 1473 1 0.0 1139.0396481709786 994.8938795571781 622.226254287944 # Ar
1474 1474 1 0.0 32.39192882026649 501.67421377490143 827.6592745218104 # Ar
1475 1475 1 0.0 444.3780646536427 144.51236636675816 254.68515924418594 # Ar
1476 1476 1 0.0 1128.5331735944246 457.83500532559793 504.3842844590386 # Ar
1477 1477 1 0.0 558.1213735451715 10.394118426962146 565.7269947498912 # Ar
1478 1478 1 0.0 1053.8534950886517 215.84626365258075 96.61755854902349 # Ar
1479 1479 1 0.0 177.7241283800304 964.4810010681841 524.9560748109687 # Ar
1480 1480 1 0.0 259.3759717536246 1098.7732547706642 855.4447995299524 # Ar
1481 1481 1 0.0 999.6180990439949 204.04882188295298 474.03555882059266 # Ar
1482 1482 1 0.0 246.72404273008758 604.1703274599124 1188.0059772849854 # Ar
1483 1483 1 0.0 847.5156005205105 500.1684214805325 1178.1253645959605 # Ar
1484 1484 1 0.0 515.2209379709815 436.37967916262284 434.4309491500016 # Ar
1485 1485 1 0.0 682.4713440667717 411.37763057048 4.7591143069861435 # Ar
1486 1486 1 0.0 765.2209337148338 15.502747519253202 1108.9530978273824 # Ar
1487 1487 1 0.0 882.1091189203709 1175.7279851706064 1217.2035622770584 # Ar
1488 1488 1 0.0 185.55448587005532 329.05530472236734 701.4882830383851 # Ar
1489 1489 1 0.0 408.67804391204476 243.04075384991194 936.1447622133321 # Ar
1490 1490 1 0.0 964.2295776881498 695.5935087078681 58.24326138222626 # Ar
1491 1491 1 0.0 746.3846490883228 744.5975848695432 1194.5828288360883 # Ar
1492 1492 1 0.0 1052.1378211490585 353.31429534122253 84.74368941493117 # Ar
1493 1493 1 0.0 204.8215135090438 237.55007944552136 4.012033630204701 # Ar
1494 1494 1 0.0 912.7860728714918 129.01124282196338 582.9680177211385 # Ar
1495 1495 1 0.0 231.86478052119958 1143.3789727699218 686.4070244023037 # Ar
1496 1496 1 0.0 627.8576942504409 92.59812589157163 594.8598097579415 # Ar
1497 1497 1 0.0 885.2558606574626 47.99633323345955 194.5643968666162 # Ar
1498 1498 1 0.0 1008.4049213953823 763.9626542600998 1059.820649442803 # Ar
1499 1499 1 0.0 252.79202486672017 844.9780498131328 32.12940181452349 # Ar
1500 1500 1 0.0 179.08506109465955 484.2864018245724 643.4128642454365 # Ar
1501 1501 1 0.0 567.5791956105654 371.41507487199664 738.7916484507705 # Ar
1502 1502 1 0.0 1098.9523414356936 1107.3272850699113 132.73889174659325 # Ar
1503 1503 1 0.0 601.3547320536621 303.41821464799284 866.9811088552152 # Ar
1504 1504 1 0.0 820.9726679042653 353.60513659732743 395.22767976965315 # Ar
1505 1505 1 0.0 1160.293126676558 469.92411730251274 1124.7112796854833 # Ar
1506 1506 1 0.0 486.2839168402192 1132.0038319606388 525.6613057331256 # Ar
1507 1507 1 0.0 1148.1994077808008 270.84711241843917 483.0651458444255 # Ar
1508 1508 1 0.0 462.0029852248115 907.0265429436876 1146.7906949211608 # Ar
1509 1509 1 0.0 194.36365433656206 547.6040275648492 587.4656110892744 # Ar
1510 1510 1 0.0 359.3889440101766 818.5536705316122 612.4007321341163 # Ar
1511 1511 1 0.0 830.2604672763099 243.4937010225852 1223.16966162725 # Ar
1512 1512 1 0.0 143.34886898379548 1195.228406985937 990.4258941424581 # Ar
1513 1513 1 0.0 661.2082393861518 242.14220177486212 348.5127438375901 # Ar
1514 1514 1 0.0 733.1148540710624 486.73751651770226 442.5451226247074 # Ar
1515 1515 1 0.0 58.19538518327464 131.0566680520376 1076.9607280871269 # Ar
1516 1516 1 0.0 334.11972058447543 1135.6333949435991 244.13223272403874 # Ar
1517 1517 1 0.0 1069.112355678709 1132.297494762113 674.3823802674813 # Ar
1518 1518 1 0.0 375.91735014168165 90.06591998706254 677.7513628473845 # Ar
1519 1519 1 0.0 226.79282968366869 1162.113090534644 646.5129702485787 # Ar
1520 1520 1 0.0 966.6482782175837 960.0946433942127 386.03810840347313 # Ar
1521 1521 1 0.0 584.8944784995189 654.6124540876297 313.1418173786292 # Ar
1522 1522 1 0.0 457.1305657387367 1151.0792292598667 1076.232469700501 # Ar
1523 1523 1 0.0 104.04485325842252 1038.8036181029584 1215.056589575302 # Ar
1524 1524 1 0.0 346.6830246315439 927.8902301539307 1026.8818675016082 # Ar
1525 1525 1 0.0 33.26235860325098 863.2507586038813 387.91505841474327 # Ar
1526 1526 1 0.0 1128.7518407005427 356.80489599219226 807.7428579759023 # Ar
1527 1527 1 0.0 1082.228690220706 942.2282094694779 712.4685889447305 # Ar
1528 1528 1 0.0 1186.2353247475412 593.5141388220508 747.3476269308851 # Ar
1529 1529 1 0.0 716.3304246946025 1017.0416276601094 927.2258596429876 # Ar
1530 1530 1 0.0 232.41194485886643 1158.441924128116 141.0705865759942 # Ar
1531 1531 1 0.0 246.39272783032547 561.8938534424301 1116.3558732789218 # Ar
1532 1532 1 0.0 991.6014533857162 882.4982165851515 459.6305892410785 # Ar
1533 1533 1 0.0 976.1463076688804 248.8967931048708 1124.9106960722797 # Ar
1534 1534 1 0.0 579.7138558191514 989.1685479293592 446.7617648395166 # Ar
1535 1535 1 0.0 670.3149270872045 578.0116831756386 271.532864834234 # Ar
1536 1536 1 0.0 525.9521291306446 648.9805931025486 959.694538046958 # Ar
1537 1537 1 0.0 16.439566254696516 696.9153806500422 627.5551539858826 # Ar
1538 1538 1 0.0 495.3312939959599 55.853909722642726 1188.8901479273393 # Ar
1539 1539 1 0.0 450.10376257128735 164.04817396903724 225.64668429472943 # Ar
1540 1540 1 0.0 698.3347810597185 26.42347260665731 666.6958861572643 # Ar
1541 1541 1 0.0 732.8292116438471 1239.7977881153465 1048.393643605676 # Ar
1542 1542 1 0.0 724.8815388163629 192.56520352055506 420.0599173611337 # Ar
1543 1543 1 0.0 218.43095543450806 411.5789081995935 1183.9961183825799 # Ar
1544 1544 1 0.0 1035.4626179690893 713.4104080443045 1048.8620990698905 # Ar
1545 1545 1 0.0 134.07648277878286 80.71273941860694 1161.7106838777654 # Ar
1546 1546 1 0.0 1192.2768647986875 578.6696274913265 401.5173221989969 # Ar
1547 1547 1 0.0 379.85276699609824 202.72280901125038 1089.0759004471402 # Ar
1548 1548 1 0.0 578.4109431094097 711.3894261532982 265.28853439931504 # Ar
1549 1549 1 0.0 244.36217789600363 1116.109396239314 662.5920102428989 # Ar
1550 1550 1 0.0 642.0945010110722 684.4861475981982 583.5178359882092 # Ar
1551 1551 1 0.0 1204.516070094535 362.6785244532102 291.945202076704 # Ar
1552 1552 1 0.0 1052.5541985332848 1117.817641619695 1218.0666640557417 # Ar
1553 1553 1 0.0 550.2230896606831 1035.6813207082714 667.1879915679995 # Ar
1554 1554 1 0.0 1000.6727208116688 692.4065679807853 492.5180451374681 # Ar
1555 1555 1 0.0 47.79399007914093 1085.0803675706497 833.8958812306237 # Ar
1556 1556 1 0.0 190.37493975950315 847.2306928368405 1035.2611581235194 # Ar
1557 1557 1 0.0 856.6517002180025 1115.2702616941467 924.5102335168684 # Ar
1558 1558 1 0.0 1130.66735507493 517.3951900473779 167.36836204945996 # Ar
1559 1559 1 0.0 62.735993153455546 614.1836235611437 352.367646203909 # Ar
1560 1560 1 0.0 565.8436200249477 39.537023808760246 666.333313722163 # Ar
1561 1561 1 0.0 169.1748110971002 987.1752134852583 515.1702402055785 # Ar
1562 1562 1 0.0 996.2080838772672 1206.9998722910207 1209.8065944162108 # Ar
1563 1563 1 0.0 418.96420991214364 254.15408571126653 47.14140360536557 # Ar
1564 1564 1 0.0 848.9762732345505 305.2751971325366 250.06250402356557 # Ar
1565 1565 1 0.0 1208.114684021776 193.40904798604032 608.2657623781739 # Ar
1566 1566 1 0.0 1027.9320703203487 887.8268264958397 367.1527818282348 # Ar
1567 1567 1 0.0 1195.688832954358 285.7299582725285 269.95864099774303 # Ar
1568 1568 1 0.0 1163.4651847285159 308.40844190609215 318.31640596169956 # Ar
1569 1569 1 0.0 1000.4980215953734 1153.0986101212225 754.7421953519997 # Ar
1570 1570 1 0.0 2.978768680666355 503.742874961819 1017.8499927932518 # Ar
1571 1571 1 0.0 1151.749640367176 893.1510696566647 1231.640365734275 # Ar
1572 1572 1 0.0 685.7871866618053 353.55602714996934 1120.9500616476512 # Ar
1573 1573 1 0.0 732.453356915273 830.7905808602835 1052.0223429913042 # Ar
1574 1574 1 0.0 534.4113729070899 538.8101122818772 284.1704366616821 # Ar
1575 1575 1 0.0 845.3944383879863 313.63555195409396 130.60440643921095 # Ar
1576 1576 1 0.0 805.2033893705668 382.62963986582946 1163.1749248916274 # Ar
1577 1577 1 0.0 659.829189656359 600.4887946758037 582.3900890918973 # Ar
1578 1578 1 0.0 697.7860836643613 1179.5666049776448 1098.6466044027297 # Ar
1579 1579 1 0.0 634.3968921722152 431.54444050672987 853.3631636093214 # Ar
1580 1580 1 0.0 530.1844180752989 74.12271327529116 775.1972711216052 # Ar
1581 1581 1 0.0 40.25739366640829 153.5346526065792 857.6035823444297 # Ar
1582 1582 1 0.0 169.24544319507822 1115.287978233649 332.52520330722655 # Ar
1583 1583 1 0.0 783.4748308988428 1180.063684735758 522.4625201367925 # Ar
1584 1584 1 0.0 1129.167074421938 999.2803914465477 116.65985739163453 # Ar
1585 1585 1 0.0 921.6148505743378 877.4713194964469 420.41178529834644 # Ar
1586 1586 1 0.0 1205.4561755198583 1006.8034900433628 839.5455277553177 # Ar
1587 1587 1 0.0 567.5166537041763 600.9494076364092 482.94557107886493 # Ar
1588 1588 1 0.0 482.1344887589057 1135.0397988342136 532.0083725493732 # Ar
1589 1589 1 0.0 1237.0193975744621 612.8216841996706 953.4398027341925 # Ar
1590 1590 1 0.0 60.64960163630367 1134.041920493768 759.5721460877318 # Ar
1591 1591 1 0.0 527.0535602989054 400.250669208186 434.8393019297935 # Ar
1592 1592 1 0.0 1100.853603322043 978.7087658210833 204.2159519017492 # Ar
1593 1593 1 0.0 330.65430650317256 944.3798503876129 119.60518073291553 # Ar
1594 1594 1 0.0 274.5142493458653 213.85102478774004 22.819030725144035 # Ar
1595 1595 1 0.0 52.14045261213804 701.8303212036094 1183.643183866166 # Ar
1596 1596 1 0.0 10.35732925401783 356.49607142080583 1097.7759611271929 # Ar
1597 1597 1 0.0 179.8208092827055 854.2748930300971 173.77519840506204 # Ar
1598 1598 1 0.0 292.3066487390192 45.172960157233426 1124.2752117294706 # Ar
1599 1599 1 0.0 1197.0016716091295 965.407758354315 116.01522288678694 # Ar
1600 1600 1 0.0 661.3982051808756 871.3683445159306 613.9572528702865 # Ar
1601 1601 1 0.0 472.0932416382264 70.87908869030375 863.7356399542656 # Ar
1602 1602 1 0.0 742.56591409739 26.066602521281702 245.84438098808468 # Ar
1603 1603 1 0.0 537.1534517252528 359.1776046106848 856.7103518219268 # Ar
1604 1604 1 0.0 978.9434564905321 573.7474511220979 795.4347475889645 # Ar
1605 1605 1 0.0 813.0673297761635 188.96301025707547 483.6139909640803 # Ar
1606 1606 1 0.0 203.34913134315235 907.8564626017617 1044.841373434254 # Ar
1607 1607 1 0.0 748.0314253519664 1015.4557460607217 988.1423758350916 # Ar
1608 1608 1 0.0 351.7272655103122 672.638249651409 1086.9409323433827 # Ar
1609 1609 1 0.0 846.6306994172172 1170.8399668268153 774.6716775182477 # Ar
1610 1610 1 0.0 638.5947825562562 731.8598349373093 610.2833647986237 # Ar
1611 1611 1 0.0 270.79454737889154 1071.2453111529894 235.35057575212912 # Ar
1612 1612 1 0.0 257.1142961318814 518.32002851524 595.641730883223 # Ar
1613 1613 1 0.0 949.0012901641882 814.8941253349224 538.4453212643504 # Ar
1614 1614 1 0.0 1061.9677041306138 691.0367394935466 1006.9825633588774 # Ar
1615 1615 1 0.0 1182.261135424133 961.2128312523862 910.5558219868151 # Ar
1616 1616 1 0.0 214.6577478726757 432.0280444332423 388.4715577850984 # Ar
1617 1617 1 0.0 1116.482748460723 473.49235162679685 810.0968185202936 # Ar
1618 1618 1 0.0 946.1759141748756 661.7437714582775 1198.8990672958919 # Ar
1619 1619 1 0.0 513.2194391698921 982.2110527529213 1032.9405583185091 # Ar
1620 1620 1 0.0 939.927497527071 884.8343709655919 1151.566093835978 # Ar
1621 1621 1 0.0 440.44167683028326 568.4392492334497 1085.2586503928587 # Ar
1622 1622 1 0.0 212.93923203555954 141.5603948791169 815.1877976395539 # Ar
1623 1623 1 0.0 69.87245403910376 420.05663831666595 470.7345694785651 # Ar
1624 1624 1 0.0 754.1594029471865 801.0655284559847 889.8430281302186 # Ar
1625 1625 1 0.0 1175.041835926278 826.9527063876765 903.6357043223312 # Ar
1626 1626 1 0.0 346.7987462839963 657.907346430945 74.66763126564578 # Ar
1627 1627 1 0.0 693.0490760877095 347.4403304006889 405.2882814381097 # Ar
1628 1628 1 0.0 400.3759701064395 440.4144240531214 863.7137112988784 # Ar
1629 1629 1 0.0 843.9770235892964 1233.6300644042074 304.67380848645587 # Ar
1630 1630 1 0.0 404.25740064686363 8.562989389620807 1168.4942314121242 # Ar
1631 1631 1 0.0 328.33130319879814 24.260009804449915 970.2518025086986 # Ar
1632 1632 1 0.0 865.9982231439894 1234.4992062609886 770.3867276963102 # Ar
1633 1633 1 0.0 87.58797126246951 1165.2137654762416 1222.7340627263166 # Ar
1634 1634 1 0.0 283.9180083058782 1049.5564814038958 650.1924464386084 # Ar
1635 1635 1 0.0 9.354672015488232 445.92902123824626 298.59194935150066 # Ar
1636 1636 1 0.0 767.4383995017936 865.8076978010779 775.9262350639524 # Ar
1637 1637 1 0.0 546.1950294780554 465.1488461817355 1012.3387064453304 # Ar
1638 1638 1 0.0 62.893917961523094 109.45582493703468 685.6814065125245 # Ar
1639 1639 1 0.0 1033.848322661611 726.986927000416 391.92364080299984 # Ar
1640 1640 1 0.0 1210.6169972316288 369.40130165335285 211.58644658561914 # Ar
1641 1641 1 0.0 722.8272241471243 435.2439295974567 1183.1240210872259 # Ar
1642 1642 1 0.0 17.69416019980091 354.8353469628792 747.859916056332 # Ar
1643 1643 1 0.0 473.78083429495206 835.2593454845045 956.403826214909 # Ar
1644 1644 1 0.0 732.6281464513809 641.362225182595 1095.805220650729 # Ar
1645 1645 1 0.0 968.7538077232517 361.26327958233617 1148.084370799188 # Ar
1646 1646 1 0.0 166.17189115887035 72.85714113320523 233.84877074331777 # Ar
1647 1647 1 0.0 314.94034723265855 400.16308501257686 158.09599593769266 # Ar
1648 1648 1 0.0 629.7661344589892 1233.089780562438 502.72197360696356 # Ar
1649 1649 1 0.0 1050.6005013384136 1117.791420319831 584.8977272324189 # Ar
1650 1650 1 0.0 737.9091990934002 184.35757970765758 818.0141829556693 # Ar
1651 1651 1 0.0 798.0312373350195 1045.1945495184948 120.09713734113662 # Ar
1652 1652 1 0.0 1074.07209130754 527.9418317250412 47.847677913474875 # Ar
1653 1653 1 0.0 917.7113160538431 1008.4144651922302 787.0781976995872 # Ar
1654 1654 1 0.0 701.6120684625948 676.9934704017159 218.7775109928063 # Ar
1655 1655 1 0.0 634.9004724382864 257.8512347019664 713.4916650973826 # Ar
1656 1656 1 0.0 604.3731311999752 237.10552577456062 643.9817129970369 # Ar
1657 1657 1 0.0 899.3912618195033 820.8709357647595 553.6202047238153 # Ar
1658 1658 1 0.0 1017.2364864187298 150.55067218925495 87.54109076559516 # Ar
1659 1659 1 0.0 524.3823839967746 542.198542721378 702.3677009302188 # Ar
1660 1660 1 0.0 230.27192377229363 953.6970523143204 526.5444820378126 # Ar
1661 1661 1 0.0 951.856953689483 394.81196482617594 861.2669138899228 # Ar
1662 1662 1 0.0 1117.4852939668033 539.3027601048216 1220.2091804900838 # Ar
1663 1663 1 0.0 315.7146726033599 536.560195176713 259.54239821594246 # Ar
1664 1664 1 0.0 757.7514704220395 122.01428515883082 460.1497154652949 # Ar
1665 1665 1 0.0 662.9241409516687 471.2343995032568 1151.4812976275741 # Ar
1666 1666 1 0.0 350.09927088951946 821.970232876415 572.926002119962 # Ar
1667 1667 1 0.0 616.8041210745109 1225.3024371184597 281.9250545285803 # Ar
1668 1668 1 0.0 1146.9789673588987 390.60133919313347 358.739932808318 # Ar
1669 1669 1 0.0 943.5790934866643 506.41855590286065 997.6053459752618 # Ar
1670 1670 1 0.0 511.9428473939665 159.76081230567232 41.721057067097355 # Ar
1671 1671 1 0.0 713.9014220283954 1013.8410320089721 1172.4217759540006 # Ar
1672 1672 1 0.0 1066.0641947250074 649.7685737625069 1231.1005972930766 # Ar
1673 1673 1 0.0 70.88092199255838 131.07235144825853 248.3286659590441 # Ar
1674 1674 1 0.0 567.6126271744843 619.3980852300066 50.557125509241025 # Ar
1675 1675 1 0.0 91.04773075731191 171.48759275280307 141.6010373961019 # Ar
1676 1676 1 0.0 479.5984830764101 193.403189045562 342.5835561590666 # Ar
1677 1677 1 0.0 21.694487072897868 595.5028410999176 1046.211719506613 # Ar
1678 1678 1 0.0 555.4845453691566 1163.9752902345222 603.4893574301632 # Ar
1679 1679 1 0.0 687.7726096329798 678.3645930202811 788.1771917769148 # Ar
1680 1680 1 0.0 934.8179768335613 428.9422367336803 802.6641197901682 # Ar
1681 1681 1 0.0 502.11641375842385 1183.607599801746 62.79630171666723 # Ar
1682 1682 1 0.0 455.8683181026972 344.5485281482973 355.6042075225338 # Ar
1683 1683 1 0.0 282.9689639307744 284.2529508318191 38.72511859534374 # Ar
1684 1684 1 0.0 682.2142006773896 1101.5902956077189 1054.7601992760683 # Ar
1685 1685 1 0.0 955.1413443855521 1010.8801390519642 309.56059902961755 # Ar
1686 1686 1 0.0 509.16519412327654 1187.1827797502847 497.0448852649426 # Ar
1687 1687 1 0.0 1147.8828826892461 351.7131878941703 1214.0794697327015 # Ar
1688 1688 1 0.0 64.49007675180093 310.5985400927794 791.7402673247562 # Ar
1689 1689 1 0.0 24.611692277582083 319.1942024106772 968.9418460098508 # Ar
1690 1690 1 0.0 488.1107761370228 459.0267662067844 569.5671484946888 # Ar
1691 1691 1 0.0 8.395014260358312 961.9892998269851 1213.9937373851765 # Ar
1692 1692 1 0.0 1112.9384811816126 402.2943611950894 630.1632927020424 # Ar
1693 1693 1 0.0 923.6323753123866 929.239989448907 857.1737413733024 # Ar
1694 1694 1 0.0 888.4188055946253 192.10506034108758 845.9772134662236 # Ar
1695 1695 1 0.0 321.3784640613406 330.8706829198008 462.7638243707664 # Ar
1696 1696 1 0.0 565.1070386974197 961.893055885092 276.99762917732727 # Ar
1697 1697 1 0.0 59.683020726954936 1127.4407681016612 1152.2971427580164 # Ar
1698 1698 1 0.0 318.1457262152383 179.18858404481244 1023.4023745911171 # Ar
1699 1699 1 0.0 819.4320943450798 140.66476583585518 742.0440786546532 # Ar
1700 1700 1 0.0 598.4016252762303 512.1221233456758 201.72825093836659 # Ar
1701 1701 1 0.0 343.2288776875336 692.2377617132869 683.5045430736099 # Ar
1702 1702 1 0.0 169.12353360235872 354.57566968074536 224.65348474591286 # Ar
1703 1703 1 0.0 1093.0755423636617 783.7878283164412 380.6525545044435 # Ar
1704 1704 1 0.0 474.001339068027 870.6974147221073 737.2851597044856 # Ar
1705 1705 1 0.0 819.6292862886492 143.8517552638812 361.6456638833207 # Ar
1706 1706 1 0.0 912.4248461054787 520.8486183020893 969.1465250729581 # Ar
1707 1707 1 0.0 139.44441860721207 587.6367754170384 534.8867529907395 # Ar
1708 1708 1 0.0 796.3031171238449 995.1368469572259 773.1478911564558 # Ar
1709 1709 1 0.0 199.6966568526655 658.2001793895766 273.92151469074514 # Ar
1710 1710 1 0.0 230.6058615777362 612.9101787728142 832.1572535522042 # Ar
1711 1711 1 0.0 818.0295280264984 966.0949101104447 823.9463303165483 # Ar
1712 1712 1 0.0 524.1055704954822 634.200337993786 881.9583312390365 # Ar
1713 1713 1 0.0 639.9433955465558 1007.9492450571918 666.3510824941617 # Ar
1714 1714 1 0.0 652.87020766201 777.5815762291518 399.03658164290886 # Ar
1715 1715 1 0.0 206.1479434039295 720.5513266463525 82.88338458886241 # Ar
1716 1716 1 0.0 383.77532866417295 1045.850094889713 189.17169893417932 # Ar
1717 1717 1 0.0 1020.2534672355026 496.78700181330134 552.4489069435367 # Ar
1718 1718 1 0.0 644.1000536518935 1165.4696298411152 682.1566928964381 # Ar
1719 1719 1 0.0 1165.3727310540992 282.80737574736315 946.8680848620052 # Ar
1720 1720 1 0.0 1236.166718924282 956.7445451745532 723.6352893131697 # Ar
1721 1721 1 0.0 1232.385598189404 864.2312326072434 486.46887487876376 # Ar
1722 1722 1 0.0 1198.6759941058438 327.1020000508748 985.7539369863006 # Ar
1723 1723 1 0.0 1088.657495183081 637.1102920630602 1235.4995678482783 # Ar
1724 1724 1 0.0 775.8755281033502 128.59520621063123 583.6583234708849 # Ar
1725 1725 1 0.0 58.679855263857405 305.0580738432324 401.71861983445325 # Ar
1726 1726 1 0.0 328.9769287317521 718.9087149573035 737.9755101008401 # Ar
1727 1727 1 0.0 928.8640352788902 422.05246372008725 343.05692989048225 # Ar
1728 1728 1 0.0 929.3765056545045 400.63329432342516 1094.5536727532215 # Ar
1729 1729 1 0.0 1144.3430701362593 757.0790395336423 332.220665959275 # Ar
1730 1730 1 0.0 438.6103314069715 472.7340330583072 349.72559422295404 # Ar
1731 1731 1 0.0 1006.6603224089608 281.09353393201417 599.5958758807502 # Ar
1732 1732 1 0.0 812.9456771684884 863.8494717222082 455.0328668966057 # Ar
1733 1733 1 0.0 317.2884804974776 554.7749042857404 57.29345919613477 # Ar
1734 1734 1 0.0 1235.2529875723008 414.88985239643694 902.0838905306454 # Ar
1735 1735 1 0.0 490.38271448252283 925.5794437976675 723.7504906238181 # Ar
1736 1736 1 0.0 310.8648685518547 1181.8564471695454 330.4136874621922 # Ar
1737 1737 1 0.0 298.2270000886222 884.6925433142235 1158.105644458205 # Ar
1738 1738 1 0.0 323.83771045752354 212.45007000673604 770.4267352007406 # Ar
1739 1739 1 0.0 1.9822127139316352 1116.9092527703401 196.81947819692635 # Ar
1740 1740 1 0.0 252.04330583356557 477.92534078561266 1237.001801103285 # Ar
1741 1741 1 0.0 144.36942874908647 631.8711721810531 317.5169806944288 # Ar
1742 1742 1 0.0 774.1795572303713 1193.2673399772677 438.92839981473173 # Ar
1743 1743 1 0.0 1087.0279136143258 713.2956058004377 734.1168938874839 # Ar
1744 1744 1 0.0 1027.2845655301846 1152.4879338323665 424.74863047927494 # Ar
1745 1745 1 0.0 186.90481947611863 256.6772960890663 222.76431973008388 # Ar
1746 1746 1 0.0 818.3982816984573 901.7206429062012 321.99437043692797 # Ar
1747 1747 1 0.0 1057.49092744302 30.61444378442405 892.2284336264568 # Ar
1748 1748 1 0.0 1001.1883027003533 1106.5143705062849 1168.0203866167233 # Ar
1749 1749 1 0.0 974.1937220782216 660.6309092407008 867.9761042748152 # Ar
1750 1750 1 0.0 1039.6532116495714 174.90499335015002 13.657374984905854 # Ar
1751 1751 1 0.0 1023.688315877492 243.83063311326484 798.524996332758 # Ar
1752 1752 1 0.0 565.2499655315868 353.26126022213464 496.3371948391776 # Ar
1753 1753 1 0.0 716.9800358939675 890.9623137231832 939.0937626113621 # Ar
1754 1754 1 0.0 1072.709510045002 400.31127637502647 803.067509824872 # Ar
1755 1755 1 0.0 1172.0596608450064 177.04941110467308 653.5403063555898 # Ar
1756 1756 1 0.0 870.5554936143725 159.04828180213354 235.2963916852044 # Ar
1757 1757 1 0.0 325.9006498986701 116.58136270571151 1125.617962070417 # Ar
1758 1758 1 0.0 1133.2530082765754 323.40342734732354 1125.757172159148 # Ar
1759 1759 1 0.0 69.70660821016031 516.2913696443452 78.31278754115915 # Ar
1760 1760 1 0.0 506.28948809389334 400.1026679142983 783.5872455432497 # Ar
1761 1761 1 0.0 1104.6798165265645 722.761869575871 985.0251313597385 # Ar
1762 1762 1 0.0 441.8069618732435 313.21117848838765 260.5171346397022 # Ar
1763 1763 1 0.0 179.31796719106103 1056.4089966871472 675.076428118457 # Ar
1764 1764 1 0.0 1055.8773186632995 458.2102838367075 70.2348065914487 # Ar
1765 1765 1 0.0 953.0583778632847 242.26637487198644 979.3973445988141 # Ar
1766 1766 1 0.0 1043.0590938522005 504.24406050061623 806.4733446008682 # Ar
1767 1767 1 0.0 670.9170820724221 742.2948142797494 51.39509316267863 # Ar
1768 1768 1 0.0 206.2923550046728 1000.6837210568218 386.88728848082104 # Ar
1769 1769 1 0.0 1225.7811573031802 626.6853539661819 916.7556686476806 # Ar
1770 1770 1 0.0 1154.468597534935 230.92593314462025 7.081152736718583 # Ar
1771 1771 1 0.0 98.54704523828048 151.00257705575626 28.910714298502636 # Ar
1772 1772 1 0.0 1219.2296941806492 1041.0494687388073 421.4786426588025 # Ar
1773 1773 1 0.0 586.4125359492555 912.0405932124257 1179.9147510935688 # Ar
1774 1774 1 0.0 584.2249505460994 408.64737793429543 958.74471729452 # Ar
1775 1775 1 0.0 638.9593651694495 593.8404428016023 261.0539436284391 # Ar
1776 1776 1 0.0 1100.752870597738 908.0193450402318 897.076462787697 # Ar
1777 1777 1 0.0 637.1877071005888 446.1868713661452 971.165360876761 # Ar
1778 1778 1 0.0 1121.4029797931564 746.6221181317509 237.1581177035388 # Ar
1779 1779 1 0.0 448.95567397093555 691.0898210456529 970.7631692785111 # Ar
1780 1780 1 0.0 1053.8338894474603 1074.0725110370975 358.5913033874669 # Ar
1781 1781 1 0.0 492.27149898990757 1045.130826888701 300.0279468528058 # Ar
1782 1782 1 0.0 731.7256192794589 1056.4450711240945 668.253723559315 # Ar
1783 1783 1 0.0 228.42586669432018 742.4939378828326 631.6589426087978 # Ar
1784 1784 1 0.0 436.7030816603599 818.3049344383395 927.447602056036 # Ar
1785 1785 1 0.0 902.819690208636 636.4969955005548 990.5256336649899 # Ar
1786 1786 1 0.0 553.1327266280475 103.16875346153346 794.5516557563258 # Ar
1787 1787 1 0.0 861.1817462104669 515.9721374021199 227.5350861729775 # Ar
1788 1788 1 0.0 862.9720572415417 578.8782012385656 443.98937152212847 # Ar
1789 1789 1 0.0 146.48078122977242 858.1653670985602 567.7853758186277 # Ar
1790 1790 1 0.0 679.7107132270389 202.97290155510152 155.8358946504237 # Ar
1791 1791 1 0.0 938.9083482770482 566.2442535554769 1122.6304631703322 # Ar
1792 1792 1 0.0 265.91741300808894 912.546102183791 89.82851082871889 # Ar
1793 1793 1 0.0 718.0906444191808 507.9553138972866 828.7618309551316 # Ar
1794 1794 1 0.0 6.5729578403798765 403.54502548189873 1019.0889730196221 # Ar
1795 1795 1 0.0 155.7950367185768 112.8873099197506 289.85858290397664 # Ar
1796 1796 1 0.0 461.249418980355 1045.8985629491137 205.62679642790576 # Ar
1797 1797 1 0.0 1017.9352795004697 322.92403697938965 207.62477320856 # Ar
1798 1798 1 0.0 359.193569544835 712.8128327750579 988.1817853392275 # Ar
1799 1799 1 0.0 732.7859649757496 629.0512752347112 1203.9679936429027 # Ar
1800 1800 1 0.0 462.9406679491498 543.0471212846412 1075.4657191015178 # Ar
1801 1801 1 0.0 941.1878930111742 808.094140334218 932.4673933775961 # Ar
1802 1802 1 0.0 616.5314586372428 150.60853035901312 615.7706372954316 # Ar
1803 1803 1 0.0 522.7706179676584 1039.7699513666078 401.57284160673964 # Ar
1804 1804 1 0.0 708.2307736024264 678.3953742951036 788.2354486600449 # Ar
1805 1805 1 0.0 615.6109714748417 1187.578326210587 1045.2898744236684 # Ar
1806 1806 1 0.0 1203.319038530852 312.3364219456052 1034.6091557733694 # Ar
1807 1807 1 0.0 535.4645148353271 798.7505984390002 392.68645913123964 # Ar
1808 1808 1 0.0 813.7577459741854 61.49033684937022 56.79780247294161 # Ar
1809 1809 1 0.0 332.03518109742555 282.2154488687325 15.891806104367124 # Ar
1810 1810 1 0.0 1051.181726397061 271.1682626808072 626.3892897551175 # Ar
1811 1811 1 0.0 318.52657593377313 1068.4780967424922 1121.6225900569702 # Ar
1812 1812 1 0.0 1093.7425557893437 369.96285865923863 910.0428239204145 # Ar
1813 1813 1 0.0 969.8938259708276 456.9133636308576 10.580748442397478 # Ar
1814 1814 1 0.0 732.0271013477103 1006.1571992807785 1119.791933309049 # Ar
1815 1815 1 0.0 791.1819271504165 1168.6792110997415 887.4025056661714 # Ar
1816 1816 1 0.0 604.2890918774008 768.7639848862203 1179.1807773190344 # Ar
1817 1817 1 0.0 1050.3657524516752 122.75857288560593 1028.025999557214 # Ar
1818 1818 1 0.0 983.8613291326157 6.416042561228401 84.72218787286867 # Ar
1819 1819 1 0.0 423.62540908204414 588.6200399111674 1127.670394917452 # Ar
1820 1820 1 0.0 1143.7345071322375 811.9359529689322 723.5034897155465 # Ar
1821 1821 1 0.0 777.7793123817607 133.8769236174112 489.8557521300801 # Ar
1822 1822 1 0.0 160.98767045247988 689.8877912366662 893.8265131060147 # Ar
1823 1823 1 0.0 1027.4864842625336 589.0677552834179 185.389028403385 # Ar
1824 1824 1 0.0 1217.1082669155808 791.9516084425734 410.32463739432546 # Ar
1825 1825 1 0.0 1034.2919715587338 1040.820777713599 329.2934025474831 # Ar
1826 1826 1 0.0 574.6659349163895 674.4303879327691 276.943991261768 # Ar
1827 1827 1 0.0 439.7719811196167 1027.531466236088 133.75126007535968 # Ar
1828 1828 1 0.0 480.22826748034583 444.8567015830622 570.9747826956685 # Ar
1829 1829 1 0.0 251.2806849866167 550.7146701408502 575.3036439729672 # Ar
1830 1830 1 0.0 433.3372757214792 422.46938483397224 536.9038328001396 # Ar
1831 1831 1 0.0 1160.811658345759 536.0386047777885 1222.7395733845894 # Ar
1832 1832 1 0.0 1094.4852327041617 369.7578053880852 327.5780759461275 # Ar
1833 1833 1 0.0 777.2666244903947 1201.6590053755754 984.7430942047746 # Ar
1834 1834 1 0.0 959.8442048592474 971.8062108803073 1190.5100448800122 # Ar
1835 1835 1 0.0 32.884352377602035 822.2913932909552 1230.6755510953237 # Ar
1836 1836 1 0.0 196.3054615859536 896.8336085378028 849.6548854454378 # Ar
1837 1837 1 0.0 615.1274188525407 987.7695112558783 334.9946549369041 # Ar
1838 1838 1 0.0 872.6619529499741 340.1655473255266 1021.7250386203921 # Ar
1839 1839 1 0.0 1092.9965357082494 840.5297955910206 469.638579254724 # Ar
1840 1840 1 0.0 975.1270588856454 951.5482921783389 713.9176023447984 # Ar
1841 1841 1 0.0 502.5250976751997 212.53606348948134 740.8462151733346 # Ar
1842 1842 1 0.0 758.0179721581762 985.5376142628228 640.7331252648397 # Ar
1843 1843 1 0.0 407.76579807193326 108.28595302879626 504.8394467719554 # Ar
1844 1844 1 0.0 544.6158796540088 542.9646178041597 451.52701637867517 # Ar
1845 1845 1 0.0 163.77345292594026 52.65790630154618 162.85701007237515 # Ar
1846 1846 1 0.0 58.3576855717885 188.23594690782744 100.87617928369028 # Ar
1847 1847 1 0.0 1109.9206351261512 292.14623252942397 955.2448339434974 # Ar
1848 1848 1 0.0 1022.8999385985395 189.0344238697812 650.9602233723543 # Ar
1849 1849 1 0.0 548.9674986774153 80.43043274503869 775.0892094628996 # Ar
1850 1850 1 0.0 575.2832153588998 339.8616245471658 327.5838209710138 # Ar
1851 1851 1 0.0 568.028450863822 813.5654387482888 501.9086632544287 # Ar
1852 1852 1 0.0 5.24023349410859 809.0614948043421 335.60729993867653 # Ar
1853 1853 1 0.0 519.3409133060783 226.66275247114675 606.7218309838076 # Ar
1854 1854 1 0.0 849.3739252198764 1238.9857523529265 570.2301900790527 # Ar
1855 1855 1 0.0 646.0237905013701 1147.4710171631975 895.9079346519436 # Ar
1856 1856 1 0.0 533.6512963121265 307.95803572353066 343.96232604197604 # Ar
1857 1857 1 0.0 789.7777034260087 639.7305872328732 802.4576031965432 # Ar
1858 1858 1 0.0 352.5718367368703 877.3964279313551 687.1631289979258 # Ar
1859 1859 1 0.0 63.106244558372765 109.02562041384952 815.9894441901341 # Ar
1860 1860 1 0.0 316.911334430414 812.9357157264942 1106.7070163254336 # Ar
1861 1861 1 0.0 321.6118827745338 217.6146186049595 1198.0477715342902 # Ar
1862 1862 1 0.0 1118.7804765145456 29.48778241934656 986.2074020231005 # Ar
1863 1863 1 0.0 1042.4416236657473 459.38261771117396 694.6747621012038 # Ar
1864 1864 1 0.0 207.55263950242298 792.0690806305913 173.67851327540424 # Ar
1865 1865 1 0.0 709.5611165568193 166.19600400909746 400.15979732302065 # Ar
1866 1866 1 0.0 1127.6975458384672 672.5151935789473 628.3770915116578 # Ar
1867 1867 1 0.0 1189.7493566780836 1204.5887705253847 809.6025871431297 # Ar
1868 1868 1 0.0 15.901765250727271 1097.2962444075004 982.9108393009858 # Ar
1869 1869 1 0.0 405.9703380903595 203.0261556059385 202.70371145389217 # Ar
1870 1870 1 0.0 1112.8346738476407 80.09861294261098 432.12225975773293 # Ar
1871 1871 1 0.0 319.4490800262717 691.1748937139133 774.8764924749933 # Ar
1872 1872 1 0.0 791.5161166521915 461.3229250714059 303.4165796319538 # Ar
1873 1873 1 0.0 563.0731542629073 1042.5284590062304 656.8867245705356 # Ar
1874 1874 1 0.0 1110.5129788156457 1014.7826236509867 1178.862951887715 # Ar
1875 1875 1 0.0 794.5838395489073 481.64318189094286 278.49528915026707 # Ar
1876 1876 1 0.0 401.3985326895155 115.74611469726264 494.37868236656897 # Ar
1877 1877 1 0.0 823.8435755123909 570.303504122918 1067.9574314599495 # Ar
1878 1878 1 0.0 332.81811853284796 668.3800366121859 18.07186274274676 # Ar
1879 1879 1 0.0 507.4739051583041 289.6184689612553 77.90974131025561 # Ar
1880 1880 1 0.0 389.9054972000462 685.983324080733 405.8946927767723 # Ar
1881 1881 1 0.0 335.71040106405417 812.5647971250959 816.2312370986893 # Ar
1882 1882 1 0.0 555.3562580255574 1066.2965230162997 141.9734695739892 # Ar
1883 1883 1 0.0 584.3389297812531 550.0428175090532 1158.329979599888 # Ar
1884 1884 1 0.0 1140.5928415352842 1173.0094969179431 219.03553697865934 # Ar
1885 1885 1 0.0 259.91020912315486 1056.582194179003 500.75843020509717 # Ar
1886 1886 1 0.0 530.3684951793931 367.23035550474293 886.32200283524 # Ar
1887 1887 1 0.0 212.2243754867775 516.6502656105072 458.74923821075316 # Ar
1888 1888 1 0.0 749.5754541168807 302.9359218643562 971.3579744302322 # Ar
1889 1889 1 0.0 979.2224333951284 1086.650885077255 981.1787760920942 # Ar
1890 1890 1 0.0 1028.0280160063398 831.7962360186729 1028.7767158899774 # Ar
1891 1891 1 0.0 991.195663433995 1062.5339101477934 1237.7456958501227 # Ar
1892 1892 1 0.0 1193.7821602549716 0.8159040889179672 894.6168598658071 # Ar
1893 1893 1 0.0 386.10188715007075 919.0587185160961 483.13268363907423 # Ar
1894 1894 1 0.0 173.27718536393292 1197.4008147260213 466.3055794677432 # Ar
1895 1895 1 0.0 581.0886382548091 488.8066317606613 310.1226784965349 # Ar
1896 1896 1 0.0 760.0806428231784 345.3054877112868 1085.035230138739 # Ar
1897 1897 1 0.0 407.88296138390103 480.1469085188742 568.3158326985154 # Ar
1898 1898 1 0.0 398.3974219686765 1012.3474639865163 177.82930618829016 # Ar
1899 1899 1 0.0 99.33550059215519 1227.624638943839 334.7407665641864 # Ar
1900 1900 1 0.0 422.40736146247656 1175.252740635322 352.20443989152255 # Ar
1901 1901 1 0.0 112.08127526338714 211.0819679255723 301.40954289094094 # Ar
1902 1902 1 0.0 60.74773463302199 531.3947617956753 974.0153207923237 # Ar
1903 1903 1 0.0 1138.5934052753435 806.0664827603222 970.9841003669391 # Ar
1904 1904 1 0.0 700.8970694271785 424.5386992175565 1100.9168584060806 # Ar
1905 1905 1 0.0 876.681193592683 402.40989608585943 482.6848217679686 # Ar
1906 1906 1 0.0 580.4094328898206 106.80421095419807 961.6362673487855 # Ar
1907 1907 1 0.0 860.2990685995882 782.9289488538737 302.84603195198497 # Ar
1908 1908 1 0.0 820.1067525905831 302.60049565876164 614.3371160499711 # Ar
1909 1909 1 0.0 408.465621919138 1091.1286134572774 1136.915290175998 # Ar
1910 1910 1 0.0 548.7871724177617 26.765981735258677 428.30491924204557 # Ar
1911 1911 1 0.0 898.253162872185 406.30724939254145 667.9035375199256 # Ar
1912 1912 1 0.0 708.4864318144336 798.7507422146225 850.8578228278185 # Ar
1913 1913 1 0.0 1211.9282705644166 854.0082155012366 69.17617161971218 # Ar
1914 1914 1 0.0 979.6175243487852 835.0220656733302 952.9596543259421 # Ar
1915 1915 1 0.0 762.109470637844 1165.9330463249642 110.43813593717363 # Ar
1916 1916 1 0.0 1237.0991911091617 488.4965838713503 690.3126396460665 # Ar
1917 1917 1 0.0 402.3681594730486 91.73210510396666 215.18175973047101 # Ar
1918 1918 1 0.0 1123.3742790875945 36.28016944005285 1058.6321713278835 # Ar
1919 1919 1 0.0 543.5558565803263 999.8592262077199 290.25815672528114 # Ar
1920 1920 1 0.0 980.6758800576614 1118.3398276013138 1021.7214444270112 # Ar
1921 1921 1 0.0 64.18658897963768 1238.6883334918562 638.7488240661509 # Ar
1922 1922 1 0.0 888.5431910239232 1168.149036430714 1236.5005813730268 # Ar
1923 1923 1 0.0 380.9471080619062 521.1267188696776 1179.212798570183 # Ar
1924 1924 1 0.0 188.6048470942483 663.0747492392749 62.394072757326846 # Ar
1925 1925 1 0.0 292.845497416918 1189.6551496485267 666.3234850221857 # Ar
1926 1926 1 0.0 233.63909128308683 916.2601741314304 805.0793732085817 # Ar
1927 1927 1 0.0 481.18652893619316 563.5915637262825 700.3475397356125 # Ar
1928 1928 1 0.0 568.6676639803019 1233.31177305747 802.766654115589 # Ar
1929 1929 1 0.0 158.84240073992498 792.0529315849636 480.61483465745073 # Ar
1930 1930 1 0.0 945.3267459882192 35.627409496741535 46.42190452058726 # Ar
1931 1931 1 0.0 282.5434903380405 898.0618464102043 24.384007271152885 # Ar
1932 1932 1 0.0 2.4301078683324584 520.6176822900437 506.1266725219815 # Ar
1933 1933 1 0.0 503.79184105113785 83.64827631922591 24.191958896549 # Ar
1934 1934 1 0.0 621.9132294703595 1238.3701247889514 502.1143953614848 # Ar
1935 1935 1 0.0 1153.6036080384897 134.11356238471325 409.86141470575393 # Ar
1936 1936 1 0.0 994.0831323077272 1086.540293814282 650.8213919530933 # Ar
1937 1937 1 0.0 932.5589719945425 1116.113912933182 1015.5967672738203 # Ar
1938 1938 1 0.0 398.5440530187747 125.13367696274761 45.137614108439145 # Ar
1939 1939 1 0.0 130.29768443029639 932.1269529091302 1057.3745540153286 # Ar
1940 1940 1 0.0 349.810762703352 967.544483837714 1112.2295631766192 # Ar
1941 1941 1 0.0 23.424807012509103 463.27742422239464 547.0467341426344 # Ar
1942 1942 1 0.0 401.1677478360242 794.1111128198439 460.6445349541713 # Ar
1943 1943 1 0.0 397.5017672442928 352.05373385432415 1205.043856235739 # Ar
1944 1944 1 0.0 1.2124575847787198 1080.505466032788 52.14099918306026 # Ar
1945 1945 1 0.0 1146.1677334960748 1132.617281301084 170.06479308391346 # Ar
1946 1946 1 0.0 1008.7779675638031 1071.0966020553763 387.8827289319076 # Ar
1947 1947 1 0.0 689.4579002607721 1175.7873544635286 254.19621225838426 # Ar
1948 1948 1 0.0 388.7366823801597 468.8470548970528 835.3274890148119 # Ar
1949 1949 1 0.0 11.378680567915723 1081.0463584278993 248.24653033092147 # Ar
1950 1950 1 0.0 275.39266007175576 1003.6561039240116 865.7155782461043 # Ar
1951 1951 1 0.0 849.5849827640868 410.8028666655895 256.0700498878915 # Ar
1952 1952 1 0.0 311.8440753378951 264.1017196548533 1082.4996390837202 # Ar
1953 1953 1 0.0 967.2237191278261 230.9839949821113 877.6394723784666 # Ar
1954 1954 1 0.0 144.22573681657408 645.2912210530887 288.96875700622724 # Ar
1955 1955 1 0.0 701.0819245885477 1038.2464790816177 1081.5710159078344 # Ar
1956 1956 1 0.0 401.43876608949523 746.9154683595175 108.4082683136786 # Ar
1957 1957 1 0.0 0.9684467632433424 450.7098316851733 964.3331079410143 # Ar
1958 1958 1 0.0 1088.0119074262277 348.64183524206857 119.75440812819686 # Ar
1959 1959 1 0.0 517.2020109188363 840.1112874236861 1069.9580726172499 # Ar
1960 1960 1 0.0 978.3282012043701 1204.1222601760855 435.97060178599475 # Ar
1961 1961 1 0.0 444.0540701713641 524.5391905481631 96.28956741948748 # Ar
1962 1962 1 0.0 431.8900640684254 1033.876954957508 304.5796970681789 # Ar
1963 1963 1 0.0 474.20086991968856 388.1860213042641 30.8253793983684 # Ar
1964 1964 1 0.0 1044.738659796786 899.6675187985414 61.913688952191976 # Ar
1965 1965 1 0.0 1003.2918769768098 825.1058065197622 1126.8840452579375 # Ar
1966 1966 1 0.0 1216.4933694811007 32.894786849576874 675.5858470421991 # Ar
1967 1967 1 0.0 635.5552323718197 795.35454297133 309.7486757390803 # Ar
1968 1968 1 0.0 392.6125797898155 151.73211908209316 209.58846235422004 # Ar
1969 1969 1 0.0 354.0025652822767 924.1803971947628 1108.8111990189861 # Ar
1970 1970 1 0.0 119.65166879447459 352.6996958208633 1023.7036211538364 # Ar
1971 1971 1 0.0 599.5102592190999 587.2971772875095 603.8938299983346 # Ar
1972 1972 1 0.0 856.3482398179684 100.01351221793173 31.925906226755302 # Ar
1973 1973 1 0.0 1117.9782962447373 673.845366325701 1084.8011872809363 # Ar
1974 1974 1 0.0 43.525145269444806 106.8572786621752 508.0157458260298 # Ar
1975 1975 1 0.0 420.024694234921 873.8392081081535 711.6727452458935 # Ar
1976 1976 1 0.0 498.20781048793486 1181.131590337083 156.13438898869938 # Ar
1977 1977 1 0.0 678.7917760605299 19.934391885142908 870.4979995539484 # Ar
1978 1978 1 0.0 924.2473080385008 1018.4639872576723 248.7922044049682 # Ar
1979 1979 1 0.0 258.6865285975052 653.2198798308475 451.4193988021332 # Ar
1980 1980 1 0.0 191.4913106568548 802.266076263663 581.7143900378479 # Ar
1981 1981 1 0.0 150.62749112911348 1115.7920014185615 513.0653308637895 # Ar
1982 1982 1 0.0 1166.5482259709759 923.1105929282004 1150.8332938428648 # Ar
1983 1983 1 0.0 741.8053723204767 1221.244395794655 960.5716048566788 # Ar
1984 1984 1 0.0 182.24284596176375 1021.7511597847953 712.5903863113981 # Ar
1985 1985 1 0.0 397.05334733158935 957.4054236417741 917.4752084812936 # Ar
1986 1986 1 0.0 817.357701877812 107.95641811030205 844.904687943588 # Ar
1987 1987 1 0.0 558.1711331628467 321.2558287879173 1058.5512432444048 # Ar
1988 1988 1 0.0 1132.4646694110675 174.10895665998152 350.49659250266166 # Ar
1989 1989 1 0.0 133.73529897222483 1059.7499412159916 1194.454894039042 # Ar
1990 1990 1 0.0 464.47433148305845 6.025805336885745 781.3057551331341 # Ar
1991 1991 1 0.0 633.015966662834 452.7825076723052 220.7797042685021 # Ar
1992 1992 1 0.0 1057.7968938199165 680.1733743184465 1156.794375673902 # Ar
1993 1993 1 0.0 204.51830575591228 328.64303839614945 149.6148018231174 # Ar
1994 1994 1 0.0 582.1994309042452 1118.0469270486283 919.8066496651578 # Ar
1995 1995 1 0.0 1074.15929814335 714.8650752676017 338.8111461400096 # Ar
1996 1996 1 0.0 738.072766024713 90.976024470613 841.4985739936988 # Ar
1997 1997 1 0.0 821.641887586484 984.4424806139676 1003.7590238105091 # Ar
1998 1998 1 0.0 103.63630052361516 636.2920551544019 1039.766742367537 # Ar
1999 1999 1 0.0 557.6572268327773 1202.8534348022772 324.45857342182154 # Ar
2000 2000 1 0.0 634.4893648994797 559.3380342422131 548.9409192574495 # Ar
