LAMMPS data file -- atom_style full -- generated by chemfiles
150 atoms
0 bonds
0 angles
0 dihedrals
0 impropers
2 atom types
0 bond types
0 angle types
0 dihedral types
0 improper types
0.00000000 413.303607 xlo xhi
0.00000000 413.303607 ylo yhi
0.00000000 413.303607 zlo zhi

# Pair Coeffs
# 1 Ar
# 2 Ar+

Masses

1 39.948 # Ar
2 39.948 # Ar+

Atoms # full

1 1 1 0.0 160.40216186941055 410.8308397874731 355.9218867677753 # Ar
2 2 1 0.0 8.086938966048034 61.53701419715018 109.47115354954079 # Ar
3 3 1 0.0 70.60774345858442 127.99048879663661 276.7683740220484 # Ar
4 4 1 0.0 34.32068646132335 227.17060004444474 374.63390732610054 # Ar
5 5 1 0.0 151.7657293956337 173.0834872317776 146.93229178890078 # Ar
6 6 1 0.0 171.99707334182574 238.8583069654088 284.68004764133997 # Ar
7 7 1 0.0 291.0398366566343 227.37631407256868 109.5138134528069 # Ar
8 8 1 0.0 340.65195469258555 290.2658270368915 337.61983508386413 # Ar
9 9 1 0.0 209.60562560953875 368.38271724112093 403.0055004771896 # Ar
10 10 1 0.0 47.19621543294298 67.6948847085155 105.28925538269736 # Ar
11 11 1 0.0 234.11309015303138 188.70516908606442 150.2662681105013 # Ar
12 12 1 0.0 253.44382506395613 385.2374199692706 107.65672897530662 # Ar
13 13 1 0.0 372.52149843290584 165.8606324944588 325.4652240421984 # Ar
14 14 1 0.0 236.01439471811673 121.06069315881535 59.52868835881889 # Ar
15 15 1 0.0 74.9490401521522 355.9761018324442 33.787221785420826 # Ar
16 16 1 0.0 202.805008782001 51.47394491193003 227.71877370459703 # Ar
17 17 1 0.0 281.43601402141473 147.17443771715182 212.27261176592327 # Ar
18 18 1 0.0 112.55123242207154 3.6803069177799217 147.70898932395383 # Ar
19 19 1 0.0 374.36243567459786 166.70466365951654 95.35198187351476 # Ar
20 20 1 0.0 331.85292080885813 68.97344213298499 55.18687706911045 # Ar
21 21 1 0.0 345.26766786052775 327.1298245737553 155.62767827227827 # Ar
22 22 1 0.0 225.2125445308514 410.0608339074825 79.23871665799086 # Ar
23 23 1 0.0 243.7575118635207 358.62061492902524 208.387762194099 # Ar
24 24 1 0.0 267.260193218731 164.9676617696494 167.30229281445284 # Ar
25 25 1 0.0 68.4342958148311 128.67789781814173 311.9006082510677 # Ar
26 26 1 0.0 351.9768506338957 88.41495613403023 195.2867505075777 # Ar
27 27 1 0.0 151.31917022957214 124.01927960564218 328.39611670139175 # Ar
28 28 1 0.0 178.9136524151526 30.2513898628852 291.11150340745445 # Ar
29 29 1 0.0 153.56729415146702 369.86136771080646 190.33507198510478 # Ar
30 30 1 0.0 104.39057253403622 84.92036933094995 149.87928139042074 # Ar
31 31 1 0.0 174.84157683981783 101.67646126269315 96.2536918807731 # Ar
32 32 1 0.0 138.01019311638038 208.79853353995745 192.61140087748592 # Ar
33 33 1 0.0 66.10801740907051 212.7629689763885 270.0253462306234 # Ar
34 34 1 0.0 265.29074846596046 404.23526991228357 97.31301842681951 # Ar
35 35 1 0.0 271.2299050513612 155.50419729991714 16.766803158900345 # Ar
36 36 1 0.0 340.49994021147114 409.28368503745975 240.620501130552 # Ar
37 37 1 0.0 116.98888265739072 75.73908826209045 152.25529526850238 # Ar
38 38 1 0.0 404.3750188423561 71.76606421924836 358.3993133247486 # Ar
39 39 1 0.0 72.10839734890845 403.94532766336283 191.2920631637159 # Ar
40 40 1 0.0 151.05649082004322 170.97574082250665 51.73267260782432 # Ar
41 41 1 0.0 370.71133706533647 217.20760679346196 395.3260469167763 # Ar
42 42 1 0.0 339.20159811841 307.0816887544706 55.717185140165874 # Ar
43 43 1 0.0 129.48953320286031 238.88301213193375 152.07614604204448 # Ar
44 44 1 0.0 299.3781030964642 150.026258211972 275.2337962241652 # Ar
45 45 1 0.0 197.48206878031172 294.0951987164364 201.7158170823381 # Ar
46 46 1 0.0 228.03054112941456 1.2532417685504507 132.23908133272366 # Ar
47 47 1 0.0 25.826508061925374 209.9717624558662 299.78536987340215 # Ar
48 48 1 0.0 287.2779882797671 332.2497368909167 87.73022243479033 # Ar
49 49 1 0.0 388.5625310292546 17.843006894019982 383.72369984589096 # Ar
50 50 1 0.0 153.54554140104264 404.27338089539955 47.470961578940276 # Ar
51 51 1 0.0 144.3402844824611 186.080307019047 36.5109418328488 # Ar
52 52 1 0.0 363.6140960946628 374.6519030461496 379.85906744008963 # Ar
53 53 1 0.0 135.6684083509787 120.50054161510349 102.94054386128919 # Ar
54 54 1 0.0 38.17468738280939 219.69895985968918 107.64036282265748 # Ar
55 55 1 0.0 276.85226537715744 332.15676457583794 121.73101360909689 # Ar
56 56 1 0.0 372.7938961931738 392.38487532256136 210.92246510806464 # Ar
57 57 1 0.0 395.6941939545253 54.95688743708349 165.27979926996545 # Ar
58 58 1 0.0 228.45356999810804 108.18455439483647 259.2577467597604 # Ar
59 59 1 0.0 182.95619878512588 186.1143589842401 383.41834805085074 # Ar
60 60 1 0.0 225.27993041189575 56.92503905250775 389.5088324181416 # Ar
61 61 1 0.0 126.30878187497979 178.8464405300596 232.41311806268527 # Ar
62 62 1 0.0 35.40899454447547 389.5164849380135 235.54323680656012 # Ar
63 63 1 0.0 6.691829051234658 132.61372691385301 395.81453845770596 # Ar
64 64 1 0.0 327.0317094847982 393.97343191579756 23.13856113290886 # Ar
65 65 1 0.0 289.08880772489 3.2268885707435557 148.37689754106245 # Ar
66 66 1 0.0 391.94896965861545 352.53557051931097 158.27985330819322 # Ar
67 67 1 0.0 244.05864083347328 322.4296070128328 212.49667471908018 # Ar
68 68 1 0.0 409.0699610447032 368.86418476657985 45.370610422736036 # Ar
69 69 1 0.0 210.89665579886668 20.832881432934915 324.527260660102 # Ar
70 70 1 0.0 335.2325954303975 379.7757385861324 211.27746001440602 # Ar
71 71 1 0.0 388.85267910529177 137.1067552697484 401.8964495084067 # Ar
72 72 1 0.0 395.96585631874166 303.2649725442915 412.13320753764634 # Ar
73 73 1 0.0 61.307583758843805 138.31917485937223 88.88496818567862 # Ar
74 74 1 0.0 299.9545716667044 178.3872844436055 187.30061057061837 # Ar
75 75 1 0.0 247.0398935963894 230.4019457643327 67.22118195556826 # Ar
76 76 1 0.0 220.33529783546246 72.97347470099685 314.43643472386026 # Ar
77 77 1 0.0 121.83184976734225 129.49913947544184 86.30470951262456 # Ar
78 78 1 0.0 13.823946944603334 312.22832648000167 393.28699043450257 # Ar
79 79 1 0.0 340.23083612287155 20.789495762050688 207.1051796461927 # Ar
80 80 1 0.0 117.49277375304635 297.61990116535276 252.33653461668627 # Ar
81 81 1 0.0 4.362199272005065 214.1143674906369 270.84198378564435 # Ar
82 82 1 0.0 13.282392302467292 277.93318936265877 86.59669245225656 # Ar
83 83 1 0.0 268.916605310772 379.57234747563473 21.033513436217735 # Ar
84 84 1 0.0 129.88289403678888 141.35207938133792 115.03438681893833 # Ar
85 85 1 0.0 315.4422562654505 243.63163714935465 298.6849799031138 # Ar
86 86 1 0.0 193.64454402285682 276.35159468008646 126.6584316677095 # Ar
87 87 1 0.0 303.7020682382176 33.310877213376195 19.61958255483576 # Ar
88 88 1 0.0 215.28794304608851 51.13652062781612 84.70353082983357 # Ar
89 89 1 0.0 36.63257654927868 255.91539790975773 301.86595021621116 # Ar
90 90 1 0.0 184.96243084039324 48.54499019294752 347.77369658186404 # Ar
91 91 1 0.0 135.41065973175412 251.52714896423637 311.3666234184519 # Ar
92 92 1 0.0 131.17474696906768 409.7947234699731 300.968962108614 # Ar
93 93 1 0.0 394.07603168475134 191.35393344190607 353.6731718786768 # Ar
94 94 1 0.0 338.32925926500144 74.51753149661046 115.58217489712291 # Ar
95 95 1 0.0 84.86728637869115 264.8084296798048 311.12606205604857 # Ar
96 96 1 0.0 49.79202678355262 174.56961587051896 366.2010366309873 # Ar
97 97 1 0.0 143.00385353957017 358.46122942220353 402.27398369497575 # Ar
98 98 1 0.0 263.0218941258719 240.2805631251505 303.15784210249114 # Ar
99 99 1 0.0 379.00289321672165 364.4784135674953 110.58185830079776 # Ar
100 100 1 0.0 41.35689906702936 297.29128874089713 361.0865127547653 # Ar
101 101 1 0.0 166.33357554003254 243.47070158052318 154.20713456060065 # Ar
102 102 1 0.0 177.07777651095427 165.48108810729153 169.14520903339238 # Ar
103 103 1 0.0 74.18963141615357 379.38146487107986 341.46814863658284 # Ar
104 104 1 0.0 121.66937971383382 395.8770326433932 320.0128017796431 # Ar
105 105 1 0.0 364.1766057498132 409.19922102414 256.8970989555011 # Ar
106 106 1 0.0 186.96777554508827 159.441106785933 214.05980351948622 # Ar
107 107 1 0.0 255.27320406583672 254.6601387515965 144.19400924117886 # Ar
108 108 1 0.0 334.9166596202076 409.75516374873854 225.6328960511084 # Ar
109 109 1 0.0 6.4511885300410405 371.11319190110976 67.03993125138295 # Ar
110 110 1 0.0 64.2154375505472 194.28288760147527 60.21503920997655 # Ar
111 111 1 0.0 8.334409612748573 138.87899676021414 271.11120057552125 # Ar
112 112 1 0.0 365.5933197511601 234.89354799630365 203.42351924284563 # Ar
113 113 1 0.0 194.7739479708081 232.59634042502879 239.81540630583217 # Ar
114 114 1 0.0 170.67456410326702 63.97417506218898 27.460221633944492 # Ar
115 115 1 0.0 320.862599898297 49.975164428017145 325.5869840456747 # Ar
116 116 1 0.0 144.119571427638 200.07781797133018 27.616535578150508 # Ar
117 117 1 0.0 234.5275317399648 158.37479255507452 93.2947923878177 # Ar
118 118 1 0.0 66.15777760330428 317.44749223511536 243.8457191421724 # Ar
119 119 1 0.0 66.87826202011367 200.6848255324354 139.20665796719842 # Ar
120 120 1 0.0 286.83909923074305 193.41456995790512 49.94720454625464 # Ar
121 121 1 0.0 395.2514288206032 390.839988587644 172.76382799059076 # Ar
122 122 1 0.0 247.61251328608887 336.6165258252853 208.74795743961997 # Ar
123 123 1 0.0 105.79201249476735 234.97986220559994 282.6736328800149 # Ar
124 124 1 0.0 276.51042731484114 96.82086789791362 315.4166080187715 # Ar
125 125 1 0.0 94.89923253990516 93.93066605402026 17.796325852698935 # Ar
126 126 1 0.0 328.2756489148242 320.13497918647334 66.6643799653547 # Ar
127 127 1 0.0 213.2029081703212 36.943115964359045 283.376662467549 # Ar
128 128 1 0.0 258.4876433554147 188.87236922484817 248.91605363812647 # Ar
129 129 1 0.0 285.7635625659977 310.57854058759295 383.3827704627421 # Ar
130 130 1 0.0 34.22630924251409 1.9966096087185343 335.7491083506581 # Ar
131 131 1 0.0 172.34536165707541 266.2480808750502 296.91343884591504 # Ar
132 132 2 0.0 11.834655178802654 141.55105824768086 204.6355800962755 # Ar+
133 133 2 0.0 103.69821515903654 386.3218151131209 376.6137029456201 # Ar+
134 134 2 0.0 75.6281075713123 34.96213234619616 172.87454841777878 # Ar+
135 135 2 0.0 323.3316241391643 229.26468728940986 9.941650001112151 # Ar+
136 136 2 0.0 408.794779715005 111.8462433526934 165.8234136199309 # Ar+
137 137 2 0.0 8.467216508643826 376.3309584375678 276.6080973153926 # Ar+
138 138 2 0.0 372.5018067867812 229.68223233830048 346.1900027714208 # Ar+
139 139 2 0.0 279.2742481689178 97.18912327886693 118.46517740478743 # Ar+
140 140 2 0.0 132.3933920682997 108.79377495215849 141.49043334059482 # Ar+
141 141 2 0.0 401.15759286839085 96.43891060561396 15.782816924025173 # Ar+
142 142 2 0.0 89.77482377889406 173.37022403912783 0.6938844603621815 # Ar+
143 143 2 0.0 339.7251904424658 368.4977450998904 394.82780677920715 # Ar+
144 144 2 0.0 239.1315278715362 316.2179722367576 130.92058982268358 # Ar+
145 145 2 0.0 187.19009166109961 78.09226640471725 23.449271664201873 # Ar+
146 146 2 0.0 366.9991226809327 161.69328536209792 220.69533383646953 # Ar+
147 147 2 0.0 137.505026521186 146.412910691198 219.12765388103546 # Ar+
148 148 2 0.0 353.05073670723203 306.71421071077066 394.11112007884566 # Ar+
149 149 2 0.0 335.1265586414877 204.21504991227414 358.5404444558712 # Ar+
150 150 2 0.0 405.0575991504759 111.65051781035746 178.60601978568985 # Ar+
