LAMMPS data file -- atom_style full -- generated by chemfiles
150 atoms
0 bonds
0 angles
0 dihedrals
0 impropers
2 atom types
0 bond types
0 angle types
0 dihedral types
0 improper types
0.00000000 1566.48599 xlo xhi
0.00000000 1566.48599 ylo yhi
0.00000000 1566.48599 zlo zhi

# Pair Coeffs
# 1 Ar
# 2 Ar+

Masses

1 39.948 # Ar
2 39.948 # Ar+

Atoms # full

1 1 1 0.0 432.23133466656196 237.7596756940654 143.24922649318808 # Ar
2 2 1 0.0 771.9359337227486 264.28651171322014 943.7352837109113 # Ar
3 3 1 0.0 658.0942046130853 1112.4023654311875 457.9869762186949 # Ar
4 4 1 0.0 366.7033990305235 1535.0907013925382 590.4583559317601 # Ar
5 5 1 0.0 1416.0333706590202 1513.243588011679 593.2378184492605 # Ar
6 6 1 0.0 572.1401688388892 944.4572468659997 1011.4966515702931 # Ar
7 7 1 0.0 84.89314449689769 169.19655567078152 533.4595878607421 # Ar
8 8 1 0.0 1004.2708297588634 1016.384812269237 1367.7434182956501 # Ar
9 9 1 0.0 645.228184118005 670.0369791218243 829.7638249646135 # Ar
10 10 1 0.0 805.9021845528878 265.7136599053069 482.13154073099383 # Ar
11 11 1 0.0 927.310732701238 1530.3532878353506 1313.6068464840082 # Ar
12 12 1 0.0 979.270625845559 449.4733749445992 155.2382212560154 # Ar
13 13 1 0.0 794.8710389844344 1379.6709746405063 86.96378262765467 # Ar
14 14 1 0.0 1167.5077295255387 1304.3057659512974 834.9346820543425 # Ar
15 15 1 0.0 662.3073781621239 1193.0968364165924 1089.7860193594188 # Ar
16 16 1 0.0 107.22378496811082 505.1154821346045 370.2032763508499 # Ar
17 17 1 0.0 712.3910589658774 34.707688556344344 1219.7171243079335 # Ar
18 18 1 0.0 1120.5263928034512 319.6243400519677 1324.4634846446004 # Ar
19 19 1 0.0 1103.7194050994497 448.45811256270594 666.945454490738 # Ar
20 20 1 0.0 780.6498823713815 23.36713594356096 996.6697416958611 # Ar
21 21 1 0.0 453.37480574287133 1251.1578437465796 1096.3069675727713 # Ar
22 22 1 0.0 1037.0575855594395 1564.4179607173683 371.23839023946203 # Ar
23 23 1 0.0 565.1819799961247 693.5431481099888 1097.3426905417862 # Ar
24 24 1 0.0 163.95520096235973 270.55317207063797 1051.9489272121557 # Ar
25 25 1 0.0 1545.0218275240345 1552.7029616728944 1528.243454205043 # Ar
26 26 1 0.0 861.6317192717097 10.582023452784739 323.6417135558987 # Ar
27 27 1 0.0 618.1418137726791 1442.0146734726648 1063.06127202197 # Ar
28 28 1 0.0 1536.1051018175244 883.1027847572054 527.6186681042185 # Ar
29 29 1 0.0 733.0543220308892 566.5782494936044 593.8043565528471 # Ar
30 30 1 0.0 522.3146288633876 808.5625612599786 1525.7331197580831 # Ar
31 31 1 0.0 1478.7272333458898 570.7447722281283 325.06508516168907 # Ar
32 32 1 0.0 593.1961097655708 1502.7063828760065 1024.3897313061943 # Ar
33 33 1 0.0 443.7617152639641 685.0572471063398 1468.683430264449 # Ar
34 34 1 0.0 983.7482556403223 1492.6836533111946 669.4519409775816 # Ar
35 35 1 0.0 1480.7174836421298 233.9774534588394 354.8392846184568 # Ar
36 36 1 0.0 371.0418438999277 823.6500517810598 608.9419508361955 # Ar
37 37 1 0.0 616.7586415982358 505.5245673858967 1544.0685122132836 # Ar
38 38 1 0.0 886.7566191707842 901.7151077922114 1224.141391536291 # Ar
39 39 1 0.0 648.7698854463919 489.11819041531885 740.1078298596073 # Ar
40 40 1 0.0 788.6217067359313 0.015923970079574364 779.011437800599 # Ar
41 41 1 0.0 343.91342050205293 468.3147447217492 36.60576556833648 # Ar
42 42 1 0.0 132.4776804583934 947.3398781290233 599.5694831564997 # Ar
43 43 1 0.0 1194.5499632579886 761.8793500648513 609.6546928516786 # Ar
44 44 1 0.0 147.18440936486928 1460.2068785081863 418.9427973105954 # Ar
45 45 1 0.0 900.5773069842862 960.6452027486682 1362.8691083372926 # Ar
46 46 1 0.0 769.1241814329622 1471.330230879153 117.35230810537122 # Ar
47 47 1 0.0 729.1707722335359 1540.5561020786565 497.1446014587083 # Ar
48 48 1 0.0 1389.436740473595 1243.6386888413672 1086.0232046225315 # Ar
49 49 1 0.0 359.9195043931498 1369.3651453767206 549.7921245860309 # Ar
50 50 1 0.0 239.56883641902667 1308.7842336138096 865.079039084919 # Ar
51 51 1 0.0 602.8237453443184 585.9803367231983 1425.3425908359839 # Ar
52 52 1 0.0 1222.795603359672 890.088559713942 485.2531684355032 # Ar
53 53 1 0.0 331.0153603604035 660.0937651130105 795.6576742000653 # Ar
54 54 1 0.0 884.2720719677435 1301.088844670557 20.341373025809965 # Ar
55 55 1 0.0 1548.0985759950604 82.87968541284043 83.00907569425247 # Ar
56 56 1 0.0 1101.9846060501975 40.63869065724431 1020.7800098119969 # Ar
57 57 1 0.0 329.33595376176174 38.36356211240251 1304.2809837492102 # Ar
58 58 1 0.0 390.43673360722073 1263.5681924080016 215.1864446004607 # Ar
59 59 1 0.0 444.4380611263059 1331.628682862662 77.73676101158287 # Ar
60 60 1 0.0 1486.5084067181979 600.9443794503529 218.64023150938144 # Ar
61 61 2 0.0 147.0120576175194 712.4845824342991 299.5813774749633 # Ar+
62 62 2 0.0 779.7464184312315 1266.1894293804428 1259.84326998055 # Ar+
63 63 2 0.0 1305.0072626736485 1490.8867806511032 541.7103718087867 # Ar+
64 64 2 0.0 438.24697744722897 766.2274032789416 1293.262251327102 # Ar+
65 65 2 0.0 118.13554218202334 1375.8468895271096 776.6036595818439 # Ar+
66 66 2 0.0 1140.5441402320016 547.1705400573934 32.456244867303774 # Ar+
67 67 2 0.0 355.49540453936663 631.8910477179224 1145.4301161753594 # Ar+
68 68 2 0.0 1484.2465656620584 414.37372273490223 580.5220590958511 # Ar+
69 69 2 0.0 778.0636704635908 1508.5295508515906 504.51187452455787 # Ar+
70 70 2 0.0 278.18219891219866 475.2205328241912 1196.447382541161 # Ar+
71 71 2 0.0 977.5260128324353 1521.3825066532731 1006.4030388973395 # Ar+
72 72 2 0.0 741.4768023702583 717.5524244422951 588.3628695444777 # Ar+
73 73 2 0.0 1243.3911742163637 640.2409362838314 1247.2906269035707 # Ar+
74 74 2 0.0 909.3287335844207 1489.073260690361 1229.403357246079 # Ar+
75 75 2 0.0 63.450786725174055 1418.1845610429589 192.3958690414018 # Ar+
76 76 2 0.0 27.207059565514744 149.30472702403003 1245.512481899166 # Ar+
77 77 2 0.0 383.6328679944774 735.4877785186856 103.05505046557448 # Ar+
78 78 2 0.0 1364.8156495475646 1229.7095865118831 995.7619860720132 # Ar+
79 79 2 0.0 259.90247423629813 364.35793826070335 840.6149888994363 # Ar+
80 80 2 0.0 219.6657970084775 771.6490122519767 1373.3076931431478 # Ar+
81 81 2 0.0 920.3226706430336 544.994000461579 1190.7053148052037 # Ar+
82 82 2 0.0 1516.6037679477558 1502.8638778830496 1127.6476082591153 # Ar+
83 83 2 0.0 868.7727615807383 440.24566962547357 1100.2442805191326 # Ar+
84 84 2 0.0 649.2684875909391 760.7378250588729 726.3321339230905 # Ar+
85 85 2 0.0 693.618469203278 1486.7737320438048 269.20556512039 # Ar+
86 86 2 0.0 729.7013524306476 562.4432397829052 925.404211335045 # Ar+
87 87 2 0.0 603.5806043578631 51.4569849550227 826.370443398169 # Ar+
88 88 2 0.0 1315.3981386040318 1150.6172111848778 1439.6112879812372 # Ar+
89 89 2 0.0 332.68774122061694 1191.1850151944984 819.5540279543724 # Ar+
90 90 2 0.0 422.78434261061875 1443.9745932911455 957.8725733866501 # Ar+
91 91 2 0.0 718.2406148746244 686.7678610745946 1126.0739862586938 # Ar+
92 92 2 0.0 494.8605752087348 1209.4546982352524 1203.0743531714706 # Ar+
93 93 2 0.0 1032.2006033998398 588.5940564163935 1247.7110224543694 # Ar+
94 94 2 0.0 889.6004814157177 313.1623119523539 1062.178379243461 # Ar+
95 95 2 0.0 101.88392904694601 517.3188635303699 380.40577029056175 # Ar+
96 96 2 0.0 64.6962447031015 1184.2662842151094 1144.132781784097 # Ar+
97 97 2 0.0 1487.790577724584 508.7880137016916 1041.9288761570624 # Ar+
98 98 2 0.0 1064.629586695957 1199.791395505956 695.8876773294003 # Ar+
99 99 2 0.0 683.0464317047296 75.07817311493102 1174.1871524013843 # Ar+
100 100 2 0.0 360.6169683682838 922.1255346638274 815.8232337010757 # Ar+
101 101 2 0.0 411.85497346200503 1423.1875300024465 1376.076972752358 # Ar+
102 102 2 0.0 210.53483934909835 898.0562625132425 597.5382489896152 # Ar+
103 103 2 0.0 363.12455636384715 830.6080040527057 137.9266638792093 # Ar+
104 104 2 0.0 741.7198336120097 1196.0610525568284 841.6594523029945 # Ar+
105 105 2 0.0 560.655604575338 1185.4825402071597 1468.653251101816 # Ar+
106 106 2 0.0 1155.4443962691516 1343.938578794372 1444.1255221703368 # Ar+
107 107 2 0.0 1382.766608193476 123.24532755629342 825.4201468501113 # Ar+
108 108 2 0.0 987.8749522477592 762.948425521665 778.9394311035957 # Ar+
109 109 2 0.0 1384.7708310052055 1372.7753730338316 61.83723788972555 # Ar+
110 110 2 0.0 760.9686358061361 985.31009792496 723.7536493186977 # Ar+
111 111 2 0.0 681.4911958923875 1434.3444578639671 1139.0811301418885 # Ar+
112 112 2 0.0 1086.7424410961 385.64867596888314 1314.4529360596064 # Ar+
113 113 2 0.0 772.4076107425749 909.2805491989716 5.843878666579146 # Ar+
114 114 2 0.0 234.1314094354202 1503.0948145922723 1093.7017899825237 # Ar+
115 115 2 0.0 504.726713434036 313.0853742969207 208.89203699851146 # Ar+
116 116 2 0.0 816.5001710897236 76.43190147999415 53.05768097588797 # Ar+
117 117 2 0.0 443.2095533809776 1411.576939510433 1229.349709933488 # Ar+
118 118 2 0.0 699.0451486302584 304.0340521789908 915.1540902970182 # Ar+
119 119 2 0.0 1441.9241353014438 1235.768100874487 1549.9380157565158 # Ar+
120 120 2 0.0 481.4579168053772 1066.901286365402 1038.8012038930158 # Ar+
121 121 2 0.0 98.62329542156532 656.0775835978656 1168.1080851517918 # Ar+
122 122 2 0.0 982.6682705058861 1163.7207704451544 916.4239911065276 # Ar+
123 123 2 0.0 1321.5490608699984 986.6337976718979 1037.7676675864393 # Ar+
124 124 2 0.0 373.1937530932451 964.8271151799806 405.71947229247957 # Ar+
125 125 2 0.0 1301.3531546453532 486.70755507756286 238.6152503947056 # Ar+
126 126 2 0.0 974.425325650079 361.02619066972306 1136.9897474437676 # Ar+
127 127 2 0.0 447.20278772870654 1287.3380899920398 1436.6968392684232 # Ar+
128 128 2 0.0 313.89026272412264 908.5084734152695 821.8747745865694 # Ar+
129 129 2 0.0 311.69067493224566 304.25501035742195 1206.5565533467127 # Ar+
130 130 2 0.0 1450.471132242478 1104.8418278745075 1342.3668577351395 # Ar+
131 131 2 0.0 526.1645703916954 1234.297112397934 207.0928821640216 # Ar+
132 132 2 0.0 137.43167060829674 296.6391818173746 1433.5511624400363 # Ar+
133 133 2 0.0 1019.2046451232151 1383.7704377242696 133.68282618889987 # Ar+
134 134 2 0.0 669.4469451119782 922.285034721334 1510.3994705912692 # Ar+
135 135 2 0.0 508.90734502207664 35.7826309015123 1345.9792928726663 # Ar+
136 136 2 0.0 1211.9078757357731 193.80643893202426 342.6535733455767 # Ar+
137 137 2 0.0 1055.4631183325157 616.9695736530473 987.2996261127563 # Ar+
138 138 2 0.0 232.43114107579132 286.08126309147815 137.38165122429209 # Ar+
139 139 2 0.0 84.8936512149528 785.2574169834508 1265.0798440660628 # Ar+
140 140 2 0.0 141.7766019254123 1114.2290596419296 1073.7206181190488 # Ar+
141 141 2 0.0 1173.2617641470397 1156.214874309653 555.9920706512255 # Ar+
142 142 2 0.0 661.8375628080714 445.6327490969902 1034.2293673433771 # Ar+
143 143 2 0.0 1145.8884938433723 1190.1890575902455 658.1843955295703 # Ar+
144 144 2 0.0 711.8122627504756 995.557524856792 1299.6516632841535 # Ar+
145 145 2 0.0 1264.654854285839 469.3084883452372 48.90905070323456 # Ar+
146 146 2 0.0 699.8924077705432 258.28109996275833 945.5299040784979 # Ar+
147 147 2 0.0 179.35176827957142 1207.62051823997 1279.3933532697185 # Ar+
148 148 2 0.0 1140.2910083209067 162.77389799914036 596.8607432305332 # Ar+
149 149 2 0.0 824.3244485351142 1367.0432101678311 996.1322574515924 # Ar+
150 150 2 0.0 1394.5048470597294 369.3988734619465 1327.629331683282 # Ar+
