LAMMPS data file -- atom_style full -- generated by chemfiles
2000 atoms
0 bonds
0 angles
0 dihedrals
0 impropers
1 atom types
0 bond types
0 angle types
0 dihedral types
0 improper types
0.00000000 816.849825 xlo xhi
0.00000000 816.849825 ylo yhi
0.00000000 816.849825 zlo zhi

# Pair Coeffs
# 1 Ar

Masses

1 39.948 # Ar

Atoms # full

1 1 1 0.0 172.93699284207673 463.43813220884186 816.7574332096386 # Ar
2 2 1 0.0 60.64795361083889 619.805721128193 703.2217172528258 # Ar
3 3 1 0.0 526.7482551284659 465.92871405865503 448.75225993750644 # Ar
4 4 1 0.0 464.8478023499657 540.5927470221562 307.64618551574347 # Ar
5 5 1 0.0 225.03863080051073 707.3560361845817 324.659716540919 # Ar
6 6 1 0.0 662.5437037564665 428.5281095418521 340.62111553642586 # Ar
7 7 1 0.0 547.9784662519165 562.0845299153647 454.3360341957653 # Ar
8 8 1 0.0 695.9329488932068 54.79880036613789 706.5952572557497 # Ar
9 9 1 0.0 543.2013683018909 200.890825139604 56.36718848410618 # Ar
10 10 1 0.0 533.0256569668323 280.57329578403454 448.7027617423754 # Ar
11 11 1 0.0 387.456167454645 313.7628535865497 815.8422419317711 # Ar
12 12 1 0.0 400.4182628976871 698.2862141761277 563.4266755629793 # Ar
13 13 1 0.0 417.3734130812949 93.04030386325174 577.5593483538137 # Ar
14 14 1 0.0 809.9371682938252 103.5285315995439 213.4682803912421 # Ar
15 15 1 0.0 772.512297732074 581.6836060742089 425.7206328727878 # Ar
16 16 1 0.0 792.7826535170967 170.12036318192213 711.8759440251154 # Ar
17 17 1 0.0 444.7027064911752 269.9325474695668 337.90299393697904 # Ar
18 18 1 0.0 319.5137212733419 467.25066824563027 695.8277630331902 # Ar
19 19 1 0.0 230.27444028819104 172.51793604021822 182.50807883960078 # Ar
20 20 1 0.0 299.72813107020636 593.0148919294196 635.346778884571 # Ar
21 21 1 0.0 222.8744151212835 772.226241140881 434.6197845326807 # Ar
22 22 1 0.0 147.4502231819049 562.9819008606212 417.3745753808103 # Ar
23 23 1 0.0 509.72755421782796 432.1498516269026 264.20049715889627 # Ar
24 24 1 0.0 188.69379935761683 35.05110618651662 601.2173876078679 # Ar
25 25 1 0.0 792.0833700281296 735.481742307149 574.3237097820443 # Ar
26 26 1 0.0 560.9100326669779 508.21677384141583 719.4163020960458 # Ar
27 27 1 0.0 518.6300335472266 97.00103150681036 204.34074608466753 # Ar
28 28 1 0.0 507.4879528399567 265.0157613618785 221.16175890299616 # Ar
29 29 1 0.0 505.2235959351973 424.4275105664256 279.8308071447412 # Ar
30 30 1 0.0 273.3516811081525 77.58781748162376 720.9629113668428 # Ar
31 31 1 0.0 521.2222906102548 20.299239427806665 316.6059272855728 # Ar
32 32 1 0.0 675.0830624031039 568.3344105765393 612.2740400388574 # Ar
33 33 1 0.0 41.555255610567905 137.83670303382527 24.01045392240525 # Ar
34 34 1 0.0 416.24175447486664 668.9718338912276 300.8404266867099 # Ar
35 35 1 0.0 533.1926620376398 392.4951345201392 190.43596579017301 # Ar
36 36 1 0.0 775.39360370428 474.76118394176035 71.81911687239491 # Ar
37 37 1 0.0 449.74867450049845 794.9416922337441 84.75295861754414 # Ar
38 38 1 0.0 735.3879987639385 506.92709169425143 586.8025332261984 # Ar
39 39 1 0.0 803.3821093330931 640.9463294297876 550.5776056815778 # Ar
40 40 1 0.0 215.0269489306995 407.60508949158776 300.0286926494213 # Ar
41 41 1 0.0 446.51628561835213 90.98797155689881 674.9097866792957 # Ar
42 42 1 0.0 626.5315897770612 569.5531290548666 195.00709585418244 # Ar
43 43 1 0.0 4.847909572193231 114.07395575061369 390.08357115340726 # Ar
44 44 1 0.0 110.51657925686303 523.2067357155129 496.7864887380598 # Ar
45 45 1 0.0 313.6358152156168 97.16687515022424 209.5453098339479 # Ar
46 46 1 0.0 560.3333585818813 343.5361144706348 0.7247331424965222 # Ar
47 47 1 0.0 621.7244069114209 724.1814393507666 593.7747631309813 # Ar
48 48 1 0.0 388.9927888246758 196.0917650611772 807.6534015747976 # Ar
49 49 1 0.0 372.05478116841005 26.015138905360445 530.8689864051828 # Ar
50 50 1 0.0 341.3162823353253 230.82206386539602 226.3975638143053 # Ar
51 51 1 0.0 133.76620081150816 97.43430386556616 442.9987985721784 # Ar
52 52 1 0.0 46.54412957298909 82.98240228470046 506.69862626011997 # Ar
53 53 1 0.0 94.53258909641629 685.4438510262231 739.7964899999715 # Ar
54 54 1 0.0 785.0487751902484 341.184962843684 622.3799864323178 # Ar
55 55 1 0.0 779.4960854401969 20.703529223003965 53.83135181877098 # Ar
56 56 1 0.0 107.68894577013914 231.03710283775254 651.9626571088514 # Ar
57 57 1 0.0 506.9279379895207 44.65537404074716 724.449160448795 # Ar
58 58 1 0.0 73.1832723739564 613.8747575422401 767.956241825055 # Ar
59 59 1 0.0 693.4900312746742 594.3454671222667 314.3231319801206 # Ar
60 60 1 0.0 86.34697446155519 648.8525953988044 36.69278007958819 # Ar
61 61 1 0.0 736.1566289109617 417.7445226580339 12.326145438795802 # Ar
62 62 1 0.0 624.8236537231934 571.9208152383228 219.25337437835753 # Ar
63 63 1 0.0 697.3789264717187 146.59430009298404 206.5829282449936 # Ar
64 64 1 0.0 593.1691266932343 389.85800319854303 16.593582794196852 # Ar
65 65 1 0.0 442.17429766557586 12.33106409226728 80.39624063164315 # Ar
66 66 1 0.0 175.45159699894202 567.9061489052883 549.0477051680406 # Ar
67 67 1 0.0 170.78382680074463 455.42619309644067 207.1485972553984 # Ar
68 68 1 0.0 295.0113544853807 733.4223351641767 537.4125184186533 # Ar
69 69 1 0.0 125.43279152512488 28.702879813529783 148.0894976730361 # Ar
70 70 1 0.0 609.3131314191752 190.72242254092365 432.588895337399 # Ar
71 71 1 0.0 396.82247504193197 90.19111726911453 190.3174547307628 # Ar
72 72 1 0.0 435.35526345565364 93.01025004841682 109.09517482635259 # Ar
73 73 1 0.0 768.1851985274322 363.0449871443598 231.09733514361793 # Ar
74 74 1 0.0 246.2680282400357 242.37111771607277 787.9055729982106 # Ar
75 75 1 0.0 38.09965233562181 56.74529846701067 485.232711378728 # Ar
76 76 1 0.0 638.3646541964599 578.4019948881925 205.41045899324942 # Ar
77 77 1 0.0 182.0945952754591 579.5413604394356 734.125133369347 # Ar
78 78 1 0.0 110.599462182992 581.6602230865781 154.29051288391545 # Ar
79 79 1 0.0 650.9153222185003 157.16979112544527 531.8708319050666 # Ar
80 80 1 0.0 279.62198223160993 727.9042236137319 143.43113899993043 # Ar
81 81 1 0.0 605.6646856925303 733.9778036477359 778.7881502678176 # Ar
82 82 1 0.0 677.0305829065469 6.294871522478324 709.9598755365623 # Ar
83 83 1 0.0 307.1718833232561 597.2693825195278 644.513142850847 # Ar
84 84 1 0.0 255.2805111581465 185.61770033350393 410.3853227139944 # Ar
85 85 1 0.0 257.7719407911581 110.74854819196152 121.32236446226293 # Ar
86 86 1 0.0 567.7194514753284 165.05753343430024 438.8445952157699 # Ar
87 87 1 0.0 306.36383917614774 761.5326823272852 778.4150226051872 # Ar
88 88 1 0.0 389.93052513165827 64.51869257679948 180.66914931198446 # Ar
89 89 1 0.0 61.03040330659717 437.473672356954 793.8304205991917 # Ar
90 90 1 0.0 606.4576359864194 323.4383812976397 678.71639010579 # Ar
91 91 1 0.0 634.5865992976138 481.13288013088834 12.406207101947464 # Ar
92 92 1 0.0 51.822854686046846 349.4945085418229 340.24866821539734 # Ar
93 93 1 0.0 293.177922183328 51.877103662933855 547.5844638621957 # Ar
94 94 1 0.0 600.4363501634676 148.69188513043628 111.82951078358639 # Ar
95 95 1 0.0 13.724510025294496 401.53462777859716 409.04417119224684 # Ar
96 96 1 0.0 415.16662263350463 57.62836512909663 5.422929480653834 # Ar
97 97 1 0.0 397.783197177481 35.658785075304245 699.5168836096813 # Ar
98 98 1 0.0 460.0444823335049 255.7190471228675 357.75988137038996 # Ar
99 99 1 0.0 73.71713170797007 490.4316554602288 390.4649371531858 # Ar
100 100 1 0.0 708.8584153568937 200.14486838129608 339.6520221865438 # Ar
101 101 1 0.0 791.7309375790397 250.29639912550144 459.1172135624713 # Ar
102 102 1 0.0 1.1433059452121137 7.958983761067904 430.58346045291336 # Ar
103 103 1 0.0 513.7695651360553 309.95211256344544 392.93617894668404 # Ar
104 104 1 0.0 314.6789557112522 136.69436842804222 633.348494284833 # Ar
105 105 1 0.0 725.9238403388297 541.1553934015583 466.35616345800577 # Ar
106 106 1 0.0 458.2632424633982 109.00098710553104 342.84486919279107 # Ar
107 107 1 0.0 627.8016002796921 488.1814690560595 466.49850612654006 # Ar
108 108 1 0.0 106.67704681849087 308.82993033383156 604.5216757703533 # Ar
109 109 1 0.0 20.88038128290985 705.7203697712208 175.38015028948135 # Ar
110 110 1 0.0 1.4805679156172629 487.84063838549787 501.4911762658776 # Ar
111 111 1 0.0 773.173446268517 43.942615742299346 92.54927279163661 # Ar
112 112 1 0.0 519.0343311289239 459.38717324485026 472.41638661880097 # Ar
113 113 1 0.0 205.58748887631538 383.74400822302033 619.8672955910764 # Ar
114 114 1 0.0 373.1237591453207 786.8733834120922 309.5917596103942 # Ar
115 115 1 0.0 414.2867167570866 473.00694488756096 92.83956414114712 # Ar
116 116 1 0.0 39.74832209247239 666.3895921228749 651.1937956198558 # Ar
117 117 1 0.0 140.09211091232186 377.0825731544523 175.10516247583823 # Ar
118 118 1 0.0 476.6218093892575 635.8990060580845 350.0411553655189 # Ar
119 119 1 0.0 258.9615546794044 270.3849767563254 475.5806405315725 # Ar
120 120 1 0.0 83.30717153967284 313.23617486933875 386.4646452658514 # Ar
121 121 1 0.0 782.8403230783537 196.89508196861726 342.2685411059527 # Ar
122 122 1 0.0 744.7329548377535 313.7998790692777 132.81561195281196 # Ar
123 123 1 0.0 115.28075837964323 283.8503371182269 305.1786841136979 # Ar
124 124 1 0.0 634.2852378069218 518.523871097375 415.28132736576686 # Ar
125 125 1 0.0 392.2129707193025 315.6489572337341 468.5033863406127 # Ar
126 126 1 0.0 638.7499146776879 145.2995795645016 436.8378159891609 # Ar
127 127 1 0.0 300.7040531325914 546.7847406533093 84.50123836158238 # Ar
128 128 1 0.0 384.8089829774245 51.913017162479065 794.990559134922 # Ar
129 129 1 0.0 700.4076889346136 754.4513759630432 109.04198166535652 # Ar
130 130 1 0.0 276.8086192599747 211.40446462750995 619.5373340307243 # Ar
131 131 1 0.0 171.65428672164344 541.4006719942632 798.8596460842439 # Ar
132 132 1 0.0 372.54410508110396 523.3550521291147 384.57220488284645 # Ar
133 133 1 0.0 6.582845458041556 33.5396683635171 1.3528602591578172 # Ar
134 134 1 0.0 616.1043360294957 570.5588001824052 57.54879556519335 # Ar
135 135 1 0.0 360.886643374907 778.0750053260928 635.2472777565664 # Ar
136 136 1 0.0 760.0576869236032 400.690656078757 698.5396374166271 # Ar
137 137 1 0.0 448.74203039935657 611.5318626685402 668.4969824427982 # Ar
138 138 1 0.0 203.03083886963984 134.017392551673 423.3386495597226 # Ar
139 139 1 0.0 7.880785047303298 424.7405746446601 55.967518127362084 # Ar
140 140 1 0.0 76.12288013791704 408.6886248710665 596.8786456218373 # Ar
141 141 1 0.0 35.67008343026186 708.4699603317118 252.37757717637507 # Ar
142 142 1 0.0 29.080174448008147 647.852801813118 784.2811374891195 # Ar
143 143 1 0.0 759.6261129316032 456.7782084698578 720.1819508599882 # Ar
144 144 1 0.0 139.69123049034116 76.08150672820636 306.1988021873209 # Ar
145 145 1 0.0 731.4016046323774 73.40842362931338 15.877548205518888 # Ar
146 146 1 0.0 305.1495148997792 142.4105326719308 302.558453955351 # Ar
147 147 1 0.0 428.069672245421 718.998002456874 672.4182857663636 # Ar
148 148 1 0.0 246.02266685106946 425.18343529139645 456.27695226744174 # Ar
149 149 1 0.0 678.6747380072098 707.2784404082362 2.512579672409379 # Ar
150 150 1 0.0 138.5359826109091 100.55581361622575 52.53684770280164 # Ar
151 151 1 0.0 679.2054130580069 739.9336482518133 215.08444431848022 # Ar
152 152 1 0.0 475.9969474873257 642.8714902426744 190.68341400694794 # Ar
153 153 1 0.0 405.07705119718713 738.6713726549588 799.9827308459955 # Ar
154 154 1 0.0 592.161906368856 293.1750540326518 566.1640020817136 # Ar
155 155 1 0.0 783.5519746624245 232.41890584324662 273.87992922480646 # Ar
156 156 1 0.0 440.08371543294294 787.3523368029363 531.7285254910478 # Ar
157 157 1 0.0 280.5383190027657 681.9228533249219 216.2156494119549 # Ar
158 158 1 0.0 225.594159203244 208.13221290176162 160.68246045345705 # Ar
159 159 1 0.0 770.5027552641267 616.8494634244794 28.12121867561649 # Ar
160 160 1 0.0 340.63682617401616 372.0984138268294 328.2726398530612 # Ar
161 161 1 0.0 51.29410019202389 779.0307928944828 567.0304439828271 # Ar
162 162 1 0.0 76.27474768815352 539.2918321151427 249.4348044870087 # Ar
163 163 1 0.0 554.954364900605 234.34846055948998 488.5702248947368 # Ar
164 164 1 0.0 662.8886196064949 616.7200293808603 498.8227305423131 # Ar
165 165 1 0.0 120.40955051656256 703.7778845241778 605.7574642805272 # Ar
166 166 1 0.0 648.3923587451416 381.9091894850134 623.0724047870315 # Ar
167 167 1 0.0 181.86979124086554 74.31558938425589 629.6536406487434 # Ar
168 168 1 0.0 52.678184393760546 295.3879368565447 287.38601221120217 # Ar
169 169 1 0.0 810.6632933174005 16.82365481541163 414.23392630906966 # Ar
170 170 1 0.0 160.0485983353784 4.361922784689155 778.2207616192164 # Ar
171 171 1 0.0 69.37644914561737 236.04651646371298 152.28746254476542 # Ar
172 172 1 0.0 7.378768428063576 227.88931971448963 355.4289701046086 # Ar
173 173 1 0.0 312.8993499493027 730.2787554352652 582.4275197182659 # Ar
174 174 1 0.0 316.93331250238515 366.51784381704357 419.5083304050314 # Ar
175 175 1 0.0 427.3260085485023 520.6635797055173 657.7600536230079 # Ar
176 176 1 0.0 565.8781779718386 197.05383135768278 757.1995006892728 # Ar
177 177 1 0.0 357.8017639655919 265.02068688045676 187.4591023240254 # Ar
178 178 1 0.0 334.6452912217623 681.811620795652 162.68975170275377 # Ar
179 179 1 0.0 559.1881205539357 731.2247620348454 310.0101127362781 # Ar
180 180 1 0.0 418.5057386413596 807.9771259095234 32.03702637922664 # Ar
181 181 1 0.0 182.63249298429866 179.19860291644366 77.21037031032763 # Ar
182 182 1 0.0 28.539360736603793 779.6651344900727 186.66079226359653 # Ar
183 183 1 0.0 428.1863698223033 497.9677413160532 184.88524891243156 # Ar
184 184 1 0.0 450.7871589171717 246.07954302138836 277.7547055455264 # Ar
185 185 1 0.0 463.8908789558232 110.7914840167564 653.7997501046381 # Ar
186 186 1 0.0 704.5970219581121 586.0046950261374 637.5935861907699 # Ar
187 187 1 0.0 356.84085597192325 89.50187751370214 216.99402221965644 # Ar
188 188 1 0.0 750.4751960710972 549.6207209367345 184.1889715560221 # Ar
189 189 1 0.0 355.9152026094218 389.98842750947114 405.70309204691006 # Ar
190 190 1 0.0 686.4940353546988 167.93821429266288 512.5070500150322 # Ar
191 191 1 0.0 299.18206926198826 559.2998317346485 32.873397221358495 # Ar
192 192 1 0.0 300.5020689135259 406.2440606861365 528.2775258691216 # Ar
193 193 1 0.0 622.599619887617 642.4325545123872 533.5443068436165 # Ar
194 194 1 0.0 728.2959155069957 228.32872223659524 353.22064499929473 # Ar
195 195 1 0.0 160.24497445879183 6.499521329924625 529.7887100619539 # Ar
196 196 1 0.0 218.21051231919682 454.1612571615735 228.47144467423033 # Ar
197 197 1 0.0 438.0330468600313 139.4658448121412 480.3980550906276 # Ar
198 198 1 0.0 724.7518888444841 147.18701690907662 239.52083360294262 # Ar
199 199 1 0.0 85.94539072779662 512.2245099197951 118.3562444765553 # Ar
200 200 1 0.0 3.6346589447059205 627.7923238358424 534.8965651770146 # Ar
201 201 1 0.0 760.306803698881 763.6363057204866 253.71720466354986 # Ar
202 202 1 0.0 74.34245680186822 407.44403000070815 106.87535191330949 # Ar
203 203 1 0.0 798.1217134134962 713.2026277869711 313.66762201442236 # Ar
204 204 1 0.0 543.5660261633976 176.27476560345244 602.8469391966892 # Ar
205 205 1 0.0 188.2154082844468 536.5405414705228 627.0484686323322 # Ar
206 206 1 0.0 74.76801198752389 412.7609296653936 564.9623422060688 # Ar
207 207 1 0.0 541.1130728462625 568.2280288474542 16.039951892055498 # Ar
208 208 1 0.0 469.00738630157 168.00308858031576 401.59187493721896 # Ar
209 209 1 0.0 622.1649306573166 265.97189106982034 814.5914257856341 # Ar
210 210 1 0.0 758.4128782953417 319.23552513195796 251.67575492011306 # Ar
211 211 1 0.0 372.10840553131095 709.9964729816952 201.32527167307288 # Ar
212 212 1 0.0 727.833641038406 269.6572465320364 558.0551847703025 # Ar
213 213 1 0.0 326.11728953593826 356.2400056682664 453.9311736779407 # Ar
214 214 1 0.0 65.24143309012771 99.03958169625331 564.924249157644 # Ar
215 215 1 0.0 490.429986295589 29.023750101893825 197.1190854916796 # Ar
216 216 1 0.0 250.8964744239876 747.0660790452931 403.96069983574836 # Ar
217 217 1 0.0 540.4139770714528 239.16538172386385 432.68069156072477 # Ar
218 218 1 0.0 542.483678917081 175.9739335569799 700.9438483063429 # Ar
219 219 1 0.0 609.3027969341199 211.04263922811455 88.50840957235408 # Ar
220 220 1 0.0 163.36646266699537 100.62740202163457 778.0772736856937 # Ar
221 221 1 0.0 683.3311017542466 400.69585446336026 97.28520994060347 # Ar
222 222 1 0.0 420.85418805104894 591.8330323682784 549.3590843664073 # Ar
223 223 1 0.0 223.78574128174105 258.0161453945711 706.7824342716242 # Ar
224 224 1 0.0 439.2513866577849 733.9136333753178 554.9066415244115 # Ar
225 225 1 0.0 634.1024187080413 610.3968943156677 373.4469007166543 # Ar
226 226 1 0.0 246.93846894515283 517.5172679050835 485.17467651615465 # Ar
227 227 1 0.0 622.8870580768863 563.1218117703899 198.92032188314576 # Ar
228 228 1 0.0 6.770590194054625 549.7717114161005 378.6823318531107 # Ar
229 229 1 0.0 816.3839638700372 34.13669257858011 338.3966742090758 # Ar
230 230 1 0.0 183.31173973979267 410.1190317199674 77.42190174934689 # Ar
231 231 1 0.0 356.9112055242113 180.7656692712013 358.74227397119034 # Ar
232 232 1 0.0 304.9917126288355 24.170203338481244 396.1083049512614 # Ar
233 233 1 0.0 699.4989660069787 782.7946013057372 19.657237445694204 # Ar
234 234 1 0.0 318.9999972506305 681.4250680336063 624.3374132103178 # Ar
235 235 1 0.0 710.3712043851414 557.4629669063789 115.62272078760233 # Ar
236 236 1 0.0 380.441275869748 392.46661963595346 440.05506264090434 # Ar
237 237 1 0.0 577.6316926765005 193.8947966891938 774.6984204131284 # Ar
238 238 1 0.0 151.254497002921 91.18566414758939 98.39819153412563 # Ar
239 239 1 0.0 601.298485311777 386.25388615907684 782.6973630896007 # Ar
240 240 1 0.0 3.57247524975593 321.7359368745973 331.67502739781355 # Ar
241 241 1 0.0 416.6673976442822 299.8865828819399 67.02974784877117 # Ar
242 242 1 0.0 175.30555619074377 2.055015326019731 120.76780940669423 # Ar
243 243 1 0.0 245.41483012573954 727.9633670426559 643.8494289732157 # Ar
244 244 1 0.0 61.98431040697712 388.7347141594906 344.3752267974625 # Ar
245 245 1 0.0 684.3957956000569 123.5891352596444 596.3413207848015 # Ar
246 246 1 0.0 501.0357539092575 497.5350364412013 179.7061008146503 # Ar
247 247 1 0.0 809.1579918425748 714.9687025772239 593.3636699277373 # Ar
248 248 1 0.0 45.48493503959727 324.6029750676157 453.37067795643577 # Ar
249 249 1 0.0 411.13949431396503 321.9817707340078 430.5995160250269 # Ar
250 250 1 0.0 623.1130474799072 414.973556982489 27.46073734111156 # Ar
251 251 1 0.0 97.06534975916543 633.5135041994196 334.0529410246055 # Ar
252 252 1 0.0 20.91266452758664 176.65569902016904 138.11678986891306 # Ar
253 253 1 0.0 314.35640473302414 526.9337404557549 719.9617624386951 # Ar
254 254 1 0.0 3.946454281230601 394.9159794165724 566.5018017316672 # Ar
255 255 1 0.0 630.5183362717214 158.1702268773456 515.1395131005703 # Ar
256 256 1 0.0 170.94338525035275 131.58812007052882 566.3432657205385 # Ar
257 257 1 0.0 569.5187099150775 282.11178748698865 804.9420399165759 # Ar
258 258 1 0.0 580.5654567526833 702.2712782762885 267.7649078206495 # Ar
259 259 1 0.0 461.96262907079785 9.589783998697461 608.2587998683802 # Ar
260 260 1 0.0 517.3153426120455 597.4383211663306 355.75116120504885 # Ar
261 261 1 0.0 194.2824529279804 479.4554241983413 730.5335230079842 # Ar
262 262 1 0.0 599.5794435427199 90.28249136631659 239.4472543930513 # Ar
263 263 1 0.0 53.70282050334517 759.6672952344629 33.23001051621217 # Ar
264 264 1 0.0 689.6461424816375 323.19976215054277 513.1294690380471 # Ar
265 265 1 0.0 378.9719557142863 418.95691341341586 209.02378137910063 # Ar
266 266 1 0.0 391.9214395560641 437.7627750892285 587.3000516354965 # Ar
267 267 1 0.0 389.97273589271464 82.11881957193029 386.53748889682385 # Ar
268 268 1 0.0 296.20047282045266 751.3287342358362 43.799185146045716 # Ar
269 269 1 0.0 814.4488076710712 94.26421921140656 298.02456359279483 # Ar
270 270 1 0.0 420.66967100476484 791.0573699753456 790.0474939969113 # Ar
271 271 1 0.0 345.45181357860076 684.8646888627651 182.38237423696424 # Ar
272 272 1 0.0 594.7376623850244 255.65013546363605 208.09792184436938 # Ar
273 273 1 0.0 446.2901124876581 128.29364834797826 565.4670185807889 # Ar
274 274 1 0.0 357.8831818875647 513.6334148344381 65.90912246599751 # Ar
275 275 1 0.0 190.49383518172922 277.45904558930704 595.0329132951836 # Ar
276 276 1 0.0 39.788205516514125 282.7963359338263 334.19438775737217 # Ar
277 277 1 0.0 229.04941112732087 184.57315110832766 194.43260381873537 # Ar
278 278 1 0.0 1.1653770406672437 307.7710642364572 493.9879671545272 # Ar
279 279 1 0.0 732.2659047158467 350.35818948253745 553.8698759056406 # Ar
280 280 1 0.0 220.76823308223652 492.4662667727743 377.26050047924974 # Ar
281 281 1 0.0 82.84634986459055 356.80967774723416 139.50074075976366 # Ar
282 282 1 0.0 605.1334189181434 76.61748470512705 676.9833195985949 # Ar
283 283 1 0.0 373.17399136770854 765.9914256684323 546.0327868339895 # Ar
284 284 1 0.0 392.1120154934477 397.1546484259011 312.81337147722223 # Ar
285 285 1 0.0 683.3307878544014 548.325385747415 596.1941911508861 # Ar
286 286 1 0.0 323.7274134209279 74.54911924025915 654.6750228844055 # Ar
287 287 1 0.0 681.3193491093296 9.93138452499997 534.2711319442549 # Ar
288 288 1 0.0 711.6514007455085 363.5461095766071 6.0677222806024265 # Ar
289 289 1 0.0 452.6614049713435 710.3531037915498 493.5610570296166 # Ar
290 290 1 0.0 632.5124219225843 570.7729599275369 472.89277859183926 # Ar
291 291 1 0.0 563.172249672045 766.0771790005442 683.0890540038373 # Ar
292 292 1 0.0 547.031269996137 699.4146581335546 515.3954073006864 # Ar
293 293 1 0.0 390.54914912808704 148.18107648020637 87.99047861169666 # Ar
294 294 1 0.0 239.34907829744407 199.45751331909872 8.71212410560236 # Ar
295 295 1 0.0 771.3171491979339 592.7879525647633 683.2811481314218 # Ar
296 296 1 0.0 433.99124027466354 335.4027519848211 775.8093484624242 # Ar
297 297 1 0.0 129.4945792889087 522.7687149106549 217.3006397665837 # Ar
298 298 1 0.0 374.07838385620136 791.1966431838998 186.95508105677143 # Ar
299 299 1 0.0 615.3368439425302 483.62218873985563 212.91821966572303 # Ar
300 300 1 0.0 169.81026819411116 599.7532663446602 591.651696253031 # Ar
301 301 1 0.0 560.021765717755 732.5475094576756 673.3421457469576 # Ar
302 302 1 0.0 600.9250064907399 594.5786751334228 574.2422415993556 # Ar
303 303 1 0.0 129.52992432111316 218.74313553608718 131.38827473092397 # Ar
304 304 1 0.0 179.6219751037006 253.25120001586075 248.11092796202036 # Ar
305 305 1 0.0 423.700620851757 66.83348454164563 806.0281363185446 # Ar
306 306 1 0.0 129.55878555884217 241.16020674630605 588.7051891226007 # Ar
307 307 1 0.0 686.2596548158662 125.04907190830288 62.41057038781449 # Ar
308 308 1 0.0 277.38715084629274 549.9572560808052 699.682098749173 # Ar
309 309 1 0.0 114.45886336397763 372.62900617210016 622.5494505563479 # Ar
310 310 1 0.0 358.25078380586365 707.0257879855811 220.23383142477317 # Ar
311 311 1 0.0 153.4965272447947 261.72046124502486 28.660684555921375 # Ar
312 312 1 0.0 346.76338024560096 528.3121581761683 205.31451505844436 # Ar
313 313 1 0.0 610.1685860388884 276.51235201326284 46.024939385769976 # Ar
314 314 1 0.0 580.1861709502698 511.72290743692884 389.24667119451647 # Ar
315 315 1 0.0 349.45722237477787 240.08888192882898 481.1793786224414 # Ar
316 316 1 0.0 422.10802292631877 534.8899617073304 126.32664321387257 # Ar
317 317 1 0.0 58.0073927349645 309.40927566030456 23.39996345005272 # Ar
318 318 1 0.0 555.1504630233884 445.545783510118 199.71130753376573 # Ar
319 319 1 0.0 525.0764887514486 404.85843697186976 7.391428526026569 # Ar
320 320 1 0.0 472.69148921547526 792.2072304043514 58.58542923193151 # Ar
321 321 1 0.0 539.6069842905008 416.767021245809 726.7128063048505 # Ar
322 322 1 0.0 113.45185024445573 185.21967017630172 232.50623887496843 # Ar
323 323 1 0.0 722.1818670263094 574.765989079244 53.384845819421585 # Ar
324 324 1 0.0 583.4609331405034 715.2371179461852 204.17835969623513 # Ar
325 325 1 0.0 730.5930685422114 532.2370487049157 258.06527793320146 # Ar
326 326 1 0.0 442.1358201538688 733.831230769321 503.4360608348307 # Ar
327 327 1 0.0 475.5558924471332 772.2657954717748 284.68588457981696 # Ar
328 328 1 0.0 663.6325794321666 155.66668214863708 148.89419501057145 # Ar
329 329 1 0.0 778.0770932191803 443.92522830933524 196.14896536752696 # Ar
330 330 1 0.0 500.0439369181221 104.85459427120959 88.87642333768206 # Ar
331 331 1 0.0 114.79928320176343 229.9160259408011 44.026178892696855 # Ar
332 332 1 0.0 224.44300432683772 334.42421414234326 388.80244341846947 # Ar
333 333 1 0.0 633.8755693103698 813.293862734209 14.703932398101685 # Ar
334 334 1 0.0 203.9191042485328 122.96710891566885 443.838441503698 # Ar
335 335 1 0.0 490.73391077319684 556.063534697142 270.76356174988547 # Ar
336 336 1 0.0 569.7566785051638 169.49941522067178 803.0427797032507 # Ar
337 337 1 0.0 772.5175564550808 582.0509466463282 714.0344528013748 # Ar
338 338 1 0.0 540.9383200831137 105.5869528573505 509.7095054660107 # Ar
339 339 1 0.0 687.0684201475738 672.8892900077955 402.38624611551614 # Ar
340 340 1 0.0 693.7924957656093 422.5673366055897 156.4265539016641 # Ar
341 341 1 0.0 118.97893083659652 24.467002571649758 763.6218307012105 # Ar
342 342 1 0.0 7.075103677218791 149.70792734389826 102.39463939878058 # Ar
343 343 1 0.0 6.240734868101585 28.87702506520649 405.3341562265936 # Ar
344 344 1 0.0 218.38750665728148 14.039324887781724 262.4617722124207 # Ar
345 345 1 0.0 505.6193546923412 685.4718995127837 541.5933711973775 # Ar
346 346 1 0.0 127.54584797348441 77.91303820262097 704.8139762348364 # Ar
347 347 1 0.0 405.4413743201464 188.85117156196716 810.0720961679073 # Ar
348 348 1 0.0 379.5493973716223 324.8407231517059 627.1430198838067 # Ar
349 349 1 0.0 172.74670233141427 716.5396187862983 717.7149322127453 # Ar
350 350 1 0.0 138.0530580962052 3.9785961338379865 7.044997073652355 # Ar
351 351 1 0.0 712.0163850544732 381.2488067025009 620.2137244093885 # Ar
352 352 1 0.0 389.8411591862644 206.6108427607618 36.775102104042794 # Ar
353 353 1 0.0 173.94638972069677 618.8757600963619 651.4076254729339 # Ar
354 354 1 0.0 661.1482165482208 504.08882365323643 727.0367575612825 # Ar
355 355 1 0.0 684.0940297763264 511.02804916053486 178.50902633860434 # Ar
356 356 1 0.0 244.04706016977238 809.4598395033762 650.7363986427532 # Ar
357 357 1 0.0 491.72309960928857 324.4018366900727 505.3279599458496 # Ar
358 358 1 0.0 194.0032027061622 217.7741848333758 794.9847212880734 # Ar
359 359 1 0.0 414.7542132921965 28.40458462818781 126.71650723447827 # Ar
360 360 1 0.0 260.92585515613337 162.71885133173632 213.2399890865644 # Ar
361 361 1 0.0 501.90061535202875 545.3057193519478 503.6389490574536 # Ar
362 362 1 0.0 757.4419597800982 530.5667338964838 396.9897405827966 # Ar
363 363 1 0.0 53.250196179213766 250.18958847071877 165.89068799786727 # Ar
364 364 1 0.0 588.3974853277299 189.54459066084672 9.224781355176006 # Ar
365 365 1 0.0 640.1254029112793 377.9159438454347 142.10269043972656 # Ar
366 366 1 0.0 591.3227702530534 804.3442941260549 723.9901022752255 # Ar
367 367 1 0.0 587.281466690206 176.25772966479585 535.0881732144145 # Ar
368 368 1 0.0 281.6980482779244 473.6948513840806 594.75303583501 # Ar
369 369 1 0.0 648.6190332733498 606.0455695645751 658.6346644104867 # Ar
370 370 1 0.0 469.5453356011596 369.1676074643326 522.6555770684477 # Ar
371 371 1 0.0 188.71829206736308 641.9607986738669 449.96239472344786 # Ar
372 372 1 0.0 362.1644074464049 180.9025084506462 681.4414121992634 # Ar
373 373 1 0.0 130.86901196135994 393.26040046425413 646.5524092723724 # Ar
374 374 1 0.0 438.9825226583449 646.811515166505 132.6485334001353 # Ar
375 375 1 0.0 111.1235116098965 547.7117381515367 255.58904294391976 # Ar
376 376 1 0.0 764.4831638972155 575.4605919464273 686.5034806094728 # Ar
377 377 1 0.0 138.0140808176011 391.1522275933154 645.8631229299993 # Ar
378 378 1 0.0 562.5390396045665 809.24000868477 758.1319428079173 # Ar
379 379 1 0.0 90.0318690343852 813.1598563946958 748.0336645652993 # Ar
380 380 1 0.0 578.8397274627312 523.0239593422212 533.2653333082288 # Ar
381 381 1 0.0 483.10231393155044 804.21897403527 480.4587761026186 # Ar
382 382 1 0.0 232.66680233985394 254.4002606023194 394.1195004911064 # Ar
383 383 1 0.0 328.8081334796268 554.7769558511401 790.338817340063 # Ar
384 384 1 0.0 795.1073316568333 446.6383585165711 372.62241773761536 # Ar
385 385 1 0.0 505.58388525510793 590.2154407489708 433.0581676512033 # Ar
386 386 1 0.0 747.0253083225163 354.732776936601 549.8185965053073 # Ar
387 387 1 0.0 355.57589618720823 335.5625449001786 408.7133287561594 # Ar
388 388 1 0.0 336.99900488462873 261.11028494427654 171.86065521744558 # Ar
389 389 1 0.0 498.5668632539895 386.26030237121694 492.63100798242556 # Ar
390 390 1 0.0 788.6457031756431 383.417502528105 532.4522863904022 # Ar
391 391 1 0.0 445.04331694037353 301.72126095857766 529.8751577135282 # Ar
392 392 1 0.0 457.36359418101983 396.878516585284 354.1777326652673 # Ar
393 393 1 0.0 210.20907064195126 580.2694004026057 106.67554374217981 # Ar
394 394 1 0.0 70.25505397547657 544.6415206439058 684.3586492209539 # Ar
395 395 1 0.0 418.34050657120923 293.3067599010603 387.8528682698352 # Ar
396 396 1 0.0 654.7527151407332 373.02978607938536 650.5478210476781 # Ar
397 397 1 0.0 419.3793526675312 588.0668358035379 287.80525291528716 # Ar
398 398 1 0.0 587.8826495244168 451.92899130013154 1.4362897364017222 # Ar
399 399 1 0.0 510.17773586127635 689.1627500970781 373.2924949776827 # Ar
400 400 1 0.0 747.0951690889427 220.51141706846295 416.20720680220217 # Ar
401 401 1 0.0 543.4987320563644 201.98453309898258 103.58069791618671 # Ar
402 402 1 0.0 538.0554559531262 120.08368473715248 417.53843363077715 # Ar
403 403 1 0.0 747.8061995615279 666.3430068343898 649.6776772134765 # Ar
404 404 1 0.0 665.4710944692079 676.0231302999612 740.411217574567 # Ar
405 405 1 0.0 292.7274893975058 94.37303828929709 403.694876703083 # Ar
406 406 1 0.0 461.9968299652833 536.7217446458602 536.9071372590384 # Ar
407 407 1 0.0 297.08363239211565 17.325258642109656 650.5505014009643 # Ar
408 408 1 0.0 363.26841980031315 69.63801774137617 336.6808980526844 # Ar
409 409 1 0.0 596.9898492002291 678.2609236802617 305.1263091326046 # Ar
410 410 1 0.0 64.1109783912441 650.6131373616003 179.34064220354333 # Ar
411 411 1 0.0 147.28438552583162 364.32740956265343 232.55343955056134 # Ar
412 412 1 0.0 645.1711377313446 77.59943381488691 690.2800858967414 # Ar
413 413 1 0.0 397.26783873203965 138.16680875006196 744.014481920514 # Ar
414 414 1 0.0 661.8091998186562 364.7929609610248 692.7504706995566 # Ar
415 415 1 0.0 279.8102551163916 659.5154897410717 753.4602646311341 # Ar
416 416 1 0.0 669.9792032485692 797.4979720182705 190.62927925933403 # Ar
417 417 1 0.0 221.86239151001874 739.4620461436874 278.00731935918196 # Ar
418 418 1 0.0 592.6346186952932 463.79945183210253 200.8805285233574 # Ar
419 419 1 0.0 497.8330072326603 32.67550470625704 424.90736846391763 # Ar
420 420 1 0.0 520.1558421997004 320.243141092044 284.13597846919225 # Ar
421 421 1 0.0 409.7349650930732 536.327027946561 136.52619390846118 # Ar
422 422 1 0.0 448.0822979511647 588.5811219598224 332.6013956401739 # Ar
423 423 1 0.0 124.73433132360627 62.37345555836187 530.8688548128722 # Ar
424 424 1 0.0 594.4698676788455 89.74906737107852 26.52172239477401 # Ar
425 425 1 0.0 782.8201137517568 467.4605878996281 666.1868701619103 # Ar
426 426 1 0.0 309.95775377031265 93.01821694306172 808.8027579597817 # Ar
427 427 1 0.0 469.73849572282717 151.19473571592712 318.4577999193123 # Ar
428 428 1 0.0 325.5310517091416 416.12558227369504 729.9495358883887 # Ar
429 429 1 0.0 227.82934979810878 480.0298328583268 602.109800892207 # Ar
430 430 1 0.0 183.2063226741246 795.9765782980892 711.127884888309 # Ar
431 431 1 0.0 216.2567864095605 816.5747825817041 744.4805080849891 # Ar
432 432 1 0.0 320.36505831412916 792.5758986711842 662.3425505707096 # Ar
433 433 1 0.0 764.2065601253964 130.1321056530564 415.4626633948559 # Ar
434 434 1 0.0 186.3546616456173 785.5509748776227 124.67556927854864 # Ar
435 435 1 0.0 263.41970781979524 748.9739478290586 449.0586503795687 # Ar
436 436 1 0.0 156.8135235987954 175.1480577456336 440.2239147290596 # Ar
437 437 1 0.0 376.085672163397 578.6690295911936 747.757595400809 # Ar
438 438 1 0.0 467.586852581567 575.9191521753042 747.3549186668223 # Ar
439 439 1 0.0 198.8433363165286 334.18010031170667 394.1612710707371 # Ar
440 440 1 0.0 345.50242968828707 623.3638121029394 124.56804715212354 # Ar
441 441 1 0.0 712.6280779761241 771.3622043211923 85.42116841547092 # Ar
442 442 1 0.0 642.103941137912 108.14547122892087 118.81264238187308 # Ar
443 443 1 0.0 179.00547966804433 723.5859240742136 678.1513613559489 # Ar
444 444 1 0.0 761.2345113727695 613.7572643950115 325.53479392423395 # Ar
445 445 1 0.0 293.44431586211175 408.91553247877215 116.46289921627012 # Ar
446 446 1 0.0 243.02030940497391 715.7327238511255 447.8597368459154 # Ar
447 447 1 0.0 86.60672222817544 380.92069128618164 752.8945692834144 # Ar
448 448 1 0.0 111.2572162515785 26.716960012410095 136.9495620873892 # Ar
449 449 1 0.0 51.009400309567916 428.26630055828537 620.8964130063209 # Ar
450 450 1 0.0 772.3394706987294 400.9482417946851 541.3265378598454 # Ar
451 451 1 0.0 67.05443134045368 409.09596492213626 629.187988495661 # Ar
452 452 1 0.0 6.428112511357956 229.16524486911888 402.45439552805317 # Ar
453 453 1 0.0 55.409814743557455 470.79363996890294 63.8474940425608 # Ar
454 454 1 0.0 666.8838755374079 311.49262262249295 33.25281962426818 # Ar
455 455 1 0.0 771.6004159922117 500.9177784219966 289.81631411891397 # Ar
456 456 1 0.0 48.42094694916219 318.6089291675241 677.4018606225229 # Ar
457 457 1 0.0 236.45776731652208 575.8407145097016 675.1484266450717 # Ar
458 458 1 0.0 486.9536841900265 61.00335146515071 601.7732939283565 # Ar
459 459 1 0.0 242.48060807994312 737.6040857459528 521.1250780818947 # Ar
460 460 1 0.0 231.35521260577798 516.8617191024612 54.90494335555551 # Ar
461 461 1 0.0 334.2831086629478 66.80164705974629 395.5916856441931 # Ar
462 462 1 0.0 679.0399039307326 139.66486405922544 148.92618118423212 # Ar
463 463 1 0.0 745.808293388339 224.57181950106644 499.3942003744201 # Ar
464 464 1 0.0 224.72422780629526 763.6494531950237 262.486959081399 # Ar
465 465 1 0.0 581.1022912810519 492.03077131863 746.7173526336437 # Ar
466 466 1 0.0 223.1973400540561 413.92566756577185 191.8045011710161 # Ar
467 467 1 0.0 563.3800532341942 797.3069130457218 68.9321539387148 # Ar
468 468 1 0.0 50.49868898456359 139.61499486836166 501.4472400613307 # Ar
469 469 1 0.0 766.7992826673276 417.15031796964564 643.8056885659273 # Ar
470 470 1 0.0 510.6303893009509 765.5232940813329 538.51873440091 # Ar
471 471 1 0.0 15.26303819053909 176.2527505117026 548.374095444489 # Ar
472 472 1 0.0 393.8571210729393 461.5512252972919 542.1291454300234 # Ar
473 473 1 0.0 339.44703508835033 261.3665431154518 617.377508029914 # Ar
474 474 1 0.0 7.4111474180702315 490.0032359509998 798.0428362124754 # Ar
475 475 1 0.0 519.2526201765502 297.094414100861 306.6703627588377 # Ar
476 476 1 0.0 582.5054017317871 420.3078766913634 640.5812601741649 # Ar
477 477 1 0.0 547.6558820249916 737.0026344978018 802.9254566570404 # Ar
478 478 1 0.0 190.7508638654572 233.20563320068086 331.7126808642595 # Ar
479 479 1 0.0 671.5074316058608 261.94396371089067 412.30683058417765 # Ar
480 480 1 0.0 191.95873598394928 115.58333054516129 630.6956979770936 # Ar
481 481 1 0.0 18.26993095491412 429.6463896896249 317.36975418901665 # Ar
482 482 1 0.0 395.40623992365295 705.98261097179 639.3664913699603 # Ar
483 483 1 0.0 503.21871425718564 433.6520745081865 199.98851056614444 # Ar
484 484 1 0.0 427.8421668801349 62.799274719691674 515.9155849996282 # Ar
485 485 1 0.0 502.1144652429873 281.1162892013828 534.3755610390775 # Ar
486 486 1 0.0 786.6980120334109 334.1630520312915 378.9486737827729 # Ar
487 487 1 0.0 411.93853344959933 262.878579151685 356.1659150502957 # Ar
488 488 1 0.0 524.5879240712321 530.753867064931 502.2124469187982 # Ar
489 489 1 0.0 764.1756432313863 643.6563286360886 623.9417042993905 # Ar
490 490 1 0.0 521.5092755981254 459.58266383751976 779.8029965863549 # Ar
491 491 1 0.0 536.1570141023636 569.7444096413182 133.2001068192852 # Ar
492 492 1 0.0 426.4331170539616 335.8479536599825 681.0010138867159 # Ar
493 493 1 0.0 338.5240268537299 264.7781757542937 10.279126410501386 # Ar
494 494 1 0.0 171.32071908555932 754.5589009644942 158.65029903807203 # Ar
495 495 1 0.0 172.8869015639536 788.3539576929328 85.21092222890763 # Ar
496 496 1 0.0 121.3089963826036 148.02375904994307 667.2927088581256 # Ar
497 497 1 0.0 529.8060227142051 330.95521021163825 231.4587658043907 # Ar
498 498 1 0.0 424.2917213086867 640.508178458697 531.0631791204206 # Ar
499 499 1 0.0 440.8315036882936 650.6934761319359 108.92551990725147 # Ar
500 500 1 0.0 96.22974207589789 386.7849970967197 767.0457953916195 # Ar
501 501 1 0.0 180.7168815634373 748.9052781087536 200.9966681501534 # Ar
502 502 1 0.0 385.6393709464999 342.49442612446273 459.32643195604504 # Ar
503 503 1 0.0 620.0037224524629 664.6276613546386 654.7290112617818 # Ar
504 504 1 0.0 766.5480645633278 429.02727283700136 157.83401635175164 # Ar
505 505 1 0.0 355.97973746868195 779.9323293267045 489.2624340113324 # Ar
506 506 1 0.0 398.16709929873855 360.88099629684234 737.9999797397311 # Ar
507 507 1 0.0 205.22615428255236 230.4955856077803 268.2693545688846 # Ar
508 508 1 0.0 404.7738179388952 305.9843401961176 386.4837577893724 # Ar
509 509 1 0.0 500.5093794122923 786.4577951576371 22.483194447042624 # Ar
510 510 1 0.0 123.0060804792492 211.51655613507506 392.12069926371703 # Ar
511 511 1 0.0 111.4613523718084 425.5327252312461 769.6550115060755 # Ar
512 512 1 0.0 384.46189109292004 542.2941035996768 719.034073082742 # Ar
513 513 1 0.0 795.0835989690565 396.18173441518144 795.7716568438368 # Ar
514 514 1 0.0 585.7339330437678 571.9180906649569 207.01388669041484 # Ar
515 515 1 0.0 423.4979560732978 203.5630418614623 328.9976047578081 # Ar
516 516 1 0.0 150.99944096086378 768.5899170090566 315.7352377093106 # Ar
517 517 1 0.0 654.8757944928682 32.042639830287634 76.65813988417844 # Ar
518 518 1 0.0 161.66192505831438 398.1303922294568 810.1299255825872 # Ar
519 519 1 0.0 619.8949663567149 779.5539206361922 277.59695811610516 # Ar
520 520 1 0.0 235.6937873644274 654.0309348490805 723.7774459692622 # Ar
521 521 1 0.0 230.91812965606883 170.65252754972974 5.203817340187733 # Ar
522 522 1 0.0 355.1324959497998 252.1643753648797 68.7229588137353 # Ar
523 523 1 0.0 119.28646605455737 171.973042195587 56.1796082082878 # Ar
524 524 1 0.0 646.6332556326515 808.3975587382225 80.43199095593921 # Ar
525 525 1 0.0 202.6136491461669 472.8524992293993 359.6482618169691 # Ar
526 526 1 0.0 763.8786599539912 671.6928396607836 766.1066243937556 # Ar
527 527 1 0.0 747.2830863010519 408.5778350500675 381.3614610335709 # Ar
528 528 1 0.0 695.4571682544548 17.92292232138326 319.9971309820258 # Ar
529 529 1 0.0 256.9472044575526 150.3827555194987 639.0548637870113 # Ar
530 530 1 0.0 68.7598790647364 106.29574747015346 606.5182429002464 # Ar
531 531 1 0.0 388.6564232992188 534.5397071080478 56.34521690459192 # Ar
532 532 1 0.0 644.9267325638083 199.45967959432164 632.1385898234146 # Ar
533 533 1 0.0 217.4262360173422 634.1271083737141 44.17168606299041 # Ar
534 534 1 0.0 343.3380431335847 459.0438339725043 356.114605959564 # Ar
535 535 1 0.0 173.4992899987215 352.6697734868838 147.21080119214153 # Ar
536 536 1 0.0 355.6770681932253 283.4531738973654 594.9412527605961 # Ar
537 537 1 0.0 89.32138771411881 224.03564546576573 494.4250625214104 # Ar
538 538 1 0.0 235.21930944264702 747.2322853751708 50.81934202240248 # Ar
539 539 1 0.0 671.0547643230211 757.068515473726 601.8351977150728 # Ar
540 540 1 0.0 674.3892959854537 209.7075974253225 427.8417259057718 # Ar
541 541 1 0.0 138.5473569656523 271.8803439019906 504.01346900370066 # Ar
542 542 1 0.0 338.62361109269193 536.6619307496819 613.6466562837227 # Ar
543 543 1 0.0 284.25990452200944 575.0277224588345 9.447683289672423 # Ar
544 544 1 0.0 315.6319699783772 120.52623736091333 557.0178737747784 # Ar
545 545 1 0.0 213.41025414523875 177.43703472497862 92.26559359060649 # Ar
546 546 1 0.0 18.480835096600543 305.31914440988123 678.8826531982833 # Ar
547 547 1 0.0 49.467935940253426 16.972974081397005 548.9210219754932 # Ar
548 548 1 0.0 433.2708686839106 171.65225430138972 291.4866734824585 # Ar
549 549 1 0.0 153.07624684000353 293.9338387965112 262.7963177000631 # Ar
550 550 1 0.0 464.931155539339 232.19113759502622 170.209240374429 # Ar
551 551 1 0.0 306.83931126442775 775.4543231556393 736.7871651268456 # Ar
552 552 1 0.0 675.5848234830453 601.9088119329874 99.44836497642018 # Ar
553 553 1 0.0 41.99282325383181 353.1856137135678 137.85536515043475 # Ar
554 554 1 0.0 149.04644582408235 721.4891616740623 773.8000488184857 # Ar
555 555 1 0.0 224.5713983484982 627.0512927650592 432.085185362001 # Ar
556 556 1 0.0 182.09934356723187 324.7067106692628 627.8234340505903 # Ar
557 557 1 0.0 469.8120493807856 316.8005418619687 711.5110248673851 # Ar
558 558 1 0.0 816.5241210481256 460.6740979917094 454.93596685773684 # Ar
559 559 1 0.0 22.62827531092552 25.478595930304063 367.82870608611995 # Ar
560 560 1 0.0 492.4407588399715 35.33988402086689 454.3349295827352 # Ar
561 561 1 0.0 307.9167709125548 189.64917327778886 376.6678020484167 # Ar
562 562 1 0.0 689.9693609674115 398.1651599619122 314.9623013310121 # Ar
563 563 1 0.0 786.5354463490015 425.8880298878281 523.7729232036552 # Ar
564 564 1 0.0 301.3486632095964 181.0823612946434 75.1259749176653 # Ar
565 565 1 0.0 800.6590545584552 93.23457616630034 22.383666153769553 # Ar
566 566 1 0.0 539.6370964272013 222.3652960515948 267.45124986628747 # Ar
567 567 1 0.0 118.49299479510033 180.76617311521116 551.4824728937049 # Ar
568 568 1 0.0 283.4796114223532 746.8770895355266 98.34439875537984 # Ar
569 569 1 0.0 192.94631877168112 245.01259114897815 197.31944516897465 # Ar
570 570 1 0.0 434.8418000095599 699.1610161921637 215.16403192628042 # Ar
571 571 1 0.0 378.75117288092196 515.293191872795 62.47196609045372 # Ar
572 572 1 0.0 692.6423609690036 453.8508361686812 373.4609070824619 # Ar
573 573 1 0.0 612.7110598437716 573.2245444425973 202.54179703257824 # Ar
574 574 1 0.0 568.3009060384065 462.652567607547 525.373652104044 # Ar
575 575 1 0.0 703.1011279720309 762.3897155304807 388.1420447924792 # Ar
576 576 1 0.0 334.0664545272429 546.4680572043533 778.5472969309565 # Ar
577 577 1 0.0 157.82058147249754 747.0073635634752 213.05691203251465 # Ar
578 578 1 0.0 297.555674537278 681.2264068401007 428.22611228845676 # Ar
579 579 1 0.0 754.8444431047105 720.5103823693669 387.9662290210283 # Ar
580 580 1 0.0 636.2636379870524 751.5801847750579 600.8504324624922 # Ar
581 581 1 0.0 563.0626045496607 437.5009730095129 485.0588344126334 # Ar
582 582 1 0.0 451.1279958897629 290.5135644263281 56.64722027517407 # Ar
583 583 1 0.0 649.9084026877941 360.04448331176565 32.814820158490676 # Ar
584 584 1 0.0 517.7680806661893 664.9694672731458 682.0013054165821 # Ar
585 585 1 0.0 472.6730377185996 760.5972390612908 350.64099460805454 # Ar
586 586 1 0.0 128.21377537654317 307.1497235379404 768.6071663807273 # Ar
587 587 1 0.0 382.62454590228936 527.3786594668558 413.9343827216239 # Ar
588 588 1 0.0 209.2652365909447 505.9945962630835 419.43308614184025 # Ar
589 589 1 0.0 511.0446543146429 345.0178482358746 271.8782211622169 # Ar
590 590 1 0.0 442.8194948305593 637.2376557283171 170.05090937071282 # Ar
591 591 1 0.0 814.2785096814556 543.8743138915735 538.8776376134568 # Ar
592 592 1 0.0 119.02713910069453 481.9102034742589 564.9715267616397 # Ar
593 593 1 0.0 387.2306593399418 629.2293381534439 682.0090695703785 # Ar
594 594 1 0.0 459.4765684843467 581.5652257820087 93.86530622297128 # Ar
595 595 1 0.0 630.033292363059 348.7677591242985 345.15122642934426 # Ar
596 596 1 0.0 25.886128187836103 656.8240643471643 698.7731951003909 # Ar
597 597 1 0.0 674.9227474839905 101.99568568343314 450.20028847202616 # Ar
598 598 1 0.0 686.5082683948208 92.98633791907169 224.57228447973048 # Ar
599 599 1 0.0 469.2072509215802 303.46306307201206 691.2137974658376 # Ar
600 600 1 0.0 287.723442648037 85.53157012212911 479.0569198598866 # Ar
601 601 1 0.0 524.2899651490418 231.26971912623503 655.8037965988781 # Ar
602 602 1 0.0 540.1268322041234 47.541006629794495 266.4419218510527 # Ar
603 603 1 0.0 676.2082377670237 776.5331088209183 545.0507203279541 # Ar
604 604 1 0.0 148.7394382337016 359.50095943275323 711.9477084034916 # Ar
605 605 1 0.0 812.694898664812 186.74071026073065 709.9706178316537 # Ar
606 606 1 0.0 665.6545719467089 471.14156951020584 596.8286825536838 # Ar
607 607 1 0.0 364.2046444832496 198.27718362539363 337.96922477242185 # Ar
608 608 1 0.0 708.1622143953508 531.512785519019 47.62660028838597 # Ar
609 609 1 0.0 342.87351593291766 31.976222818360355 141.67371478393525 # Ar
610 610 1 0.0 814.9507078134527 505.546067415172 308.3449702191119 # Ar
611 611 1 0.0 549.6349463374052 243.786785531424 501.2361527195925 # Ar
612 612 1 0.0 154.8042403648665 783.9533997091504 585.9185252663011 # Ar
613 613 1 0.0 88.23989919939251 79.8865705920311 26.99968487233178 # Ar
614 614 1 0.0 170.44329942885588 220.27522278137022 358.70123231381615 # Ar
615 615 1 0.0 440.83718626550836 386.4263455259567 149.40085518224146 # Ar
616 616 1 0.0 266.68866871447034 280.40613721891543 235.5919552792279 # Ar
617 617 1 0.0 501.0190535556703 119.42082744174543 133.97964060819916 # Ar
618 618 1 0.0 370.55144587144264 405.0986023319362 569.8035850870834 # Ar
619 619 1 0.0 772.9828362917178 174.67918835192208 336.62996019748306 # Ar
620 620 1 0.0 36.647512165410554 67.53210603411394 371.21395482071637 # Ar
621 621 1 0.0 631.441186712257 91.33268300539534 124.2316582861181 # Ar
622 622 1 0.0 484.6796697962022 438.16443411545185 218.92378173753488 # Ar
623 623 1 0.0 529.9949024535714 661.9283319152172 188.08903074802632 # Ar
624 624 1 0.0 664.8442766695764 663.0387986162074 674.8890465549424 # Ar
625 625 1 0.0 567.4633711897261 506.5754233130719 111.86527740281188 # Ar
626 626 1 0.0 706.8969031369287 240.47157210192708 671.2864503254684 # Ar
627 627 1 0.0 31.31758175910815 47.742703944471856 604.2428430239386 # Ar
628 628 1 0.0 464.4222904810086 703.2484040055957 256.2948950086663 # Ar
629 629 1 0.0 784.3574356834848 660.5857125838056 593.3660914159209 # Ar
630 630 1 0.0 209.82301181467827 235.91298142236226 706.5249816125109 # Ar
631 631 1 0.0 411.38398954311464 85.08106225019306 384.51961846580673 # Ar
632 632 1 0.0 376.6027576129017 636.2202101153006 799.5177921474724 # Ar
633 633 1 0.0 461.99626546378306 689.9234970143676 608.0844339033912 # Ar
634 634 1 0.0 140.91299356026835 480.49594797552993 720.3121643155253 # Ar
635 635 1 0.0 232.7420252083324 668.363594773423 476.9286769397704 # Ar
636 636 1 0.0 770.7265285020009 132.64390560887313 175.24404096911206 # Ar
637 637 1 0.0 596.4355169052236 575.8492787013071 193.8893675956279 # Ar
638 638 1 0.0 462.7931518795234 554.9834951913605 49.25138521599727 # Ar
639 639 1 0.0 216.624386971762 712.4326129092858 290.1180896404435 # Ar
640 640 1 0.0 129.54122379887914 165.6413397701741 364.1727081850463 # Ar
641 641 1 0.0 236.61054474954875 115.04296829369846 384.5407791066069 # Ar
642 642 1 0.0 621.1402842528755 450.99228553445363 501.2145893253971 # Ar
643 643 1 0.0 37.861385221478315 603.2939044512966 619.6565269315344 # Ar
644 644 1 0.0 251.37603371373564 175.6091745832082 226.11029099477952 # Ar
645 645 1 0.0 331.4780731717426 569.7945657709499 673.6132836573379 # Ar
646 646 1 0.0 296.0996945029283 329.41943648815857 64.77762107239185 # Ar
647 647 1 0.0 624.3322966957767 84.49131653648293 245.84667131276998 # Ar
648 648 1 0.0 166.34760183305485 23.030806906458864 620.35867016165 # Ar
649 649 1 0.0 791.4479764352579 714.6850298951807 410.642911463035 # Ar
650 650 1 0.0 163.24506057157444 314.15507637898025 602.0556919594604 # Ar
651 651 1 0.0 186.1584534181314 732.5742653304397 280.8210562570094 # Ar
652 652 1 0.0 648.9932319210375 707.7803131493333 750.0079057282229 # Ar
653 653 1 0.0 295.51505127677484 683.1946297531664 165.8049278231893 # Ar
654 654 1 0.0 635.5168951795996 93.42747852712915 475.5207242444334 # Ar
655 655 1 0.0 107.27625636430109 428.215661624596 537.7280841480612 # Ar
656 656 1 0.0 477.41143621781237 574.7871947111903 559.9895568437584 # Ar
657 657 1 0.0 47.452111084506086 392.6364554514683 313.2527543949191 # Ar
658 658 1 0.0 56.25595883374989 188.4160127325151 28.490519341231693 # Ar
659 659 1 0.0 259.1830440545031 637.633229466167 62.733483013275986 # Ar
660 660 1 0.0 216.70472426211947 416.9021473219078 349.2221994202501 # Ar
661 661 1 0.0 251.25008128109593 241.36359588537067 373.67569192728985 # Ar
662 662 1 0.0 413.208143120957 542.374012777632 622.4664649519509 # Ar
663 663 1 0.0 2.5423138340479556 47.883218303760145 48.68641702228715 # Ar
664 664 1 0.0 668.4064352421221 427.95583607910817 190.13557857569157 # Ar
665 665 1 0.0 650.7780083487255 420.7642212482453 96.98415375095944 # Ar
666 666 1 0.0 592.2987556124605 300.4249025503712 687.3437715551358 # Ar
667 667 1 0.0 41.56545635206827 755.3122286976663 306.2155161627252 # Ar
668 668 1 0.0 88.27071709919005 469.6149439129748 14.290065055158939 # Ar
669 669 1 0.0 300.9142784983465 73.49588984910064 16.485211322718293 # Ar
670 670 1 0.0 138.45421054214233 360.2303542854369 415.6280969373267 # Ar
671 671 1 0.0 23.748861020625373 714.4122026793331 497.6248933974883 # Ar
672 672 1 0.0 76.0563481987485 235.25830841723146 810.6503276227049 # Ar
673 673 1 0.0 9.302533754233199 652.5898522614347 211.40477453927815 # Ar
674 674 1 0.0 467.3574856363968 640.6656354742161 759.9298463503807 # Ar
675 675 1 0.0 311.8554956193522 302.06285820888587 212.12898526668383 # Ar
676 676 1 0.0 693.9512411053621 222.9944438848811 260.73273719988276 # Ar
677 677 1 0.0 447.1090198918779 154.57608985520426 682.6249793135727 # Ar
678 678 1 0.0 770.3809911717711 781.330655805618 473.17239126517865 # Ar
679 679 1 0.0 266.0995125117195 547.6569247269872 813.8089750268424 # Ar
680 680 1 0.0 579.6540288838111 616.8863385121196 415.8731485242384 # Ar
681 681 1 0.0 621.3354381799038 261.5871647671888 254.50635726724687 # Ar
682 682 1 0.0 138.25190569707138 314.04758799390214 777.2497538740829 # Ar
683 683 1 0.0 512.7945943102017 79.73992189575436 255.1436716384787 # Ar
684 684 1 0.0 742.4335153933365 719.0078453437599 276.2239714127999 # Ar
685 685 1 0.0 687.2250824797053 812.0521214682013 205.6011751989353 # Ar
686 686 1 0.0 433.73656166543907 770.4731332581445 194.7425315920256 # Ar
687 687 1 0.0 30.879893726247158 220.58041003275454 397.410048021635 # Ar
688 688 1 0.0 88.0449504222957 596.2652346661222 814.971064991339 # Ar
689 689 1 0.0 200.02424750703082 687.621004374657 241.79264834418547 # Ar
690 690 1 0.0 24.510284484973653 524.5285630114798 297.56642163986675 # Ar
691 691 1 0.0 97.15442589502005 802.893903692295 551.2344923728872 # Ar
692 692 1 0.0 717.276310350057 349.0637341245506 216.10092587703514 # Ar
693 693 1 0.0 655.6044298968726 507.82734003502424 171.06231050437165 # Ar
694 694 1 0.0 654.6847882000806 245.24872560303896 94.92197280788925 # Ar
695 695 1 0.0 722.5345289233248 703.2518325523505 628.9701723576392 # Ar
696 696 1 0.0 207.762564317612 449.5384591826381 176.9769272429159 # Ar
697 697 1 0.0 746.1860806405398 75.16028341513704 295.24607700634516 # Ar
698 698 1 0.0 722.0041926971718 770.5832541746715 324.7695167913083 # Ar
699 699 1 0.0 317.3063922121259 185.94952830571233 363.31846612546684 # Ar
700 700 1 0.0 364.19399857969324 774.75879824485 414.0408237447701 # Ar
701 701 1 0.0 461.3372720210352 433.6796184992271 211.7912787281968 # Ar
702 702 1 0.0 405.3405366667003 180.68557067480032 513.6796465242866 # Ar
703 703 1 0.0 218.06991262772473 582.0633387011618 259.1133180995319 # Ar
704 704 1 0.0 514.2055291537091 721.3511847844551 664.2872516402887 # Ar
705 705 1 0.0 784.2912323010057 754.9890011672403 167.2764103072248 # Ar
706 706 1 0.0 177.46543393006 281.8471987502788 301.45073670016654 # Ar
707 707 1 0.0 262.37078825510287 48.242724562256704 130.4007303646319 # Ar
708 708 1 0.0 709.2173487692731 632.4853359247747 626.8304540185084 # Ar
709 709 1 0.0 538.1963535880627 638.3509021890486 511.77434594993696 # Ar
710 710 1 0.0 9.240929314195931 148.52111125952123 462.0061795469261 # Ar
711 711 1 0.0 14.57193860699598 395.0532711476114 26.48216791406141 # Ar
712 712 1 0.0 153.17118119298505 182.34426664831236 400.7587265485426 # Ar
713 713 1 0.0 168.74025396422576 621.2265039721599 492.65937253472845 # Ar
714 714 1 0.0 654.9096513545749 795.9657833089625 808.0023287675361 # Ar
715 715 1 0.0 580.2824441234557 320.65536553631136 258.7349679760153 # Ar
716 716 1 0.0 346.92913838427836 107.61015205747529 474.9835066447142 # Ar
717 717 1 0.0 2.3686886046216866 213.76547918996758 758.7953057938535 # Ar
718 718 1 0.0 329.20609087237824 788.1097172668907 431.0783389479126 # Ar
719 719 1 0.0 280.14493111378647 397.53119988522485 270.5119392431567 # Ar
720 720 1 0.0 482.1200903453556 230.7769928288138 624.005329576564 # Ar
721 721 1 0.0 746.2035460910436 801.0972441105015 545.8317988346937 # Ar
722 722 1 0.0 77.70670152363272 274.9518461942572 630.2129222667514 # Ar
723 723 1 0.0 702.0653027890853 175.69022783047802 816.5234980238936 # Ar
724 724 1 0.0 774.1845410607199 251.42141308560295 375.9572461948085 # Ar
725 725 1 0.0 579.253944775551 697.7417059182201 17.405992210695434 # Ar
726 726 1 0.0 172.41292470830967 322.78831418698667 595.8666734317027 # Ar
727 727 1 0.0 555.4788714909234 789.5636858007412 494.25558304653697 # Ar
728 728 1 0.0 151.54736364839056 235.93135322534826 248.05027491483537 # Ar
729 729 1 0.0 766.3484497572355 185.66503037533892 621.3329996549118 # Ar
730 730 1 0.0 524.3632245931775 602.5441602933374 740.5340451269564 # Ar
731 731 1 0.0 337.7937478584165 785.5476342776882 332.2744345128338 # Ar
732 732 1 0.0 213.64222252697442 7.5311715530341115 497.87735223651663 # Ar
733 733 1 0.0 282.8491394293272 384.5589955881222 354.3664343669586 # Ar
734 734 1 0.0 680.3814141851784 335.7170220301696 682.6084530213558 # Ar
735 735 1 0.0 259.6220753680685 151.97061308853674 416.51797583550683 # Ar
736 736 1 0.0 132.71734421044442 708.7646032467798 553.4404976678887 # Ar
737 737 1 0.0 289.5123862352967 90.21970975584637 786.4087002156258 # Ar
738 738 1 0.0 658.2847196968444 137.04503566035376 291.32530994848537 # Ar
739 739 1 0.0 363.4197302716192 69.73920662278886 32.815612864149834 # Ar
740 740 1 0.0 813.5168489222813 119.68887270959499 703.382707659624 # Ar
741 741 1 0.0 313.4550734028317 768.9035102106765 88.92677281059733 # Ar
742 742 1 0.0 4.624051493155812 556.8309892366702 137.1354664221252 # Ar
743 743 1 0.0 83.54112579253426 144.42915943450896 450.52681186008283 # Ar
744 744 1 0.0 661.1399048564996 209.4462912544861 190.74713702675731 # Ar
745 745 1 0.0 242.01386082578438 412.9403617174933 477.25042413334717 # Ar
746 746 1 0.0 85.7551308604725 438.21717118573594 23.345351440030917 # Ar
747 747 1 0.0 247.92647751753583 94.21290926920531 191.12971594587796 # Ar
748 748 1 0.0 186.65877445438124 457.99676757915813 191.0647843015865 # Ar
749 749 1 0.0 161.84511829626877 564.394037556378 267.0186467552828 # Ar
750 750 1 0.0 802.4802325038196 694.8220204668112 50.81611460460669 # Ar
751 751 1 0.0 373.79876688641036 441.5657519178003 523.095897635007 # Ar
752 752 1 0.0 493.06168115053066 151.79230938882188 766.9978457977829 # Ar
753 753 1 0.0 523.4713507978877 428.065913917526 60.8011153969867 # Ar
754 754 1 0.0 140.40569017263567 762.8989819323506 670.582606720539 # Ar
755 755 1 0.0 587.0783461139721 772.2475630742141 607.27019310709 # Ar
756 756 1 0.0 734.7056116853128 569.4897468100105 218.6662068762957 # Ar
757 757 1 0.0 397.0132110826275 754.2325756324689 734.4177103904423 # Ar
758 758 1 0.0 504.42758607580237 122.4991780382744 384.06070525031896 # Ar
759 759 1 0.0 252.61332442883906 550.1281785515282 457.665080127363 # Ar
760 760 1 0.0 588.2886992844184 396.1325020356738 363.02433175137645 # Ar
761 761 1 0.0 360.4963202584705 570.2193060424714 598.868604449779 # Ar
762 762 1 0.0 645.5956614057789 695.9211274814235 717.1161362544716 # Ar
763 763 1 0.0 254.4518091126309 319.8405155860115 127.53190195613296 # Ar
764 764 1 0.0 70.1620842542583 438.1376525275848 26.09330660402893 # Ar
765 765 1 0.0 325.19797729081426 239.7687107185904 778.0476416576045 # Ar
766 766 1 0.0 799.9979298668188 27.56082940654445 221.94766169220912 # Ar
767 767 1 0.0 579.4898076653573 224.3006759596517 204.17491271306025 # Ar
768 768 1 0.0 37.13889804513782 236.9744912597009 671.2045589793966 # Ar
769 769 1 0.0 91.21019193251547 803.8920944272966 607.2455259722714 # Ar
770 770 1 0.0 582.1417243821091 347.8750070009199 536.7791395367154 # Ar
771 771 1 0.0 311.4004309497496 100.41156778814036 250.58259332877182 # Ar
772 772 1 0.0 144.26927342840128 481.35712470600413 464.63694135638656 # Ar
773 773 1 0.0 13.6669900288582 680.6752348890952 503.0284095242443 # Ar
774 774 1 0.0 105.03198902422666 699.8341768188646 738.8433246844495 # Ar
775 775 1 0.0 386.81735054877413 96.33827466202261 256.5045098291629 # Ar
776 776 1 0.0 280.7099259680594 799.6691171296515 491.2860131040956 # Ar
777 777 1 0.0 371.3944001853531 492.6048428288273 240.2194873852434 # Ar
778 778 1 0.0 79.03628636537644 605.0923815876523 605.8096093892194 # Ar
779 779 1 0.0 319.4087196496084 794.281596902476 525.0819401625113 # Ar
780 780 1 0.0 146.06949239810632 599.6375103696835 451.8185210408145 # Ar
781 781 1 0.0 533.8925808084348 622.4132657779222 349.99504907800235 # Ar
782 782 1 0.0 65.84322049064272 59.29033191094614 35.56238565487678 # Ar
783 783 1 0.0 196.6457603985313 749.5255924247779 633.8539563238758 # Ar
784 784 1 0.0 648.5243115403138 57.13115506177233 61.867151568759716 # Ar
785 785 1 0.0 418.13075063164086 164.0930055143687 248.0245267683286 # Ar
786 786 1 0.0 316.6724288080263 167.5995492022607 315.23444935301245 # Ar
787 787 1 0.0 540.3355211559171 795.2084258054434 799.2645750498267 # Ar
788 788 1 0.0 121.81244835654643 505.06053594440385 732.5798220545025 # Ar
789 789 1 0.0 514.7403627661477 11.102929963636234 216.2616968607261 # Ar
790 790 1 0.0 362.269364603439 794.5051031897175 141.6582796362692 # Ar
791 791 1 0.0 126.19885692468151 483.24436076440145 21.049821439064623 # Ar
792 792 1 0.0 524.3946267697278 665.9035878744799 462.2273451655452 # Ar
793 793 1 0.0 525.3665431278363 736.4392009420404 659.0384280820992 # Ar
794 794 1 0.0 812.298656394964 699.860039735224 270.71193576674705 # Ar
795 795 1 0.0 221.20776415277277 760.8468026136097 384.59931885272323 # Ar
796 796 1 0.0 815.9452739509966 393.32666292233966 764.6408332147461 # Ar
797 797 1 0.0 667.193746402243 507.14851221207135 336.8830073416355 # Ar
798 798 1 0.0 243.97679942102124 529.9793651647632 256.24768651322114 # Ar
799 799 1 0.0 175.76551383261406 799.6183346043244 398.9477004553307 # Ar
800 800 1 0.0 566.2178589019084 413.7515612813073 419.4072844512078 # Ar
801 801 1 0.0 582.1686818040074 707.3229887563269 126.9080193553596 # Ar
802 802 1 0.0 710.0435150270928 440.5740407573653 773.1454132865301 # Ar
803 803 1 0.0 506.0335666736318 40.49551907473465 351.3648157668887 # Ar
804 804 1 0.0 289.78873731205476 175.5534699735998 57.11661414121319 # Ar
805 805 1 0.0 80.75682295932776 553.3244304027094 772.1465575303318 # Ar
806 806 1 0.0 729.634541203972 815.9149236823735 683.785123440798 # Ar
807 807 1 0.0 724.6326349734886 405.38601961537705 628.5879420766017 # Ar
808 808 1 0.0 444.751793136128 289.16861297206475 687.7775732707041 # Ar
809 809 1 0.0 613.3526758036637 423.17124629308177 455.39946173377984 # Ar
810 810 1 0.0 505.7329164631659 364.6833614546729 720.2020262169323 # Ar
811 811 1 0.0 680.5487127691671 501.4157984973955 475.67635813175326 # Ar
812 812 1 0.0 138.72396335188066 200.5048352382514 801.8737441408456 # Ar
813 813 1 0.0 308.7562086887797 231.47544409582076 726.6393772582397 # Ar
814 814 1 0.0 780.3504650799272 303.3362851012174 171.71074780008541 # Ar
815 815 1 0.0 355.368448380468 365.09709874149485 413.0018429265142 # Ar
816 816 1 0.0 532.3814495715712 343.6508911867529 797.6180805851085 # Ar
817 817 1 0.0 762.323554002115 616.4398462534651 17.57856897425856 # Ar
818 818 1 0.0 314.52778366742734 677.8613503973224 757.3519470856276 # Ar
819 819 1 0.0 228.4714488019957 54.34890261982247 317.0605348049074 # Ar
820 820 1 0.0 724.6055468793985 329.0894648358047 336.57074609798457 # Ar
821 821 1 0.0 807.1403601737695 25.063705544916516 809.2216427185183 # Ar
822 822 1 0.0 309.66440018590197 437.50389771415786 146.26002688971693 # Ar
823 823 1 0.0 680.5887546196161 322.7869594101673 678.1462680542908 # Ar
824 824 1 0.0 18.2394223479864 42.76797699043348 482.1941933434987 # Ar
825 825 1 0.0 166.29987251628387 325.3948700998958 657.4702910417625 # Ar
826 826 1 0.0 647.5396639678282 12.367406538740038 347.88166123910315 # Ar
827 827 1 0.0 127.32409597194398 767.9775155298253 210.56429147950064 # Ar
828 828 1 0.0 538.6716974901742 53.652936669508094 471.0706734806666 # Ar
829 829 1 0.0 714.5618421212756 743.5567497799543 465.79540091858763 # Ar
830 830 1 0.0 527.6980540189751 777.4319406968295 91.1841518072553 # Ar
831 831 1 0.0 130.3253552222125 417.0246790498258 663.659030700002 # Ar
832 832 1 0.0 5.5628796077406095 368.33300074632547 248.78521553802645 # Ar
833 833 1 0.0 535.634222863528 568.7494314270457 315.99308565333354 # Ar
834 834 1 0.0 284.24392021705216 511.4968049557171 248.13443994349453 # Ar
835 835 1 0.0 748.4185034104338 289.0656964657992 221.5129946617324 # Ar
836 836 1 0.0 380.71904796897854 663.1867975721308 29.07239317968337 # Ar
837 837 1 0.0 605.1899199168804 262.09054895503886 158.3675419244489 # Ar
838 838 1 0.0 21.955003330617913 300.45773104086317 688.1047238527622 # Ar
839 839 1 0.0 644.6163233548942 116.96659084018245 151.0358738450699 # Ar
840 840 1 0.0 143.9950081029557 311.1350478577798 596.2503016722785 # Ar
841 841 1 0.0 641.1136276760068 186.65908949304054 764.2911638495401 # Ar
842 842 1 0.0 641.0939373526394 409.1945293572223 101.33076645159124 # Ar
843 843 1 0.0 811.8857860372207 192.12147180601474 795.2864113403984 # Ar
844 844 1 0.0 724.3273996667385 757.3392196055853 438.1012686345302 # Ar
845 845 1 0.0 381.20167149602537 6.1007045738780254 753.0673277519157 # Ar
846 846 1 0.0 448.51225532755427 293.1390744291865 178.67355698594278 # Ar
847 847 1 0.0 523.8440098488782 727.3498428780043 626.8229126599988 # Ar
848 848 1 0.0 501.7537004343082 100.31953894516126 804.8049972944013 # Ar
849 849 1 0.0 242.03452951363406 198.9347189063433 188.20158584155163 # Ar
850 850 1 0.0 694.7150079734585 634.2967328069834 739.4962761570845 # Ar
851 851 1 0.0 684.689858034882 744.542427755037 309.0519390084723 # Ar
852 852 1 0.0 815.6702253495408 502.76367226701 761.432564583835 # Ar
853 853 1 0.0 257.8433699864684 640.3412895364711 343.4719864344759 # Ar
854 854 1 0.0 772.3589963141055 538.8024709687259 517.6117602872977 # Ar
855 855 1 0.0 85.43998340566364 303.87101021435564 121.40252662960725 # Ar
856 856 1 0.0 368.51521516236085 683.7847987866814 337.80535458554397 # Ar
857 857 1 0.0 793.7891359044253 411.76467739102725 143.36075204381876 # Ar
858 858 1 0.0 248.87617058162786 502.37651358802646 205.41264545850257 # Ar
859 859 1 0.0 447.7896834165809 648.1091994921062 549.0895917242013 # Ar
860 860 1 0.0 68.35951958499719 740.851613282834 327.5058421781779 # Ar
861 861 1 0.0 785.934496795707 171.72969920787426 538.1600562222369 # Ar
862 862 1 0.0 293.9162700761696 779.5378723892502 768.5807722232339 # Ar
863 863 1 0.0 802.295373210376 620.9903470427424 95.70575180372356 # Ar
864 864 1 0.0 385.9891908469654 66.24537169321053 155.8339557843372 # Ar
865 865 1 0.0 357.7812236232935 673.2579936689754 758.2101162069055 # Ar
866 866 1 0.0 456.32671674301565 172.11292322548724 605.4470124824894 # Ar
867 867 1 0.0 700.8093266303568 714.1316521025643 312.9491053068898 # Ar
868 868 1 0.0 804.9479585959151 147.11704835400292 685.2817629147618 # Ar
869 869 1 0.0 498.51373676713183 717.2434830758916 18.4191874298783 # Ar
870 870 1 0.0 203.52966264045753 168.14003023364532 130.90366332080907 # Ar
871 871 1 0.0 692.6942096698509 182.29059718447513 552.3325047147396 # Ar
872 872 1 0.0 51.689152765127766 477.8959733852287 61.647335449586265 # Ar
873 873 1 0.0 706.5699231256001 720.4939152612886 525.259404085479 # Ar
874 874 1 0.0 350.24132404672326 66.68901460645112 132.5221099259309 # Ar
875 875 1 0.0 244.63494069716364 439.63438456531446 354.6243111012452 # Ar
876 876 1 0.0 327.865654520305 563.4014986123708 300.52346882009255 # Ar
877 877 1 0.0 53.0373534423812 622.6775889753583 566.9333097433295 # Ar
878 878 1 0.0 38.70988592573047 101.91325888611298 758.8968905911566 # Ar
879 879 1 0.0 590.1160116269499 450.2549960477616 412.15149468189645 # Ar
880 880 1 0.0 601.3002290896486 663.4441390330087 448.49451950924276 # Ar
881 881 1 0.0 162.9888895889446 107.61349442967747 730.3329593304787 # Ar
882 882 1 0.0 221.8485124897381 285.22101132225157 277.34677006994804 # Ar
883 883 1 0.0 574.2627999307799 208.96228406635018 483.2407858845296 # Ar
884 884 1 0.0 154.72845833646107 92.80934545025367 82.68308804875096 # Ar
885 885 1 0.0 580.7839029980662 381.7787247308884 220.10811307013068 # Ar
886 886 1 0.0 721.0626455809838 562.3429376357418 488.9001285090293 # Ar
887 887 1 0.0 619.5808795189047 482.6558660570502 677.6479133740861 # Ar
888 888 1 0.0 391.516984247034 421.8927607318338 470.27884161811886 # Ar
889 889 1 0.0 138.8600623688323 795.4911288894588 706.7924424992387 # Ar
890 890 1 0.0 264.64143195692475 25.910591932020864 163.05791747824128 # Ar
891 891 1 0.0 389.64710658896433 241.52829255985682 641.9904077399148 # Ar
892 892 1 0.0 132.21232341383404 32.268810878123986 699.2640600758416 # Ar
893 893 1 0.0 232.0757656096117 566.9457568051517 758.6711402648027 # Ar
894 894 1 0.0 167.63021826026676 50.40261930452827 744.2758923912404 # Ar
895 895 1 0.0 650.4256833520828 677.4498058210118 64.56717185678276 # Ar
896 896 1 0.0 523.1698135841256 429.88845056859554 599.9267307608352 # Ar
897 897 1 0.0 515.9222071506133 448.60574258596967 13.198800854631413 # Ar
898 898 1 0.0 495.4496579204002 761.3988640918395 189.25864181486037 # Ar
899 899 1 0.0 485.8265885679199 435.6018541339442 477.4811650480814 # Ar
900 900 1 0.0 427.348496484944 673.0936724362971 377.60771639340413 # Ar
901 901 1 0.0 175.30367991594227 488.96134769170476 729.9337427157968 # Ar
902 902 1 0.0 382.6795006219434 141.2271529524755 128.53223484138962 # Ar
903 903 1 0.0 529.8126317738586 93.07083022456032 312.46255139501324 # Ar
904 904 1 0.0 176.60042856162897 209.3166033376428 286.42870147204434 # Ar
905 905 1 0.0 136.84754084627411 614.9049205505873 509.3497762615939 # Ar
906 906 1 0.0 425.4506022122594 571.4007698675198 198.7893460040104 # Ar
907 907 1 0.0 335.78271716642575 570.5854761080245 489.3510989070726 # Ar
908 908 1 0.0 295.6666111835297 368.97563433165277 328.63855859673635 # Ar
909 909 1 0.0 438.10335294631955 4.139997479986047 783.2858962808638 # Ar
910 910 1 0.0 560.1462564342787 329.0965727090532 16.610931160275435 # Ar
911 911 1 0.0 499.4679051313137 457.70641486398614 265.36262450019274 # Ar
912 912 1 0.0 766.0972675742767 711.0817613260834 810.7187380928775 # Ar
913 913 1 0.0 156.25902794090987 323.8327881086195 676.4297252299915 # Ar
914 914 1 0.0 364.8312296972314 645.994773940062 42.86543776772725 # Ar
915 915 1 0.0 372.2887102783108 471.0239012706695 436.06411158863307 # Ar
916 916 1 0.0 670.6490927094292 335.7164941800673 198.08267484294475 # Ar
917 917 1 0.0 682.8955546725422 719.3089233442158 765.1430099499985 # Ar
918 918 1 0.0 454.5209311415967 455.9107098274927 709.8874035059811 # Ar
919 919 1 0.0 203.83509265635283 743.418422662506 257.21257488372083 # Ar
920 920 1 0.0 728.5458232368579 449.36084201474927 690.6812394911167 # Ar
921 921 1 0.0 378.18232811061756 507.79716438366927 757.6952022912275 # Ar
922 922 1 0.0 32.413382722087505 283.5755876833686 462.554184774333 # Ar
923 923 1 0.0 326.68012988091454 359.76379598895056 172.23206603185392 # Ar
924 924 1 0.0 284.0020406587141 462.8481210635108 317.207931488864 # Ar
925 925 1 0.0 135.5362477925627 523.5976410333288 249.29703877614688 # Ar
926 926 1 0.0 787.2336424353817 760.1154963915416 671.5620749641021 # Ar
927 927 1 0.0 641.0144581773228 522.3894959582203 58.52571754104178 # Ar
928 928 1 0.0 640.5423835300072 806.2190741567196 0.6832478534092984 # Ar
929 929 1 0.0 53.93869118843393 583.2674429962495 603.861085986735 # Ar
930 930 1 0.0 638.4343612560916 627.6576007078243 182.68597351265683 # Ar
931 931 1 0.0 800.9583356941616 153.5313276381305 677.4355782292189 # Ar
932 932 1 0.0 411.21708755740787 270.25587055748446 698.6233251974166 # Ar
933 933 1 0.0 567.6276647052599 74.96337050347839 257.1048895479427 # Ar
934 934 1 0.0 150.43491247487512 275.8913355060818 289.63998294769664 # Ar
935 935 1 0.0 136.1925005331972 92.52015265405407 5.026563060197701 # Ar
936 936 1 0.0 144.58378361088427 555.5571731376037 649.4374577068307 # Ar
937 937 1 0.0 615.6215899222501 190.29850317083412 189.20954466154777 # Ar
938 938 1 0.0 47.19666318113594 246.3375651073522 635.2105740774623 # Ar
939 939 1 0.0 299.9077931121235 470.4883041871846 205.10201423418164 # Ar
940 940 1 0.0 366.9749296887251 626.7968322661482 508.86286131752377 # Ar
941 941 1 0.0 427.2534072897706 770.4320836772254 363.5928603431416 # Ar
942 942 1 0.0 20.061540278233323 182.18521292850232 758.632811531763 # Ar
943 943 1 0.0 308.3750116725223 264.76927620032086 728.8391358109789 # Ar
944 944 1 0.0 397.1312900697293 473.0105114285437 275.7642709408891 # Ar
945 945 1 0.0 691.1846489806038 513.152895207978 670.3374246734163 # Ar
946 946 1 0.0 637.0810419870339 208.41259869619242 127.6111560366805 # Ar
947 947 1 0.0 552.0247811520421 260.60195791683793 703.8004052776189 # Ar
948 948 1 0.0 105.90406461342526 640.216547053774 620.8368851313218 # Ar
949 949 1 0.0 488.7074309361388 414.39307928527387 534.674164943575 # Ar
950 950 1 0.0 653.0229181218438 124.58609655938814 392.89718668820836 # Ar
951 951 1 0.0 711.871857091472 132.9014003034473 652.0431889017801 # Ar
952 952 1 0.0 134.15894914937277 317.5880607259922 288.84535102761066 # Ar
953 953 1 0.0 680.8823878456911 730.6983499537637 505.8898056993762 # Ar
954 954 1 0.0 306.7336842542734 106.91471475468774 4.482525771330373 # Ar
955 955 1 0.0 281.9121552489923 671.2277856886644 609.145037090092 # Ar
956 956 1 0.0 449.61532100049874 311.9423110220258 562.4216052732404 # Ar
957 957 1 0.0 572.0382039176152 710.6101149996772 722.549734046344 # Ar
958 958 1 0.0 725.4348306140676 5.638798993687054 270.0436270611549 # Ar
959 959 1 0.0 592.0598459940242 612.5557807848614 645.8242641507371 # Ar
960 960 1 0.0 478.0921619654455 683.6366280755853 70.85015590337169 # Ar
961 961 1 0.0 357.3814133068315 739.7866055608459 176.3787992689782 # Ar
962 962 1 0.0 123.6693492151047 721.1646794381148 724.9686333886784 # Ar
963 963 1 0.0 351.07890809987805 459.40787540056914 214.95357585753533 # Ar
964 964 1 0.0 155.62705797198856 555.1543364612805 558.3648483869916 # Ar
965 965 1 0.0 354.8991534062762 334.8984429628878 159.82628372003717 # Ar
966 966 1 0.0 516.4165421120223 551.034366817268 264.8689590416473 # Ar
967 967 1 0.0 814.6010044510314 68.61457065991817 668.9845528210482 # Ar
968 968 1 0.0 101.07524183101182 398.4264592042924 389.7288359962717 # Ar
969 969 1 0.0 310.624973724967 410.53890432498133 114.17502691594112 # Ar
970 970 1 0.0 478.4394118361791 638.9428380856252 179.0132118210994 # Ar
971 971 1 0.0 349.1732665993308 478.8222682609201 576.7190057326728 # Ar
972 972 1 0.0 106.83097817261154 810.9445041208763 607.6796727344496 # Ar
973 973 1 0.0 348.98569426481913 234.63128781922478 241.94486969606464 # Ar
974 974 1 0.0 733.2152632141281 717.979486596616 339.23817484858876 # Ar
975 975 1 0.0 530.467674816688 504.9919303608292 213.39416657677046 # Ar
976 976 1 0.0 532.2763082862119 106.88831822912107 584.6830099319449 # Ar
977 977 1 0.0 779.2316963640002 271.5128383559706 41.978544220139426 # Ar
978 978 1 0.0 796.721018316307 480.6480006287932 101.03310992617469 # Ar
979 979 1 0.0 155.80210886924607 741.3555793579741 11.227731102361913 # Ar
980 980 1 0.0 265.194476145138 786.7754344675564 369.159530763064 # Ar
981 981 1 0.0 267.1961589306659 506.5912391804915 24.116566466282478 # Ar
982 982 1 0.0 320.5534883586059 408.8884254938492 129.70418955750955 # Ar
983 983 1 0.0 249.69530007827134 424.87928618583913 75.24558629457108 # Ar
984 984 1 0.0 272.25206663217335 30.096013289759618 81.71338361866752 # Ar
985 985 1 0.0 522.5741951839367 768.9137794638909 259.594923383559 # Ar
986 986 1 0.0 10.234196319335862 341.7788635894522 78.39446475846059 # Ar
987 987 1 0.0 727.859197957802 502.73773072585345 672.1271404239413 # Ar
988 988 1 0.0 164.94470315611852 708.3436887396052 82.91057980497146 # Ar
989 989 1 0.0 403.2486728831835 654.5113352120146 359.3415821491437 # Ar
990 990 1 0.0 632.7761252042787 176.62329192722012 371.2973175331748 # Ar
991 991 1 0.0 118.53809621695922 673.2554635701808 312.1008993934125 # Ar
992 992 1 0.0 18.828897002776813 317.631369265441 17.730858842563116 # Ar
993 993 1 0.0 646.2974490216042 29.180334769739673 320.9642665900304 # Ar
994 994 1 0.0 336.98819172909884 165.76411514713004 432.77753398668784 # Ar
995 995 1 0.0 572.979021617477 256.5951093864229 603.3865337400487 # Ar
996 996 1 0.0 92.08103519437468 579.073081104251 655.3634230646161 # Ar
997 997 1 0.0 570.2784166767684 12.127894566364882 12.899443230544943 # Ar
998 998 1 0.0 39.26218223918248 767.8260983072354 511.63861632287546 # Ar
999 999 1 0.0 100.2313373863157 792.2798204980555 410.0880971002669 # Ar
1000 1000 1 0.0 444.21042631548596 758.4577738010656 540.5907627166831 # Ar
1001 1001 1 0.0 365.480862606673 805.4442897628669 681.7400269348789 # Ar
1002 1002 1 0.0 551.5861480588866 659.8681842429086 499.8002123931195 # Ar
1003 1003 1 0.0 5.735227134861385 511.3873604786352 132.14159567972033 # Ar
1004 1004 1 0.0 554.2955558616426 768.7774606098556 141.82718081673426 # Ar
1005 1005 1 0.0 737.5314590278946 48.36770190834443 230.50592943830523 # Ar
1006 1006 1 0.0 678.8627859600165 279.9424266042207 399.2361442327067 # Ar
1007 1007 1 0.0 488.98834182161573 455.6327494833859 400.6418293015227 # Ar
1008 1008 1 0.0 385.88510125620195 387.17742854657456 144.43719148737895 # Ar
1009 1009 1 0.0 532.6681854318952 176.7466013441388 343.9274663303087 # Ar
1010 1010 1 0.0 810.661064640327 335.01338006728986 567.4898832918859 # Ar
1011 1011 1 0.0 756.1858391936037 442.25232646470727 663.472015659418 # Ar
1012 1012 1 0.0 812.6566806453355 463.007256920009 148.99669757285844 # Ar
1013 1013 1 0.0 758.1701633634252 347.6944373729245 425.30235258459965 # Ar
1014 1014 1 0.0 145.9897258195804 215.6571805403043 664.8686216904705 # Ar
1015 1015 1 0.0 150.99255832102997 684.898231555426 677.4188860517592 # Ar
1016 1016 1 0.0 753.583223367466 103.40795408363722 546.2940367544709 # Ar
1017 1017 1 0.0 662.9269995634041 98.93335082123085 440.71288573118704 # Ar
1018 1018 1 0.0 350.6935993661361 584.8407321635048 98.35791348536219 # Ar
1019 1019 1 0.0 125.57703657853926 126.98954297715186 479.6568044675853 # Ar
1020 1020 1 0.0 285.1470467036494 80.75670004392428 248.1373417085519 # Ar
1021 1021 1 0.0 588.106186778129 397.5427852822888 36.02800373953422 # Ar
1022 1022 1 0.0 343.2010799901328 22.82020697129304 577.2062643637763 # Ar
1023 1023 1 0.0 573.0467766651204 320.0314171785083 675.4412908555238 # Ar
1024 1024 1 0.0 181.7492628656192 780.7484500122846 347.34421517257465 # Ar
1025 1025 1 0.0 323.7929874414262 272.0154632194041 720.4661075266786 # Ar
1026 1026 1 0.0 723.6630224532075 725.5625460688937 109.84824220032885 # Ar
1027 1027 1 0.0 171.04768735571963 195.91837803042904 201.36489428028312 # Ar
1028 1028 1 0.0 502.68125213613143 737.9786869579955 597.677954577983 # Ar
1029 1029 1 0.0 545.1713372064839 588.5368047377958 774.4374175736092 # Ar
1030 1030 1 0.0 257.8160077469618 543.6807887275222 190.93721925750123 # Ar
1031 1031 1 0.0 333.7658671826583 496.3154976193584 52.46827899911912 # Ar
1032 1032 1 0.0 513.0158857286589 397.9173964871801 39.09517086549995 # Ar
1033 1033 1 0.0 539.4169277774864 496.73896400378163 814.2368747913464 # Ar
1034 1034 1 0.0 306.1715771847994 282.3976807964219 41.29637028710681 # Ar
1035 1035 1 0.0 43.1153885137758 790.9204209048376 485.3605216405931 # Ar
1036 1036 1 0.0 18.488787641207644 577.3479274959473 572.1062486874429 # Ar
1037 1037 1 0.0 397.58373877194725 489.2071400580786 273.198896304189 # Ar
1038 1038 1 0.0 685.5330193296486 774.0254637482697 712.228353603605 # Ar
1039 1039 1 0.0 125.42449226758106 548.8477575499084 510.3737732903132 # Ar
1040 1040 1 0.0 300.8975114135342 38.617949157865255 289.6551861328358 # Ar
1041 1041 1 0.0 559.2874869923372 104.1627357599123 204.00350484786628 # Ar
1042 1042 1 0.0 567.8664503053418 588.9170505783186 43.853116472237666 # Ar
1043 1043 1 0.0 61.127955779163194 295.48855546480866 413.634702709252 # Ar
1044 1044 1 0.0 543.5175707416836 112.82580496096205 408.8676850569255 # Ar
1045 1045 1 0.0 239.95176290294071 521.2205284534116 375.9200013476039 # Ar
1046 1046 1 0.0 788.5689173656226 461.9626385807206 177.79839776121622 # Ar
1047 1047 1 0.0 603.9120439906862 224.2622939412582 255.07536628625607 # Ar
1048 1048 1 0.0 496.8661714590997 146.11202717993817 677.4378014578962 # Ar
1049 1049 1 0.0 502.8968704336658 733.7976527522386 393.4747224081387 # Ar
1050 1050 1 0.0 191.7901538829516 158.07479123217036 606.101910337561 # Ar
1051 1051 1 0.0 175.20653264451386 215.22213207424463 680.9529815758755 # Ar
1052 1052 1 0.0 221.78663819910736 448.0647648284974 568.5283318365659 # Ar
1053 1053 1 0.0 681.9158367410082 759.3732237525488 547.1761628500764 # Ar
1054 1054 1 0.0 460.8595925809292 210.7393646234622 580.4573297033548 # Ar
1055 1055 1 0.0 664.3355237385423 781.0681424969551 524.7442862670431 # Ar
1056 1056 1 0.0 420.6158188223729 649.1503143408812 613.0125283377132 # Ar
1057 1057 1 0.0 815.2120090306461 792.9941835727997 803.4157151421026 # Ar
1058 1058 1 0.0 323.9730784965398 64.34657901995227 772.4291719429186 # Ar
1059 1059 1 0.0 316.5662172461949 48.57476167557118 298.94113110473563 # Ar
1060 1060 1 0.0 782.4096299902944 152.0195645563148 761.2546706317438 # Ar
1061 1061 1 0.0 478.0991892293979 151.9306945417027 365.4517006748701 # Ar
1062 1062 1 0.0 482.0206006049561 118.65968379167889 369.3130586778079 # Ar
1063 1063 1 0.0 748.7528301719583 482.8652442937526 546.0164277028912 # Ar
1064 1064 1 0.0 120.92641055994271 633.2512230541023 471.48695425595685 # Ar
1065 1065 1 0.0 483.4960857004689 306.42689228504383 367.00132902575103 # Ar
1066 1066 1 0.0 38.81639384761822 699.2139587960788 385.20870499627364 # Ar
1067 1067 1 0.0 46.72058977270076 193.56918805773833 564.4299279760689 # Ar
1068 1068 1 0.0 733.4285578232802 65.65765669223251 162.826391742033 # Ar
1069 1069 1 0.0 238.3369235660145 764.9400543940137 118.1191211658768 # Ar
1070 1070 1 0.0 403.9351655147252 600.3179700695084 595.0400081588672 # Ar
1071 1071 1 0.0 478.0038179168932 105.46451285365269 25.71742746680564 # Ar
1072 1072 1 0.0 290.09925681485197 174.88322943677525 543.6171425685989 # Ar
1073 1073 1 0.0 155.63200047951761 496.9828274748031 318.0986203765042 # Ar
1074 1074 1 0.0 428.9738505937699 455.77044025369446 394.49391603109865 # Ar
1075 1075 1 0.0 542.4956679753506 287.7488752668372 673.201797659955 # Ar
1076 1076 1 0.0 497.4958780469064 616.2202927444737 24.042542926610945 # Ar
1077 1077 1 0.0 598.9593394230066 673.3903661758973 214.00568979832624 # Ar
1078 1078 1 0.0 616.4011269874193 466.74835654431723 360.57919561522476 # Ar
1079 1079 1 0.0 691.6217331122006 344.0709060831728 484.2558833732069 # Ar
1080 1080 1 0.0 101.60029323432448 314.44397109074424 376.9390325693994 # Ar
1081 1081 1 0.0 199.70177806488795 811.2820480247526 567.4856297249464 # Ar
1082 1082 1 0.0 479.69660880769356 549.2432343033984 666.65395665855 # Ar
1083 1083 1 0.0 550.516202130991 757.3993309334188 657.2308753066694 # Ar
1084 1084 1 0.0 676.332524311493 444.9081232373149 341.1141719618509 # Ar
1085 1085 1 0.0 50.94770654601515 256.4652748716974 484.0180991333837 # Ar
1086 1086 1 0.0 442.2023824472041 342.888245271262 497.37155041197207 # Ar
1087 1087 1 0.0 758.067585161042 400.5938713329903 104.64562489799083 # Ar
1088 1088 1 0.0 22.69115034155321 50.50743692520539 13.013827060554846 # Ar
1089 1089 1 0.0 141.22981281956288 245.69959139628094 475.02121278601624 # Ar
1090 1090 1 0.0 271.17454386649274 353.508207545777 232.25275076532793 # Ar
1091 1091 1 0.0 141.1364642612014 572.0276579243573 535.3059530433542 # Ar
1092 1092 1 0.0 376.3170602763517 419.28031080139857 527.7114111474096 # Ar
1093 1093 1 0.0 348.44079579268646 569.6979620990271 205.098601751736 # Ar
1094 1094 1 0.0 303.2594081721032 663.2242836472994 99.06258660676896 # Ar
1095 1095 1 0.0 507.6828459709014 88.16993276699918 380.30748539644276 # Ar
1096 1096 1 0.0 566.6234321129613 246.25962747639363 412.0948858798229 # Ar
1097 1097 1 0.0 529.1028186625373 414.00732862451656 740.7000597354062 # Ar
1098 1098 1 0.0 441.43367111251473 777.7155450409513 623.0229477101603 # Ar
1099 1099 1 0.0 644.1209100952051 147.88135838804976 651.7992290269929 # Ar
1100 1100 1 0.0 414.16037456961806 710.5712989505718 494.68452004004683 # Ar
1101 1101 1 0.0 211.9033011643558 74.89562628809621 36.36896770326509 # Ar
1102 1102 1 0.0 478.70568198301925 279.54111849693965 763.5114919541599 # Ar
1103 1103 1 0.0 636.0239562972089 174.07468739523617 579.5500889638254 # Ar
1104 1104 1 0.0 32.67166122336147 454.4928048237931 653.8003060441692 # Ar
1105 1105 1 0.0 528.639331744326 792.623783735034 89.32260065398361 # Ar
1106 1106 1 0.0 377.487887959389 18.325229432454794 214.62834003678736 # Ar
1107 1107 1 0.0 519.1771063889856 495.5328567139944 73.10510822045345 # Ar
1108 1108 1 0.0 257.31219498731264 574.3675303712505 510.08745129950995 # Ar
1109 1109 1 0.0 704.1507026752776 761.3872610374813 53.36751389107235 # Ar
1110 1110 1 0.0 197.34417723027784 572.6280255554362 808.3328563645447 # Ar
1111 1111 1 0.0 484.07280309481087 344.6221271439512 299.1695098472309 # Ar
1112 1112 1 0.0 103.15228954223116 640.9025467628912 163.48539435978822 # Ar
1113 1113 1 0.0 800.0298336258913 187.1376614848406 437.23377540905096 # Ar
1114 1114 1 0.0 553.5952519076004 0.7883249652993591 347.8638831084861 # Ar
1115 1115 1 0.0 329.21919848829344 459.4030608219087 782.813070478522 # Ar
1116 1116 1 0.0 384.2627207834828 444.65648346095867 66.53481444562438 # Ar
1117 1117 1 0.0 22.05157116113736 336.4907675960416 41.4185754696433 # Ar
1118 1118 1 0.0 652.6654596227937 489.3768382826102 203.28520685103746 # Ar
1119 1119 1 0.0 778.6697926447952 749.4242696831809 513.5417247064095 # Ar
1120 1120 1 0.0 464.5686068949075 515.9514335652999 468.8888916080195 # Ar
1121 1121 1 0.0 552.2962015863549 381.6076321889264 208.96991994566656 # Ar
1122 1122 1 0.0 768.2308442826835 259.9745935296626 697.8398200939697 # Ar
1123 1123 1 0.0 508.7736501157599 59.991999168574196 535.336350687376 # Ar
1124 1124 1 0.0 462.37095280624607 265.1597964038031 55.51844686879652 # Ar
1125 1125 1 0.0 284.6250655652395 449.55981819187457 529.012279274769 # Ar
1126 1126 1 0.0 775.4824499763607 233.24588610828582 398.14805760768274 # Ar
1127 1127 1 0.0 43.28031660874272 328.0128769532451 761.9737736298443 # Ar
1128 1128 1 0.0 126.82512551454623 201.313989039506 161.55679177954602 # Ar
1129 1129 1 0.0 572.0420586627173 350.35723472894944 41.72714077701983 # Ar
1130 1130 1 0.0 813.9645142288629 41.467192553423104 58.29003472232735 # Ar
1131 1131 1 0.0 208.09180561698213 140.66915103596784 608.448379357071 # Ar
1132 1132 1 0.0 139.54032942858214 196.93119500888142 516.3896561270874 # Ar
1133 1133 1 0.0 629.1501901932644 212.82842936199532 333.6125973734219 # Ar
1134 1134 1 0.0 143.6194713440166 272.63565585116163 682.248309148257 # Ar
1135 1135 1 0.0 186.7019519162353 114.91828624059151 652.1389013124751 # Ar
1136 1136 1 0.0 26.524722291470056 585.2148043645652 343.49809478026873 # Ar
1137 1137 1 0.0 81.83709953257768 755.5606483737445 584.5673569816973 # Ar
1138 1138 1 0.0 417.1025968791576 768.3186835341704 188.8658795027138 # Ar
1139 1139 1 0.0 369.0384839835698 724.0673140100843 227.89973874506805 # Ar
1140 1140 1 0.0 177.36181953840898 455.8790519724131 122.43416845109782 # Ar
1141 1141 1 0.0 304.2112961723026 125.82179395220976 669.0638929437666 # Ar
1142 1142 1 0.0 517.3074322070443 798.7214358077047 285.5018282005809 # Ar
1143 1143 1 0.0 699.2601104391126 695.1628719923594 332.516108909051 # Ar
1144 1144 1 0.0 814.8037889862533 383.18566001322233 765.6870445370901 # Ar
1145 1145 1 0.0 231.44495483037676 560.4918619959185 120.8944396498652 # Ar
1146 1146 1 0.0 382.8743356098823 512.9477558722238 61.85099210290815 # Ar
1147 1147 1 0.0 438.2866045110241 22.237058307637408 59.93065389100062 # Ar
1148 1148 1 0.0 621.1480117856971 477.5602111256944 184.9030193372736 # Ar
1149 1149 1 0.0 187.8351855474958 226.16947573888336 315.44113052453406 # Ar
1150 1150 1 0.0 656.1546821883438 223.82224110974897 304.3163852154678 # Ar
1151 1151 1 0.0 730.6704513374928 684.6140946936281 4.174022875789982 # Ar
1152 1152 1 0.0 768.8761956430096 384.42674944514124 587.4994976099156 # Ar
1153 1153 1 0.0 718.9681782114974 280.2682645009292 748.5075321587318 # Ar
1154 1154 1 0.0 593.4382185747695 804.6155371759962 678.5746637524289 # Ar
1155 1155 1 0.0 380.55929045683473 778.6682516822665 657.9058306150919 # Ar
1156 1156 1 0.0 419.3051631470195 689.4375483818136 77.20130219842436 # Ar
1157 1157 1 0.0 685.4704119903898 88.44767158265188 226.75220482387405 # Ar
1158 1158 1 0.0 267.3116111117575 367.5516551513915 378.34045747744256 # Ar
1159 1159 1 0.0 413.19235828680615 594.137540035705 698.3651535853915 # Ar
1160 1160 1 0.0 193.70053889523427 131.81711086049017 61.83811904775918 # Ar
1161 1161 1 0.0 744.4204325599807 258.85051880511287 68.50940326433563 # Ar
1162 1162 1 0.0 160.58014969901933 398.46814823487927 509.5853441254462 # Ar
1163 1163 1 0.0 614.4874055584394 171.3545313935193 750.2922096588514 # Ar
1164 1164 1 0.0 322.5456160394324 220.34197050664636 620.3522040270716 # Ar
1165 1165 1 0.0 127.4432104831317 280.0971657527501 696.3359067307068 # Ar
1166 1166 1 0.0 305.56829236998533 281.62441623586955 363.3039195669665 # Ar
1167 1167 1 0.0 1.1166534735304872 477.46431744459056 106.55218761946823 # Ar
1168 1168 1 0.0 281.57168009924106 90.09461109788323 55.67450851108657 # Ar
1169 1169 1 0.0 43.07618767962308 115.59518454865884 690.746808453301 # Ar
1170 1170 1 0.0 700.7974122151096 529.7005444508737 454.7499522842618 # Ar
1171 1171 1 0.0 575.3728920496676 309.8154575760726 563.5962856721565 # Ar
1172 1172 1 0.0 31.810202376978427 152.9125269753504 622.7701855451545 # Ar
1173 1173 1 0.0 626.650634982877 181.82995530831795 422.59156942800723 # Ar
1174 1174 1 0.0 94.10555401575971 748.4773429561825 662.9347598162744 # Ar
1175 1175 1 0.0 52.03738783658266 490.75189041181216 429.6043613281787 # Ar
1176 1176 1 0.0 377.69901132409854 14.843450066629186 517.6312979785155 # Ar
1177 1177 1 0.0 296.426105730387 672.4780513753631 738.6986636516597 # Ar
1178 1178 1 0.0 400.9895540213182 66.7117403181162 350.42573523909044 # Ar
1179 1179 1 0.0 792.7204930284344 555.72783611879 280.8020436421646 # Ar
1180 1180 1 0.0 121.61485876699908 152.75014951967592 412.76925905901663 # Ar
1181 1181 1 0.0 45.14625591157882 575.6959538401046 380.500367838278 # Ar
1182 1182 1 0.0 169.58513485969954 60.58757181497601 60.38853310120519 # Ar
1183 1183 1 0.0 361.324652992823 317.8958302615218 36.85726358875251 # Ar
1184 1184 1 0.0 455.10611708572935 152.8272364513589 694.7075974366373 # Ar
1185 1185 1 0.0 71.53129772104218 74.48307274454119 29.704248706645988 # Ar
1186 1186 1 0.0 205.74193563604248 639.3580827968344 6.961941486281009 # Ar
1187 1187 1 0.0 688.4491822559906 551.3095004830443 15.144849935989512 # Ar
1188 1188 1 0.0 18.24249113575676 150.23409076868478 617.0696907442739 # Ar
1189 1189 1 0.0 322.1440138176454 783.9528569470598 265.96504082983483 # Ar
1190 1190 1 0.0 205.217930086436 759.3663093402077 346.52907129290054 # Ar
1191 1191 1 0.0 357.4224200681476 220.8862850984797 213.66740822039975 # Ar
1192 1192 1 0.0 651.3128705795888 531.9539732011535 658.2265008295745 # Ar
1193 1193 1 0.0 718.9979484098394 776.3403548860903 789.2104437327765 # Ar
1194 1194 1 0.0 14.73013273102558 384.4425392046558 626.5046893568327 # Ar
1195 1195 1 0.0 493.7638964597703 2.723419148402563 118.96650731333503 # Ar
1196 1196 1 0.0 523.5114017044979 188.3738325511957 148.91855366431034 # Ar
1197 1197 1 0.0 809.398780453075 303.12711541421635 115.80889475777367 # Ar
1198 1198 1 0.0 104.20321937057898 279.06788197427164 574.5527485755647 # Ar
1199 1199 1 0.0 463.20191017074626 346.64802514405125 317.95716926717853 # Ar
1200 1200 1 0.0 24.79916308547128 160.10181198764502 594.2255116158834 # Ar
1201 1201 1 0.0 384.14762104338837 802.1381239931087 534.2894793151783 # Ar
1202 1202 1 0.0 43.26688240874031 43.50127891282019 610.0421747936781 # Ar
1203 1203 1 0.0 421.32357522543856 598.9691368955529 150.53370238941608 # Ar
1204 1204 1 0.0 543.642448788298 793.6434407710235 401.65744390804434 # Ar
1205 1205 1 0.0 701.7467064493878 2.090840206807468 338.05413598285594 # Ar
1206 1206 1 0.0 494.61421119395027 199.20677740046557 506.2928798359135 # Ar
1207 1207 1 0.0 503.4509246801255 343.46853597869426 628.7427046595394 # Ar
1208 1208 1 0.0 612.3195218250039 246.05256261247888 413.13798381019114 # Ar
1209 1209 1 0.0 95.30866951892827 485.07305226814475 529.0310764366493 # Ar
1210 1210 1 0.0 705.2454804679338 230.24836641824302 550.1640292637765 # Ar
1211 1211 1 0.0 233.47625790557183 626.3392351322883 127.18792673922151 # Ar
1212 1212 1 0.0 10.716498241328368 775.9547267878321 695.0830285577448 # Ar
1213 1213 1 0.0 767.2636270059731 441.6087423417568 129.6340429025195 # Ar
1214 1214 1 0.0 86.526341677941 647.4487676687547 20.483871333868485 # Ar
1215 1215 1 0.0 720.8792786229709 760.7793756319164 266.6004393051863 # Ar
1216 1216 1 0.0 399.0237967051782 342.83403234049007 422.6536523821837 # Ar
1217 1217 1 0.0 128.86527978932432 328.9240491655525 82.76299759058452 # Ar
1218 1218 1 0.0 12.996267346227745 274.3191211272732 135.58881983725558 # Ar
1219 1219 1 0.0 601.2979433074942 25.808103421118965 672.3400490403296 # Ar
1220 1220 1 0.0 438.1643355290368 548.8515571939923 93.26111128218834 # Ar
1221 1221 1 0.0 414.0647895876197 725.6662674800566 400.83586552542533 # Ar
1222 1222 1 0.0 453.73052670434964 627.9687633675692 735.3441654309646 # Ar
1223 1223 1 0.0 45.95691362270355 785.0890504136137 536.6407283571442 # Ar
1224 1224 1 0.0 478.21451841555273 570.7326798807666 339.6877434748177 # Ar
1225 1225 1 0.0 580.4112211698312 752.7659949077098 777.9426907560791 # Ar
1226 1226 1 0.0 201.07967908284172 420.16178201355643 463.170847750683 # Ar
1227 1227 1 0.0 288.5553306543961 21.644570338295942 521.2421111830319 # Ar
1228 1228 1 0.0 45.76975611366321 406.6968966716719 261.0265490949309 # Ar
1229 1229 1 0.0 63.2036870297527 635.0462054908015 129.6281548433541 # Ar
1230 1230 1 0.0 663.0002658765417 202.31922684672872 655.1091031062365 # Ar
1231 1231 1 0.0 385.07348367967364 616.5240480936585 736.1229473495422 # Ar
1232 1232 1 0.0 387.84563488867934 643.1333766293125 361.07964855182996 # Ar
1233 1233 1 0.0 529.279790968203 91.98330854110768 425.10493314310804 # Ar
1234 1234 1 0.0 549.1149351131437 552.746890809629 322.85674655243406 # Ar
1235 1235 1 0.0 752.3622964224777 188.67846868195335 694.3869587326825 # Ar
1236 1236 1 0.0 315.52566115376334 442.08555609363873 443.7319951998936 # Ar
1237 1237 1 0.0 681.2734606268051 523.3306008678027 96.58727509974317 # Ar
1238 1238 1 0.0 498.88859097477786 515.5446537982468 767.456133078064 # Ar
1239 1239 1 0.0 656.5291113188895 25.941560750017885 229.99683194211264 # Ar
1240 1240 1 0.0 701.2587340392907 116.0904044882301 475.208909552749 # Ar
1241 1241 1 0.0 455.37160317527434 66.53419028074855 22.252195982099227 # Ar
1242 1242 1 0.0 460.55034982136027 359.2817115815661 504.74639780176074 # Ar
1243 1243 1 0.0 533.2248501100361 796.7505347361162 60.66934180749812 # Ar
1244 1244 1 0.0 517.1885224089473 793.6384169467291 789.0606400247916 # Ar
1245 1245 1 0.0 148.90186887039067 69.47093781723392 551.2863201394422 # Ar
1246 1246 1 0.0 737.2812244623243 199.45136883584874 522.5028001823997 # Ar
1247 1247 1 0.0 2.876374130284312 758.8322495108788 401.0889542359652 # Ar
1248 1248 1 0.0 373.5906901191045 601.4469515332017 620.5232543814258 # Ar
1249 1249 1 0.0 781.9589256568112 254.80644142653628 229.78313859000923 # Ar
1250 1250 1 0.0 294.1255981308186 686.7623081277866 20.908040081351967 # Ar
1251 1251 1 0.0 312.179817865025 244.32415624453213 332.91067526633776 # Ar
1252 1252 1 0.0 735.6866618565573 684.2473940458701 279.85490273801764 # Ar
1253 1253 1 0.0 700.004661916345 151.67300657700187 784.1814670779328 # Ar
1254 1254 1 0.0 487.21918036095565 228.01966530517967 259.54161899824607 # Ar
1255 1255 1 0.0 287.649275661017 755.969469967961 665.6272962183915 # Ar
1256 1256 1 0.0 631.69134037757 262.8109067640787 407.27792162829456 # Ar
1257 1257 1 0.0 548.5788605633934 37.482412828657 485.02825959183065 # Ar
1258 1258 1 0.0 64.23291126493451 272.41146233553354 676.5315755929921 # Ar
1259 1259 1 0.0 297.4079907828511 433.3782445836573 593.1998878652288 # Ar
1260 1260 1 0.0 63.68672387449365 4.605147649748149 761.3017130215172 # Ar
1261 1261 1 0.0 582.9087078081866 547.0678410028586 407.26303645443306 # Ar
1262 1262 1 0.0 521.0562759512429 168.69329899682936 135.16005097359596 # Ar
1263 1263 1 0.0 441.45650149703476 628.6495580785178 367.18154866941927 # Ar
1264 1264 1 0.0 161.18325021521912 193.4057247588187 479.85574498773934 # Ar
1265 1265 1 0.0 264.2278936713112 615.4644052283562 95.14042626322339 # Ar
1266 1266 1 0.0 113.436584929214 91.73675901232465 470.4523216012031 # Ar
1267 1267 1 0.0 674.4504452819527 390.081086424465 601.625490606408 # Ar
1268 1268 1 0.0 251.16242856244136 491.7275509650906 586.9200866351069 # Ar
1269 1269 1 0.0 117.4687998555297 173.2516021996154 565.5585317371253 # Ar
1270 1270 1 0.0 735.0384134480768 69.06642369333993 21.039647612053876 # Ar
1271 1271 1 0.0 686.2374495710313 774.0883024755358 677.6912313125251 # Ar
1272 1272 1 0.0 786.1179041525986 97.73561765911238 759.9143089995175 # Ar
1273 1273 1 0.0 467.81925579922375 324.5065664295642 88.89094772418565 # Ar
1274 1274 1 0.0 155.03815542328806 283.55431253823605 772.3356059572709 # Ar
1275 1275 1 0.0 147.0478845385344 591.1228622621304 127.13324351778243 # Ar
1276 1276 1 0.0 24.86050925037971 317.33515485623445 600.727780982578 # Ar
1277 1277 1 0.0 404.01934932115915 786.6492985566908 520.5101705526437 # Ar
1278 1278 1 0.0 273.6645947498626 428.53293663921227 659.5619761567323 # Ar
1279 1279 1 0.0 170.30784553145816 43.238344917957335 196.63818047728714 # Ar
1280 1280 1 0.0 575.0091080825243 533.0431979826425 553.1403684595465 # Ar
1281 1281 1 0.0 42.12421545294134 389.38137327273336 381.6795562236695 # Ar
1282 1282 1 0.0 575.1356543504629 210.77825420263295 286.3124638653456 # Ar
1283 1283 1 0.0 475.6550682074363 228.2313385180431 134.43266686787706 # Ar
1284 1284 1 0.0 34.536040730772065 813.3478234482549 611.6203814374945 # Ar
1285 1285 1 0.0 237.01209358720448 753.0301127476076 325.409937017432 # Ar
1286 1286 1 0.0 527.1539250972852 370.5462569534603 339.0769336237827 # Ar
1287 1287 1 0.0 222.06256910250352 756.3427043181367 353.07838878714307 # Ar
1288 1288 1 0.0 771.7487629035664 339.43778033871945 742.1920610331646 # Ar
1289 1289 1 0.0 534.8893751772565 792.7956850058346 253.12203301942583 # Ar
1290 1290 1 0.0 643.9912677128225 176.72120821125102 566.2776489727662 # Ar
1291 1291 1 0.0 591.7405719003463 265.72764169490915 226.01144100395868 # Ar
1292 1292 1 0.0 269.7955466268923 689.4538344350942 333.1798338058286 # Ar
1293 1293 1 0.0 128.85313557347385 783.9260656358924 599.5114401291058 # Ar
1294 1294 1 0.0 582.4043009856015 183.0710857485518 47.98318748632471 # Ar
1295 1295 1 0.0 65.69796487807149 71.44648266598128 88.35674065487305 # Ar
1296 1296 1 0.0 655.0296398357656 574.0197811829478 81.4304923032519 # Ar
1297 1297 1 0.0 206.3952157174296 480.00420398969766 815.1257026503233 # Ar
1298 1298 1 0.0 329.8445969368249 671.6600415217279 121.73313122516961 # Ar
1299 1299 1 0.0 680.4266786289303 174.4304966682348 393.1185501680001 # Ar
1300 1300 1 0.0 501.80414420965684 412.69117049344476 679.8457643748468 # Ar
1301 1301 1 0.0 637.4748792350116 576.9013733879577 284.4074023464461 # Ar
1302 1302 1 0.0 49.04583196173445 549.8550716921471 452.37197558799437 # Ar
1303 1303 1 0.0 93.16873453151837 198.92084430260397 509.019446985455 # Ar
1304 1304 1 0.0 628.2636167036538 609.7312371549477 139.7201390311725 # Ar
1305 1305 1 0.0 643.5666443991087 362.9560976193961 268.82252751376654 # Ar
1306 1306 1 0.0 384.8439197897052 237.51615553376956 2.2955329679724716 # Ar
1307 1307 1 0.0 763.6365703119184 531.1866952063612 312.2854063244521 # Ar
1308 1308 1 0.0 626.5028363352956 13.755699586641123 173.59439078125968 # Ar
1309 1309 1 0.0 19.34021646269906 330.15616932759923 464.2983127790753 # Ar
1310 1310 1 0.0 698.5999544677903 596.3694860481539 633.672455249829 # Ar
1311 1311 1 0.0 380.9713440787585 738.6000852435945 690.279953775906 # Ar
1312 1312 1 0.0 776.1145760950128 614.713775658423 496.2575714744953 # Ar
1313 1313 1 0.0 111.55549982605348 463.3491260223204 481.2655142033409 # Ar
1314 1314 1 0.0 636.9257318791142 114.90345810673578 600.4974124796385 # Ar
1315 1315 1 0.0 64.99716006648322 685.7497201435735 341.18269143946 # Ar
1316 1316 1 0.0 407.0104421928555 613.6072539246974 788.3102940589604 # Ar
1317 1317 1 0.0 469.63788301002916 270.2838637399493 278.02250123751367 # Ar
1318 1318 1 0.0 151.46614547088816 692.666607883906 670.4452413050233 # Ar
1319 1319 1 0.0 92.9526163299936 166.42216838687523 326.440224754011 # Ar
1320 1320 1 0.0 599.2822108785581 173.4147720993117 269.3878551551589 # Ar
1321 1321 1 0.0 498.3392789716784 729.7539926263622 469.6454655050499 # Ar
1322 1322 1 0.0 345.0950068082177 579.4227383126346 418.68900141832677 # Ar
1323 1323 1 0.0 24.822270659428867 178.82506244095052 51.25187155388614 # Ar
1324 1324 1 0.0 389.2755971973261 522.8724751424041 144.0084279167363 # Ar
1325 1325 1 0.0 771.301231109876 278.74187193851 541.3428122993487 # Ar
1326 1326 1 0.0 118.32350941096873 704.7930098905134 244.4534409214382 # Ar
1327 1327 1 0.0 632.552797446347 374.34188909453786 510.20114346852284 # Ar
1328 1328 1 0.0 443.3766451261595 355.8277296209975 318.86606212773887 # Ar
1329 1329 1 0.0 198.89429175116618 460.7647820204554 737.7052892963006 # Ar
1330 1330 1 0.0 550.4164375580034 508.65607988523425 372.75042041873576 # Ar
1331 1331 1 0.0 132.04423579667386 325.62707852682837 117.07882941346443 # Ar
1332 1332 1 0.0 152.82462282619733 298.47521880030075 67.74671546967367 # Ar
1333 1333 1 0.0 174.41046078730594 423.36154112981075 654.162681900385 # Ar
1334 1334 1 0.0 259.4790968938221 400.95392264677974 141.93277475471774 # Ar
1335 1335 1 0.0 300.5923595597466 440.5990978248378 584.0127291020179 # Ar
1336 1336 1 0.0 211.89210273385532 91.74043453080424 803.745238355064 # Ar
1337 1337 1 0.0 806.9017724657591 452.0347834513374 395.0624050102207 # Ar
1338 1338 1 0.0 726.2390851008158 465.91421864309143 594.5169661004255 # Ar
1339 1339 1 0.0 87.0955121536254 583.150532331776 726.2652157209632 # Ar
1340 1340 1 0.0 175.7132181142751 488.630210620327 188.62525019236216 # Ar
1341 1341 1 0.0 110.2221631046701 610.2834882104285 530.4270824520293 # Ar
1342 1342 1 0.0 474.9472810037359 217.98191118911274 564.9440091691068 # Ar
1343 1343 1 0.0 357.4489474425569 403.30725556000596 654.9051380706476 # Ar
1344 1344 1 0.0 364.8522475853982 761.7123420000822 14.3044095441245 # Ar
1345 1345 1 0.0 663.4013626231664 744.8840983842586 428.33060181291603 # Ar
1346 1346 1 0.0 689.8063040064313 154.7694781703377 108.61301312957657 # Ar
1347 1347 1 0.0 356.04226962540656 711.0960295739759 655.5873729346648 # Ar
1348 1348 1 0.0 59.24208450344054 421.5927629560716 765.0277623855218 # Ar
1349 1349 1 0.0 571.5697335178016 205.1936066443777 87.95423787155639 # Ar
1350 1350 1 0.0 749.0737507049488 801.2349279184917 327.46795713063665 # Ar
1351 1351 1 0.0 704.1576035840927 123.84068167052389 653.8138058850819 # Ar
1352 1352 1 0.0 450.6148998594089 518.2491198665481 274.4385322613339 # Ar
1353 1353 1 0.0 812.5127426581518 512.9063977178835 721.499453386641 # Ar
1354 1354 1 0.0 759.9753942359143 622.0051315182336 400.47258109089745 # Ar
1355 1355 1 0.0 394.24420028630385 12.613932765137928 797.0397942581176 # Ar
1356 1356 1 0.0 696.2190391601717 203.88268826745383 353.0368993228629 # Ar
1357 1357 1 0.0 517.9685423435449 624.2656436791177 478.13622755005576 # Ar
1358 1358 1 0.0 541.9738655299573 567.6394664143542 786.9670829775423 # Ar
1359 1359 1 0.0 171.13241968318218 747.9558317408229 427.96488409201856 # Ar
1360 1360 1 0.0 385.986582409618 502.0576830218378 471.6409875594741 # Ar
1361 1361 1 0.0 652.0120464163456 9.299058961059814 289.04287085383885 # Ar
1362 1362 1 0.0 248.6181022984033 579.3339429884619 162.73330559654332 # Ar
1363 1363 1 0.0 671.6955193865009 718.9330847273275 670.4260375376803 # Ar
1364 1364 1 0.0 392.61536323503475 717.6833971408041 237.28583436294952 # Ar
1365 1365 1 0.0 520.9069036544687 412.11923962809385 406.2405365757943 # Ar
1366 1366 1 0.0 15.061439309923678 629.0470864099395 279.60021422084606 # Ar
1367 1367 1 0.0 468.18500237510955 348.24310502833595 729.7707829030322 # Ar
1368 1368 1 0.0 26.37961455781933 246.18016694751415 34.12453516120699 # Ar
1369 1369 1 0.0 2.02644507967431 594.8612951007915 482.887996234137 # Ar
1370 1370 1 0.0 636.4892465090627 415.1601825136065 166.28716973676805 # Ar
1371 1371 1 0.0 339.4491705671527 376.8002055786759 559.0793382674151 # Ar
1372 1372 1 0.0 412.15435063230206 282.1330308845453 307.48918264235664 # Ar
1373 1373 1 0.0 312.7375512377325 701.5530486300856 180.02915065206363 # Ar
1374 1374 1 0.0 313.4876249715707 410.3599322463487 385.48656147745817 # Ar
1375 1375 1 0.0 295.8714951626134 219.99324673462257 568.9782065744547 # Ar
1376 1376 1 0.0 268.34000176222685 544.2065339574376 332.93415272776724 # Ar
1377 1377 1 0.0 624.0317994091067 378.3202304127054 628.2840539608053 # Ar
1378 1378 1 0.0 411.99016824786344 235.32477285819397 435.17115889605014 # Ar
1379 1379 1 0.0 479.4195506464112 749.3966411836908 582.4637877901384 # Ar
1380 1380 1 0.0 620.8240862523083 753.0868940490276 561.0014607696752 # Ar
1381 1381 1 0.0 8.61701808188068 795.0282299370197 754.4725847629429 # Ar
1382 1382 1 0.0 692.2838145450797 786.846210017511 472.3642260206788 # Ar
1383 1383 1 0.0 58.969259933210836 228.82561326221406 272.932527173936 # Ar
1384 1384 1 0.0 169.6425635378274 399.044602880788 59.59615740526804 # Ar
1385 1385 1 0.0 472.11765583824473 497.5561613951011 109.52088143357317 # Ar
1386 1386 1 0.0 722.1296491082032 368.21411362629095 641.4680661694059 # Ar
1387 1387 1 0.0 308.507764961741 387.94742979270535 813.8744786565179 # Ar
1388 1388 1 0.0 353.56060055178466 798.5922187755176 685.960128739002 # Ar
1389 1389 1 0.0 576.5021201451677 110.0927031395706 565.3553718757587 # Ar
1390 1390 1 0.0 672.1614602172938 740.5591829688287 394.83848790476804 # Ar
1391 1391 1 0.0 797.4045064451682 297.9543883069755 263.14003419229766 # Ar
1392 1392 1 0.0 111.13218248183381 111.04332819646493 578.7599835372505 # Ar
1393 1393 1 0.0 142.82699894236964 39.855148913754896 737.93510904931 # Ar
1394 1394 1 0.0 21.6815706280979 519.9949862031382 326.9388866010262 # Ar
1395 1395 1 0.0 495.4061621050962 38.509480939865774 531.0462705455872 # Ar
1396 1396 1 0.0 519.7666350618572 471.6070554798706 749.6577082777163 # Ar
1397 1397 1 0.0 676.2352867715215 386.4300140224733 162.60591162591848 # Ar
1398 1398 1 0.0 409.72672389747686 615.1474446429295 796.2625938709402 # Ar
1399 1399 1 0.0 750.7675619220316 149.9200910155585 298.94450230724306 # Ar
1400 1400 1 0.0 232.87239425258687 182.4400659152717 407.9481821522152 # Ar
1401 1401 1 0.0 443.4254196486765 52.82837172547039 7.4991035116141544 # Ar
1402 1402 1 0.0 719.9580722517715 680.9599787500453 734.1581217521384 # Ar
1403 1403 1 0.0 103.17159858231575 433.6545062855028 530.2916136877362 # Ar
1404 1404 1 0.0 768.2697644430424 124.29249891983123 25.464748133855487 # Ar
1405 1405 1 0.0 297.83640749669763 789.792685099901 655.9388607222132 # Ar
1406 1406 1 0.0 373.1683627282266 196.12661506574145 645.8383762262438 # Ar
1407 1407 1 0.0 11.070094653941588 641.1843682078334 302.1186978887316 # Ar
1408 1408 1 0.0 524.5088232426209 404.81334832221046 377.6968464831804 # Ar
1409 1409 1 0.0 699.2498625749272 509.3108541368166 184.83436407790586 # Ar
1410 1410 1 0.0 444.47903958974854 685.908911725435 278.99064935007425 # Ar
1411 1411 1 0.0 762.7370802966524 190.00728364938485 46.40818096473905 # Ar
1412 1412 1 0.0 437.08171750561814 535.2911714013101 620.4939700826369 # Ar
1413 1413 1 0.0 453.9896926118291 728.0437761967095 434.8176634042706 # Ar
1414 1414 1 0.0 185.53532753706742 164.8281182928813 384.9146789470819 # Ar
1415 1415 1 0.0 486.2223054747848 76.60883680484491 305.87317967841545 # Ar
1416 1416 1 0.0 302.78423687381604 96.38756914907289 48.131761328241176 # Ar
1417 1417 1 0.0 331.7276410721341 456.4964159239462 542.5564396807054 # Ar
1418 1418 1 0.0 511.69647551453465 394.1880839213664 115.77437702238129 # Ar
1419 1419 1 0.0 778.7626784047019 62.035315148703305 253.40041770160218 # Ar
1420 1420 1 0.0 707.2201984626702 276.3685742902669 711.7989264803222 # Ar
1421 1421 1 0.0 453.86805412913793 667.47022910781 641.4233651549624 # Ar
1422 1422 1 0.0 771.4448761560749 516.1792334773638 258.3014853157312 # Ar
1423 1423 1 0.0 323.68627174421005 612.5995246369188 791.5698645787336 # Ar
1424 1424 1 0.0 751.5011113862516 755.0773295180867 709.2101150553381 # Ar
1425 1425 1 0.0 478.05743502475366 155.26023028368854 284.50061526644816 # Ar
1426 1426 1 0.0 804.0810064807855 259.9864814784433 572.0746421318776 # Ar
1427 1427 1 0.0 319.1023480649226 728.291813267266 776.7568004507555 # Ar
1428 1428 1 0.0 501.41630237129385 473.63175254015454 781.3118947800248 # Ar
1429 1429 1 0.0 427.1908663708033 360.2620937730003 763.0248130222315 # Ar
1430 1430 1 0.0 203.33228875544822 672.2372074235947 441.93782404414327 # Ar
1431 1431 1 0.0 140.22389902373342 239.62569844975158 207.59321193182615 # Ar
1432 1432 1 0.0 386.71778271454235 394.85622672525034 219.37621147456642 # Ar
1433 1433 1 0.0 468.58963499330747 484.3404735668102 32.430451479735105 # Ar
1434 1434 1 0.0 241.92407749002302 815.252533276733 662.3406722309387 # Ar
1435 1435 1 0.0 100.19300898837872 579.1852152661984 649.2879750578032 # Ar
1436 1436 1 0.0 353.00379177728075 491.75735161181524 359.39466061378704 # Ar
1437 1437 1 0.0 441.7642672836263 685.5851480407078 550.9424062363867 # Ar
1438 1438 1 0.0 799.6723224179875 578.4019117661967 506.56790967050756 # Ar
1439 1439 1 0.0 91.81510471976775 59.449075721324476 93.54005822962881 # Ar
1440 1440 1 0.0 491.19556380677363 810.1192503434638 60.96221288883071 # Ar
1441 1441 1 0.0 82.78593335966941 459.3102859713665 147.96276626990382 # Ar
1442 1442 1 0.0 689.0855635410701 757.0289368022892 422.7877847080342 # Ar
1443 1443 1 0.0 653.5732516188999 809.7402921321003 118.97126819320191 # Ar
1444 1444 1 0.0 61.70928286567405 499.99723399940825 37.39227077469613 # Ar
1445 1445 1 0.0 489.24727955313364 538.2010337758335 295.27208665147174 # Ar
1446 1446 1 0.0 124.57268775996842 170.3304155514114 421.93884689017125 # Ar
1447 1447 1 0.0 536.4753757953102 302.2591926886516 673.3993503707882 # Ar
1448 1448 1 0.0 14.771942628890455 490.2533068309761 712.348997409589 # Ar
1449 1449 1 0.0 500.14160063264853 609.6143959665692 174.26078527040514 # Ar
1450 1450 1 0.0 541.491037201302 260.6941393601878 631.674757527057 # Ar
1451 1451 1 0.0 332.60586240361846 9.519217581290532 531.6925122021797 # Ar
1452 1452 1 0.0 305.7371069668205 730.9029606081615 307.5466808407241 # Ar
1453 1453 1 0.0 669.0829980574731 33.53508230400981 362.24818748494897 # Ar
1454 1454 1 0.0 760.4253694510635 737.1542485572554 326.9392423677941 # Ar
1455 1455 1 0.0 543.3855747819556 190.05107309968815 595.8050861208179 # Ar
1456 1456 1 0.0 566.0788706158021 359.8048799025384 502.370470380413 # Ar
1457 1457 1 0.0 555.6444068999054 255.29575018424438 615.114145085713 # Ar
1458 1458 1 0.0 9.05415805119033 342.8594210762533 390.01041997928485 # Ar
1459 1459 1 0.0 314.56920636249794 471.67148334074034 419.95553527111014 # Ar
1460 1460 1 0.0 776.909102771489 22.12132990551733 207.62076510646997 # Ar
1461 1461 1 0.0 380.23864603441956 82.06608607650193 28.497332108518737 # Ar
1462 1462 1 0.0 356.94762209539795 94.54593076682397 308.427853825873 # Ar
1463 1463 1 0.0 657.4346174080501 491.27234132935473 732.9708616547273 # Ar
1464 1464 1 0.0 19.918554567322865 51.00253226942205 564.7146501552137 # Ar
1465 1465 1 0.0 716.0672351947763 212.26123950231997 764.0948347372657 # Ar
1466 1466 1 0.0 231.96016963458493 17.233554070943843 101.76736336729992 # Ar
1467 1467 1 0.0 449.9474494490674 803.1277082391349 38.81421024137841 # Ar
1468 1468 1 0.0 697.4548601597688 622.5093795169823 571.6836856628344 # Ar
1469 1469 1 0.0 406.842149663191 613.4076378792862 636.5247970767987 # Ar
1470 1470 1 0.0 264.0517796477456 807.5677658389075 260.83252171865104 # Ar
1471 1471 1 0.0 686.1459915441712 58.058919648135735 693.6704387098812 # Ar
1472 1472 1 0.0 191.2034323475864 260.16877845415377 787.4989807469143 # Ar
1473 1473 1 0.0 305.50835505106903 182.4029538195316 218.78306793679178 # Ar
1474 1474 1 0.0 138.63872790344627 695.7430694966289 24.648158289012294 # Ar
1475 1475 1 0.0 789.7271981140124 718.9477840636769 110.2374334672733 # Ar
1476 1476 1 0.0 22.991689194206707 472.18921676661813 763.9483414841027 # Ar
1477 1477 1 0.0 796.5962062800098 334.4514250360858 481.6841293538131 # Ar
1478 1478 1 0.0 481.5365046721263 260.02751108455095 616.4376290929342 # Ar
1479 1479 1 0.0 199.53901162987847 260.37338251930123 149.67075672750843 # Ar
1480 1480 1 0.0 347.02678058019 808.8414079671281 209.93317138015607 # Ar
1481 1481 1 0.0 351.502077420894 745.364119022659 172.7494649323342 # Ar
1482 1482 1 0.0 523.467093210807 777.7948504108825 377.04701650972663 # Ar
1483 1483 1 0.0 759.420842257371 6.8607803055301675 473.8537119365524 # Ar
1484 1484 1 0.0 443.53620265177483 487.3024329405855 188.59375859344118 # Ar
1485 1485 1 0.0 173.0413990155921 495.6397265890036 484.86992603964666 # Ar
1486 1486 1 0.0 146.0316192629045 555.0640814335361 457.8109301494154 # Ar
1487 1487 1 0.0 72.1338479306133 264.9503943274489 267.1016006367521 # Ar
1488 1488 1 0.0 591.1345148914997 713.4396211209331 271.58586914664966 # Ar
1489 1489 1 0.0 378.81288371478354 356.5155673649155 667.312943092749 # Ar
1490 1490 1 0.0 17.314071765762016 650.1713018635529 355.391906978755 # Ar
1491 1491 1 0.0 227.99142554973736 757.1009118189627 761.8728172851299 # Ar
1492 1492 1 0.0 586.1741975072085 573.829792327207 664.4022349458535 # Ar
1493 1493 1 0.0 251.06646636901343 558.365417198386 135.8402692025178 # Ar
1494 1494 1 0.0 757.256252098995 565.8123548717817 191.61299576997376 # Ar
1495 1495 1 0.0 716.9252891817641 575.9628299461717 518.2349878880162 # Ar
1496 1496 1 0.0 407.91481443941024 249.36705231248175 684.4276633382694 # Ar
1497 1497 1 0.0 530.8377422995527 776.5036104435504 293.7857952136663 # Ar
1498 1498 1 0.0 446.85470155381364 758.9852089515914 421.63783074170874 # Ar
1499 1499 1 0.0 671.4243379212536 318.799263464442 154.73014604562152 # Ar
1500 1500 1 0.0 431.4226854648908 519.8619996076989 273.73918882148496 # Ar
1501 1501 1 0.0 234.57809693503765 169.6862192068292 35.99497953322529 # Ar
1502 1502 1 0.0 56.336549524707124 145.9292159976239 498.89816614124186 # Ar
1503 1503 1 0.0 231.09891215326047 391.5650343915716 54.50287702813695 # Ar
1504 1504 1 0.0 517.6629940203278 155.53062082047148 488.7970137233187 # Ar
1505 1505 1 0.0 367.7429243705137 644.4010169612083 806.5429146078166 # Ar
1506 1506 1 0.0 617.1805021971561 506.10099371514656 350.5480272324664 # Ar
1507 1507 1 0.0 651.0506622106731 725.83217545141 324.354414537342 # Ar
1508 1508 1 0.0 55.51685346018502 110.88181948535976 770.0743635387021 # Ar
1509 1509 1 0.0 755.577221849796 524.3762640603278 226.9798020867634 # Ar
1510 1510 1 0.0 259.1864951974692 303.1051394631192 383.4273305444799 # Ar
1511 1511 1 0.0 663.9958257946979 727.6824023667284 694.9577815860505 # Ar
1512 1512 1 0.0 154.55671971804304 565.1411372161774 249.49089776947514 # Ar
1513 1513 1 0.0 632.6064366327298 665.915981154711 36.742952939358865 # Ar
1514 1514 1 0.0 336.8563669901893 64.0990829684097 241.56654250104077 # Ar
1515 1515 1 0.0 422.21203743059266 168.93322945235684 760.9699674056372 # Ar
1516 1516 1 0.0 595.9184414573641 7.689034897581941 598.4870924205189 # Ar
1517 1517 1 0.0 712.1015898009539 15.345494389257484 32.71183874288452 # Ar
1518 1518 1 0.0 448.5468912513279 546.7972094737867 768.8111288730594 # Ar
1519 1519 1 0.0 95.98585916275364 435.7666488967415 785.5333652976802 # Ar
1520 1520 1 0.0 124.16541675927002 188.24914161902237 606.3419967296537 # Ar
1521 1521 1 0.0 492.67725802681394 534.4380223204869 717.1419446878504 # Ar
1522 1522 1 0.0 787.5397786058223 224.71663783174003 393.30592001198903 # Ar
1523 1523 1 0.0 743.3279629967631 788.8445703727887 702.8742574248827 # Ar
1524 1524 1 0.0 667.5937955689512 38.347410221781196 12.071693246442779 # Ar
1525 1525 1 0.0 695.6935285688719 7.450447719822376 753.5842222101253 # Ar
1526 1526 1 0.0 475.38882691076975 524.3662586421633 9.316584434074976 # Ar
1527 1527 1 0.0 107.3283790593104 313.0604246765657 706.9103521819343 # Ar
1528 1528 1 0.0 742.5727295628903 509.6076406895743 448.83796577415205 # Ar
1529 1529 1 0.0 14.87730900619663 671.7732702695373 486.2894990626715 # Ar
1530 1530 1 0.0 530.7420446915846 385.7489808471871 398.5232525162476 # Ar
1531 1531 1 0.0 339.683542426376 542.7628080817838 724.2372875415006 # Ar
1532 1532 1 0.0 58.90508238251044 743.9966263164206 419.22878129089645 # Ar
1533 1533 1 0.0 97.95096194448294 643.9465401835373 437.3708124829231 # Ar
1534 1534 1 0.0 694.2429416830536 687.2768756694851 242.63748621436616 # Ar
1535 1535 1 0.0 38.18232011689112 574.7077695738519 251.04310735288777 # Ar
1536 1536 1 0.0 138.17179348900478 497.35642072022324 726.6957360543787 # Ar
1537 1537 1 0.0 181.8358484883996 51.16259633240836 356.308217821747 # Ar
1538 1538 1 0.0 505.112132562524 415.0738476835424 707.1646368442425 # Ar
1539 1539 1 0.0 412.63281734819486 816.0423268526998 296.30176671581023 # Ar
1540 1540 1 0.0 148.6132925279864 555.2579168891342 86.74095180271975 # Ar
1541 1541 1 0.0 226.73353938545398 334.0438907598893 417.36486366772584 # Ar
1542 1542 1 0.0 570.3302850736674 137.89146665943505 107.27047588102423 # Ar
1543 1543 1 0.0 737.5315531487238 441.3759322237651 775.0129739620293 # Ar
1544 1544 1 0.0 237.50933117928759 575.1069390757751 208.28783124513072 # Ar
1545 1545 1 0.0 463.68391370310366 11.715114163015176 633.765582421771 # Ar
1546 1546 1 0.0 374.29490464689854 211.98961698303276 406.2600886406489 # Ar
1547 1547 1 0.0 391.9695249361971 805.1349773074944 721.7208801104282 # Ar
1548 1548 1 0.0 224.1561224559911 158.2892873776734 329.7434980416842 # Ar
1549 1549 1 0.0 310.8915774102543 109.87883461241036 810.4118805956454 # Ar
1550 1550 1 0.0 420.3050581931829 739.2242812261019 183.03624169186136 # Ar
1551 1551 1 0.0 113.83478636147623 22.9189632490665 706.6338336676884 # Ar
1552 1552 1 0.0 246.09113002821272 561.2105218481678 808.5361107763629 # Ar
1553 1553 1 0.0 245.31708574419355 427.9406993615018 536.3702664608662 # Ar
1554 1554 1 0.0 551.4805151686478 190.9579615473136 621.4928637632751 # Ar
1555 1555 1 0.0 41.888982208891186 720.1974282078319 529.57603811077 # Ar
1556 1556 1 0.0 726.366325656009 568.1976882533467 500.37254760676325 # Ar
1557 1557 1 0.0 396.3689303930535 376.2064003901719 478.58370927980656 # Ar
1558 1558 1 0.0 768.399410874271 588.7823549144807 124.79950044614817 # Ar
1559 1559 1 0.0 15.833251400944661 10.133787871022575 429.365706157695 # Ar
1560 1560 1 0.0 314.21393161352705 565.2276010594426 640.5362212226981 # Ar
1561 1561 1 0.0 800.6056893410171 697.9447608989799 615.5754861191842 # Ar
1562 1562 1 0.0 614.3614160961025 432.6027154575531 89.17566959345777 # Ar
1563 1563 1 0.0 549.9353458131319 147.52497667972887 638.7049857394032 # Ar
1564 1564 1 0.0 378.4785545165661 803.1020401175639 773.5514861206228 # Ar
1565 1565 1 0.0 130.67260821496575 191.04941984568583 285.6679828794792 # Ar
1566 1566 1 0.0 38.61220479544633 193.69627282367026 602.9509965327326 # Ar
1567 1567 1 0.0 18.48175765044367 326.6433525532435 748.1907259555989 # Ar
1568 1568 1 0.0 646.3086268121341 134.02786944458708 536.9361547246962 # Ar
1569 1569 1 0.0 568.4782071394768 213.46859516162334 19.1928847329572 # Ar
1570 1570 1 0.0 647.6203124069532 372.59606883961766 608.8861464141537 # Ar
1571 1571 1 0.0 414.37436073248665 161.25093501766767 136.5591292101386 # Ar
1572 1572 1 0.0 186.59005833776655 410.31620898241914 637.5500340634911 # Ar
1573 1573 1 0.0 331.4296661547361 761.9410680703031 133.00318712430104 # Ar
1574 1574 1 0.0 103.35300812922274 347.294229648299 290.335060946258 # Ar
1575 1575 1 0.0 529.9352739204213 206.3244859828765 595.6063829326022 # Ar
1576 1576 1 0.0 94.03155756690127 584.446409405729 111.47992024834923 # Ar
1577 1577 1 0.0 92.6625054153279 616.5827059477657 306.76200407105733 # Ar
1578 1578 1 0.0 344.9258287456831 58.123503322974855 292.98553202351104 # Ar
1579 1579 1 0.0 700.956327252832 93.70016793262059 150.5269552349224 # Ar
1580 1580 1 0.0 27.92305220871714 472.1494904848535 696.1951256513653 # Ar
1581 1581 1 0.0 192.4822432346324 226.99126998781557 584.5770264597588 # Ar
1582 1582 1 0.0 432.76769078543407 542.2160329729227 274.3906489751655 # Ar
1583 1583 1 0.0 602.7903030271015 743.6437546628434 658.8321312760808 # Ar
1584 1584 1 0.0 625.6226686675177 252.27848312602612 437.3120600785079 # Ar
1585 1585 1 0.0 428.3758879128 305.7482568441513 103.20360787500665 # Ar
1586 1586 1 0.0 608.5809007800852 235.77272528345287 475.3360704045795 # Ar
1587 1587 1 0.0 790.3950425794761 568.8646536726961 259.549103069031 # Ar
1588 1588 1 0.0 406.39221647673673 491.0161667115113 227.8277063284307 # Ar
1589 1589 1 0.0 471.90320750726374 11.304583435683066 508.13712435562724 # Ar
1590 1590 1 0.0 245.65003491184657 398.72213039906836 164.28153648524923 # Ar
1591 1591 1 0.0 486.66695817305657 422.48078852289893 527.8434369967565 # Ar
1592 1592 1 0.0 307.4588812403845 356.46884960842834 470.1287497127842 # Ar
1593 1593 1 0.0 767.8382405672468 90.3653701156537 514.0624644458986 # Ar
1594 1594 1 0.0 639.121462099492 347.90179655384213 551.7859677214722 # Ar
1595 1595 1 0.0 484.5957209952895 465.8090452377862 284.0827398872132 # Ar
1596 1596 1 0.0 427.148287758916 138.85338352632257 53.533675777862065 # Ar
1597 1597 1 0.0 218.63700129682425 658.6302738878303 76.62299313826065 # Ar
1598 1598 1 0.0 108.04547810507442 88.86595940536516 422.2128648331432 # Ar
1599 1599 1 0.0 234.69900194721333 134.13207640394046 610.604218957605 # Ar
1600 1600 1 0.0 149.07228007516298 207.3727378986959 38.27726243979876 # Ar
1601 1601 1 0.0 448.83138238047223 329.8849948647372 205.29143140449656 # Ar
1602 1602 1 0.0 357.25762286672864 290.4664355449841 299.7782342043225 # Ar
1603 1603 1 0.0 787.5371332111966 400.71678909621437 659.7961521169375 # Ar
1604 1604 1 0.0 205.02611345673398 709.9088920626342 470.3640200988235 # Ar
1605 1605 1 0.0 64.05744729809842 758.9881113272056 235.4744233808725 # Ar
1606 1606 1 0.0 445.2542640281749 141.93634532340198 117.23262731428856 # Ar
1607 1607 1 0.0 178.61507670870523 581.7662103753595 596.6970412137517 # Ar
1608 1608 1 0.0 151.4999964612599 68.9399278035926 420.14959033851403 # Ar
1609 1609 1 0.0 105.60017645625334 501.7060385637668 233.36134268248392 # Ar
1610 1610 1 0.0 387.6474649465295 545.8778592850821 273.07125198941816 # Ar
1611 1611 1 0.0 108.77256154719173 51.04283347639416 553.0359670387002 # Ar
1612 1612 1 0.0 545.3714962205901 644.1591052789043 630.2819146097565 # Ar
1613 1613 1 0.0 546.2242146943036 718.9478724521748 539.0758557135621 # Ar
1614 1614 1 0.0 565.3638098282597 44.20924613356571 412.7700637107342 # Ar
1615 1615 1 0.0 217.79948173560607 556.7005531682058 30.01450499130313 # Ar
1616 1616 1 0.0 363.9288941175079 44.0836424225543 110.19225914091967 # Ar
1617 1617 1 0.0 753.3427468640706 317.6984329511028 246.97610290928688 # Ar
1618 1618 1 0.0 291.42969543379843 111.21132648941449 48.74462619646188 # Ar
1619 1619 1 0.0 131.79689698126694 295.9333354313231 250.98961151632577 # Ar
1620 1620 1 0.0 246.77600818587004 754.0813195757016 338.68404726166796 # Ar
1621 1621 1 0.0 391.38540991945547 802.2209133691509 312.214873834883 # Ar
1622 1622 1 0.0 335.19985431575606 46.013523375053026 263.76238805241326 # Ar
1623 1623 1 0.0 67.89198276146705 260.2343279540856 544.0066366569757 # Ar
1624 1624 1 0.0 185.6167980609435 503.46630742896446 400.1183610227787 # Ar
1625 1625 1 0.0 794.8506961274592 463.82795163612764 742.9737043014247 # Ar
1626 1626 1 0.0 329.0165353488605 231.84116189303023 722.5275200217244 # Ar
1627 1627 1 0.0 573.6894751611734 621.8958788349921 767.1210920105117 # Ar
1628 1628 1 0.0 809.8616794135248 92.6944599038452 371.67690978135505 # Ar
1629 1629 1 0.0 560.1171238852104 527.7653335030915 396.239069641793 # Ar
1630 1630 1 0.0 231.0087058781862 210.75839424134526 574.0565957629739 # Ar
1631 1631 1 0.0 661.9628571754334 320.7703877337795 502.96172518501385 # Ar
1632 1632 1 0.0 676.1295083195878 107.33560239019029 742.9520998155299 # Ar
1633 1633 1 0.0 0.7340342702107628 673.1067319219071 367.4095187422596 # Ar
1634 1634 1 0.0 62.851935249800476 446.264777579785 659.9994450732898 # Ar
1635 1635 1 0.0 200.6899368415261 701.4725408814585 665.2440921770253 # Ar
1636 1636 1 0.0 736.006056907094 389.4330203860308 589.1960075122247 # Ar
1637 1637 1 0.0 39.91834924078602 366.52233974545464 83.10388176503997 # Ar
1638 1638 1 0.0 688.268536240117 4.433627809486343 538.070189886946 # Ar
1639 1639 1 0.0 154.43298094770947 540.0851818074224 122.87061041534746 # Ar
1640 1640 1 0.0 488.60718467463255 256.09705640008343 586.0676608211912 # Ar
1641 1641 1 0.0 670.1676709288888 782.4452321819925 621.9636945096655 # Ar
1642 1642 1 0.0 680.4369737897553 376.13145220299765 455.8174924528366 # Ar
1643 1643 1 0.0 123.29444957040938 24.097230771254093 67.52100731754666 # Ar
1644 1644 1 0.0 798.5992573147244 761.2525450447137 637.8114771300327 # Ar
1645 1645 1 0.0 688.0893024765182 359.6341222044163 640.7078985764581 # Ar
1646 1646 1 0.0 741.2150594300032 367.81670651893836 190.31396403306982 # Ar
1647 1647 1 0.0 403.49984117782697 295.34817955112493 551.1383037985852 # Ar
1648 1648 1 0.0 24.343409723140574 350.82916129182325 571.4932324166429 # Ar
1649 1649 1 0.0 641.5432106616756 346.4255628622664 166.0050835810745 # Ar
1650 1650 1 0.0 562.6867889651977 738.4104269444808 26.105669454131508 # Ar
1651 1651 1 0.0 99.75149288512029 450.2517546768909 67.49020282294265 # Ar
1652 1652 1 0.0 148.97321842192153 532.0108569817123 548.1103423696056 # Ar
1653 1653 1 0.0 742.6443758459412 274.0830996658438 648.9931646735787 # Ar
1654 1654 1 0.0 79.26862864598468 768.6908440072193 568.0593403614022 # Ar
1655 1655 1 0.0 115.384650136436 391.4512123222197 344.3698334612498 # Ar
1656 1656 1 0.0 660.5393554300762 536.9225965500208 111.28287480322132 # Ar
1657 1657 1 0.0 208.48575467501533 264.84095109939545 93.36401471751992 # Ar
1658 1658 1 0.0 552.1457376317346 815.0282439720334 730.7774225200477 # Ar
1659 1659 1 0.0 32.07019487389721 182.40204109191967 529.2223004202176 # Ar
1660 1660 1 0.0 281.33547587210154 251.14145478901395 35.778049136195094 # Ar
1661 1661 1 0.0 762.5516554119947 166.76861827800673 243.07773815788727 # Ar
1662 1662 1 0.0 528.9766563610083 414.57741108550675 1.776618252296432 # Ar
1663 1663 1 0.0 356.9740054965961 696.675963088918 695.2980852056894 # Ar
1664 1664 1 0.0 356.82286095250817 785.4722993523951 634.8991366217454 # Ar
1665 1665 1 0.0 566.8574043365722 520.9513453142986 232.3723365725047 # Ar
1666 1666 1 0.0 608.3778939310896 773.1177591777389 737.9514676893841 # Ar
1667 1667 1 0.0 541.9276615963803 265.82717659286055 497.9784801432826 # Ar
1668 1668 1 0.0 119.35629562634303 41.54164690117475 84.29651910385405 # Ar
1669 1669 1 0.0 227.3870429369155 43.950148823022836 223.4242287794987 # Ar
1670 1670 1 0.0 133.62792709861193 115.02001769050506 449.95229622687896 # Ar
1671 1671 1 0.0 478.589744862536 705.797134564973 317.0792436635834 # Ar
1672 1672 1 0.0 678.712347065672 752.3164651276732 681.9904455116429 # Ar
1673 1673 1 0.0 795.0401034927479 391.5627211818998 524.3408183813333 # Ar
1674 1674 1 0.0 0.8207180844334853 754.8226282340588 95.8427951619149 # Ar
1675 1675 1 0.0 46.976349226397794 265.68644689382245 678.2188638098953 # Ar
1676 1676 1 0.0 324.15512084257654 815.8341422729625 284.218922508504 # Ar
1677 1677 1 0.0 720.8477579908686 420.69478713943755 443.4313949273509 # Ar
1678 1678 1 0.0 436.1708364471144 510.46411938210946 452.47655176556634 # Ar
1679 1679 1 0.0 338.5731786321153 768.8550843544639 741.5809014554146 # Ar
1680 1680 1 0.0 145.059761012246 505.0904097937644 650.2735360886116 # Ar
1681 1681 1 0.0 430.65091627459026 651.4424866232181 723.1946969674261 # Ar
1682 1682 1 0.0 307.69271651668384 176.58816796805297 28.92258580392365 # Ar
1683 1683 1 0.0 543.2107662311867 34.181403195428544 146.3440005250941 # Ar
1684 1684 1 0.0 452.45453882228946 92.72637421008692 272.48545848468984 # Ar
1685 1685 1 0.0 181.47938759587356 355.4178078059868 315.2675361514952 # Ar
1686 1686 1 0.0 200.82746356383544 704.8009529227111 209.50735081465848 # Ar
1687 1687 1 0.0 149.89709314430166 216.43155387729112 316.37878107256023 # Ar
1688 1688 1 0.0 370.6940210882268 688.078746057207 584.7630118140149 # Ar
1689 1689 1 0.0 441.48568430497346 581.0314658356153 566.2305146342244 # Ar
1690 1690 1 0.0 738.5086459916902 30.64118837967793 682.8099660057112 # Ar
1691 1691 1 0.0 570.7974307914468 21.517438601586438 57.8608999129143 # Ar
1692 1692 1 0.0 348.17407993886417 524.0038997963836 698.5065711609548 # Ar
1693 1693 1 0.0 178.88530276843457 558.7989574182947 399.2940394338383 # Ar
1694 1694 1 0.0 718.9015132432619 401.31450104565704 598.7022439479558 # Ar
1695 1695 1 0.0 522.1962774993062 105.49698305011451 683.1311465969651 # Ar
1696 1696 1 0.0 450.2342457819826 281.6894565561883 523.8781933822445 # Ar
1697 1697 1 0.0 741.0408840090107 778.7854934772885 444.06088219510207 # Ar
1698 1698 1 0.0 713.7007018837943 280.78519835565305 195.26390715459948 # Ar
1699 1699 1 0.0 579.7917284644421 311.8282958336625 204.61994577548933 # Ar
1700 1700 1 0.0 725.7108157630009 123.16196083512797 359.56499006429635 # Ar
1701 1701 1 0.0 427.2552658588744 748.8190136884157 753.4244880929467 # Ar
1702 1702 1 0.0 637.4723237581194 55.90398763970975 122.2891664955737 # Ar
1703 1703 1 0.0 732.9275516732887 783.1723100794633 658.8679043973406 # Ar
1704 1704 1 0.0 67.3326744296991 60.82547970060121 643.1877274707202 # Ar
1705 1705 1 0.0 219.6876533127698 323.0338023791388 105.65303836957267 # Ar
1706 1706 1 0.0 28.453911697903177 73.08726318986487 237.61701863743374 # Ar
1707 1707 1 0.0 140.12032630832857 333.3361157715995 78.38078178450672 # Ar
1708 1708 1 0.0 166.3089356620235 358.9829951553545 390.0890383274512 # Ar
1709 1709 1 0.0 390.02944368379355 187.74343015469438 641.3904413702013 # Ar
1710 1710 1 0.0 208.00750370159574 744.971930311548 73.2100022904125 # Ar
1711 1711 1 0.0 696.0417287309846 485.5165702715624 481.800299093278 # Ar
1712 1712 1 0.0 396.85252675438215 600.283218814879 230.4271275266931 # Ar
1713 1713 1 0.0 460.6511536467939 430.4904745035626 730.1671719023693 # Ar
1714 1714 1 0.0 301.37369486825787 808.8492498353935 204.7114941699375 # Ar
1715 1715 1 0.0 62.37251659238542 402.1447451508953 677.8537373817699 # Ar
1716 1716 1 0.0 76.58437469673996 311.46602274547917 234.28989115391374 # Ar
1717 1717 1 0.0 477.0910553698906 753.8144292673642 240.53049599357098 # Ar
1718 1718 1 0.0 45.310791697778676 315.38811865518693 395.2470414543545 # Ar
1719 1719 1 0.0 292.9546471263234 794.4629429487317 663.7285724739919 # Ar
1720 1720 1 0.0 466.9302448013613 222.32281537476078 619.4994404560916 # Ar
1721 1721 1 0.0 277.4536035158503 139.2868483443542 558.7336930052353 # Ar
1722 1722 1 0.0 242.03281636704045 351.4900360381725 141.04509825560592 # Ar
1723 1723 1 0.0 723.1924245185212 446.74715984176584 195.59853296379544 # Ar
1724 1724 1 0.0 592.2274210904087 732.3025544359592 724.2083460395944 # Ar
1725 1725 1 0.0 124.44533318052545 56.37667927311238 88.95217019176503 # Ar
1726 1726 1 0.0 198.81998324558316 675.6764741858389 536.4698233105823 # Ar
1727 1727 1 0.0 135.13000279627616 30.830728707533044 682.701397965233 # Ar
1728 1728 1 0.0 73.14795365009327 460.0152697433184 516.2904662377321 # Ar
1729 1729 1 0.0 365.7432184940358 96.833047683534 553.3091844459972 # Ar
1730 1730 1 0.0 466.40976308699175 790.4538942594723 402.46146358463085 # Ar
1731 1731 1 0.0 195.31171796440483 533.5351739691894 607.1859766181391 # Ar
1732 1732 1 0.0 89.78504343738548 529.2947367153228 351.5570143621275 # Ar
1733 1733 1 0.0 709.385670834973 323.88757241832855 204.8528604086336 # Ar
1734 1734 1 0.0 331.0635045711364 498.4439961511416 484.30227995590985 # Ar
1735 1735 1 0.0 697.8437949119311 700.8174373211572 626.7129140052889 # Ar
1736 1736 1 0.0 585.1576105684035 392.7944922143946 689.513236167991 # Ar
1737 1737 1 0.0 528.6565131603036 459.1109734562807 249.80560691900817 # Ar
1738 1738 1 0.0 118.66574224564951 351.88031871287757 111.35718619509426 # Ar
1739 1739 1 0.0 30.42783361334789 601.0122830808443 357.23608411590527 # Ar
1740 1740 1 0.0 5.953051863102684 563.1482300846104 396.78990836800403 # Ar
1741 1741 1 0.0 352.81728896712104 268.48215427592277 366.1178644303885 # Ar
1742 1742 1 0.0 180.27482601253516 313.1863902933416 395.1084366762224 # Ar
1743 1743 1 0.0 562.9937834157429 44.23054746162514 809.8310555939499 # Ar
1744 1744 1 0.0 429.82268034067573 553.5556766713086 545.2699057203122 # Ar
1745 1745 1 0.0 251.3248145504537 445.16062154729184 70.18845466969098 # Ar
1746 1746 1 0.0 675.3460700390405 740.298909485996 584.9627065784255 # Ar
1747 1747 1 0.0 202.36217411674895 462.5899643266378 607.4298143991012 # Ar
1748 1748 1 0.0 107.30080543574807 589.5778700367757 247.37494516922067 # Ar
1749 1749 1 0.0 771.730713049768 284.4697459514584 400.4972398257387 # Ar
1750 1750 1 0.0 264.9243666199077 208.6150837462979 237.76776662526447 # Ar
1751 1751 1 0.0 809.0888375041296 181.52979879702303 567.7930747832177 # Ar
1752 1752 1 0.0 325.25592111103134 234.90284982885728 783.7872025050593 # Ar
1753 1753 1 0.0 467.3906979892092 432.0361999518603 417.5943602548638 # Ar
1754 1754 1 0.0 683.7822205204083 541.1931736012108 684.7619914348824 # Ar
1755 1755 1 0.0 247.62045618814514 371.3715116845458 95.60171497214989 # Ar
1756 1756 1 0.0 551.8851789675152 120.95440609518927 21.985798360072636 # Ar
1757 1757 1 0.0 532.2248571113767 359.29683868613546 455.44111052688015 # Ar
1758 1758 1 0.0 137.54163658051723 326.24109530377234 550.2082113657962 # Ar
1759 1759 1 0.0 445.07155098889365 611.7869077869975 170.15202061795716 # Ar
1760 1760 1 0.0 446.16981037660685 62.19833520717885 325.4225100531834 # Ar
1761 1761 1 0.0 664.7802145337786 133.71708514094914 402.5163180215513 # Ar
1762 1762 1 0.0 20.74700108812054 84.43853530457555 15.997692156205353 # Ar
1763 1763 1 0.0 217.5050802947632 773.6598168338916 53.83966273913229 # Ar
1764 1764 1 0.0 656.2091857120788 728.7294143705435 384.6368761792923 # Ar
1765 1765 1 0.0 196.86126796490947 250.89708907694487 24.039959244316176 # Ar
1766 1766 1 0.0 680.0304899300916 521.0272340337145 198.5546176706881 # Ar
1767 1767 1 0.0 509.77589128557145 448.5107637449125 462.2218931336957 # Ar
1768 1768 1 0.0 448.2070085677861 813.3352126935109 649.7272191615233 # Ar
1769 1769 1 0.0 608.6529695519117 625.3155823964559 305.7475087003954 # Ar
1770 1770 1 0.0 691.3235386879526 307.9066128320322 440.42956719808603 # Ar
1771 1771 1 0.0 391.59749212216923 683.0894292586987 609.5847296324168 # Ar
1772 1772 1 0.0 379.4667582461602 442.1196493334993 408.78229282430823 # Ar
1773 1773 1 0.0 643.3488070977492 199.99216683030417 50.80132172893082 # Ar
1774 1774 1 0.0 756.91102368667 639.7885074205998 383.8803460399652 # Ar
1775 1775 1 0.0 243.10837508178187 589.630123561052 179.42257951911088 # Ar
1776 1776 1 0.0 186.64244285070689 712.7902835389046 289.7560952915963 # Ar
1777 1777 1 0.0 253.46026069000766 575.3184316956924 50.14706053762945 # Ar
1778 1778 1 0.0 390.1821878733864 684.5048310060661 681.4878332397396 # Ar
1779 1779 1 0.0 165.17472680061925 119.52351398992582 769.5635834121786 # Ar
1780 1780 1 0.0 512.3427556574007 693.4230545688716 296.34653497450256 # Ar
1781 1781 1 0.0 3.6986187797288066 477.08493879365324 473.9672179566907 # Ar
1782 1782 1 0.0 221.65390823695625 124.18502316931917 484.22098371493155 # Ar
1783 1783 1 0.0 494.08102224783886 223.5678745973374 491.8322532970492 # Ar
1784 1784 1 0.0 322.2481674922149 726.7353505624176 549.2044242810916 # Ar
1785 1785 1 0.0 663.7618787048109 680.9331398788532 283.94551303505256 # Ar
1786 1786 1 0.0 691.4377526338064 432.319674649822 104.49071337085368 # Ar
1787 1787 1 0.0 804.6714046463677 70.71434657168423 483.9137038049114 # Ar
1788 1788 1 0.0 801.062457886708 724.8955510999943 545.1178454363737 # Ar
1789 1789 1 0.0 731.6839663216344 458.55659102093125 773.890798676159 # Ar
1790 1790 1 0.0 28.086424857828174 553.0198415619078 588.4435218818066 # Ar
1791 1791 1 0.0 763.6740120826133 431.3998640830384 658.1929876648093 # Ar
1792 1792 1 0.0 130.93752364916236 481.37157747582376 483.9320913996551 # Ar
1793 1793 1 0.0 298.2987571037884 525.8735703397838 131.72294067900603 # Ar
1794 1794 1 0.0 338.24182270803203 392.41098871592317 248.46196307821097 # Ar
1795 1795 1 0.0 434.14409759838463 749.670838372393 93.5771895222947 # Ar
1796 1796 1 0.0 555.8303445570705 661.6088622585729 56.21053366701137 # Ar
1797 1797 1 0.0 208.87340221263366 791.0884963153255 777.8373972089902 # Ar
1798 1798 1 0.0 186.11379798085085 616.5192652269599 528.6515520018768 # Ar
1799 1799 1 0.0 480.8192105999154 610.1725752782614 679.1279914094891 # Ar
1800 1800 1 0.0 87.09119910670796 136.99750026174814 233.11637572380576 # Ar
1801 1801 1 0.0 79.64108801875503 772.5814148815006 621.2512576052737 # Ar
1802 1802 1 0.0 636.9097734263357 738.7546504421454 438.20744576492996 # Ar
1803 1803 1 0.0 396.1938410344288 421.8721880458457 287.56226159207876 # Ar
1804 1804 1 0.0 686.7961210490417 223.7611494138597 749.9740303664852 # Ar
1805 1805 1 0.0 579.2373859523459 345.0501700513898 554.1032802947163 # Ar
1806 1806 1 0.0 485.94704297760984 385.8154825355248 636.330257752563 # Ar
1807 1807 1 0.0 617.0622324354567 21.966688295938454 722.8646065645046 # Ar
1808 1808 1 0.0 554.6230618043835 642.3379534435439 695.5396866498513 # Ar
1809 1809 1 0.0 567.0724192958762 183.1734286706257 329.4450801442309 # Ar
1810 1810 1 0.0 595.8310353989319 351.6451803374544 785.3235633077928 # Ar
1811 1811 1 0.0 531.7458772552162 759.622987465093 776.7565677307002 # Ar
1812 1812 1 0.0 803.159478593882 763.6069879061754 602.6468352864482 # Ar
1813 1813 1 0.0 296.7410262639771 376.00815660289027 223.23441977531482 # Ar
1814 1814 1 0.0 42.15685820368031 594.7374277876104 654.46796028532 # Ar
1815 1815 1 0.0 324.97346591793223 798.5448091977981 616.6665875185424 # Ar
1816 1816 1 0.0 677.9272387718283 271.244118426686 601.9364019752404 # Ar
1817 1817 1 0.0 484.32914676648693 192.39151094367796 34.705128917760575 # Ar
1818 1818 1 0.0 249.75105491149594 103.90051766471878 541.9899415482647 # Ar
1819 1819 1 0.0 599.0412713107464 590.9985436660552 365.48995619486504 # Ar
1820 1820 1 0.0 414.4533210377174 550.5658285843268 42.65730736940581 # Ar
1821 1821 1 0.0 776.2491278039317 110.55862432889458 796.2358865524994 # Ar
1822 1822 1 0.0 455.2201574526092 321.05990552174075 731.3951910759362 # Ar
1823 1823 1 0.0 333.69420573663245 467.11123001489176 280.786766165155 # Ar
1824 1824 1 0.0 744.2593954967774 266.6208687136465 424.9112088863473 # Ar
1825 1825 1 0.0 538.6722650245945 347.95642069210464 318.7077366421886 # Ar
1826 1826 1 0.0 797.0646249910402 244.61599713029463 188.00248671329766 # Ar
1827 1827 1 0.0 125.45887516726802 610.418891469773 611.796528847439 # Ar
1828 1828 1 0.0 583.3491596226593 32.86722699483437 653.7066616164087 # Ar
1829 1829 1 0.0 197.91439891926734 771.8940685001095 572.1748662723404 # Ar
1830 1830 1 0.0 446.7021221265891 105.49694797548835 598.2688082177596 # Ar
1831 1831 1 0.0 76.31838630255304 71.6164147917185 731.8360535381387 # Ar
1832 1832 1 0.0 549.9192664604598 355.8928842183202 806.5194264431756 # Ar
1833 1833 1 0.0 280.90565096675437 291.9645689093782 19.481446603936867 # Ar
1834 1834 1 0.0 263.9853020745125 675.2684116483842 30.03982525083244 # Ar
1835 1835 1 0.0 39.38165477346022 771.4728591141858 743.1227155019742 # Ar
1836 1836 1 0.0 351.15983717197355 562.7857986390666 526.203583933547 # Ar
1837 1837 1 0.0 558.246586775071 175.68511650824627 471.9519532809202 # Ar
1838 1838 1 0.0 464.2985122216506 230.26943014152607 17.994990420347193 # Ar
1839 1839 1 0.0 661.9310337919476 77.81015720703081 503.438704750067 # Ar
1840 1840 1 0.0 463.3225558272101 534.9923423805516 544.8126052040003 # Ar
1841 1841 1 0.0 464.1828894365319 771.3537699022163 681.5113156710026 # Ar
1842 1842 1 0.0 125.33681882170511 102.57520569956894 613.9267642323465 # Ar
1843 1843 1 0.0 426.79726104858656 445.23917864500356 481.2668458492693 # Ar
1844 1844 1 0.0 814.2575617283545 365.7228222216741 53.72423411251047 # Ar
1845 1845 1 0.0 479.9655974717358 258.59248624519796 423.53361530075233 # Ar
1846 1846 1 0.0 322.53539163344044 461.1971889659314 340.30507189091475 # Ar
1847 1847 1 0.0 477.0856575031319 148.18354719319606 550.2210001390956 # Ar
1848 1848 1 0.0 13.914010223122698 742.1045672030092 506.7766714217078 # Ar
1849 1849 1 0.0 39.047545735624425 388.251767908706 446.91600125825374 # Ar
1850 1850 1 0.0 554.3778975106272 251.32758587399113 687.1941277523157 # Ar
1851 1851 1 0.0 404.2208207260175 394.3782945711149 417.4099618237613 # Ar
1852 1852 1 0.0 278.47563679527235 560.1033791398137 468.1586912985004 # Ar
1853 1853 1 0.0 248.5650949662805 407.47555400475056 777.5279746682326 # Ar
1854 1854 1 0.0 677.5519859448243 342.0960877905225 54.97391861565996 # Ar
1855 1855 1 0.0 202.73588076248038 419.09520792829073 702.7936621401966 # Ar
1856 1856 1 0.0 705.9807037870644 687.4624659783038 390.73769445415036 # Ar
1857 1857 1 0.0 296.4017867884249 615.3519945780922 461.26318890229857 # Ar
1858 1858 1 0.0 147.77210366048521 168.0017790190508 572.5055309420005 # Ar
1859 1859 1 0.0 522.3406997028578 104.49746868631912 192.98227542870788 # Ar
1860 1860 1 0.0 618.0785884610245 530.8560835883883 800.9731716840995 # Ar
1861 1861 1 0.0 97.16325060790203 774.6986774760701 750.2387352613987 # Ar
1862 1862 1 0.0 94.81768024579505 269.3348161653362 204.14539199511952 # Ar
1863 1863 1 0.0 566.3278649049024 56.222023912235656 5.119754072538922 # Ar
1864 1864 1 0.0 717.0521672822726 787.2536339233166 21.67090551133618 # Ar
1865 1865 1 0.0 369.46821155044313 621.1924094979387 551.9792456912572 # Ar
1866 1866 1 0.0 96.28456785859977 262.4549576034915 103.74084474803884 # Ar
1867 1867 1 0.0 240.4911586381712 805.212428964899 248.18671592006248 # Ar
1868 1868 1 0.0 800.2210484683973 651.9642337836245 558.5244927656837 # Ar
1869 1869 1 0.0 229.64498462512998 291.7378825815944 149.47396321563133 # Ar
1870 1870 1 0.0 761.3030692222605 663.5523190392855 255.43146466638956 # Ar
1871 1871 1 0.0 414.5033422410889 725.294296999558 43.53859104460378 # Ar
1872 1872 1 0.0 663.9244065651112 135.34928483595718 766.3928311312907 # Ar
1873 1873 1 0.0 637.6239680005032 703.8510642259348 658.6188392362935 # Ar
1874 1874 1 0.0 417.79123383527246 68.55997018877534 189.0305157526361 # Ar
1875 1875 1 0.0 361.0028961610576 434.01580949872266 327.8807197266314 # Ar
1876 1876 1 0.0 509.02093386174334 452.4959847141552 786.5793946197288 # Ar
1877 1877 1 0.0 562.9715198844617 187.51955405531794 112.18238041509439 # Ar
1878 1878 1 0.0 659.3340733406216 279.31198622551045 177.74038548268464 # Ar
1879 1879 1 0.0 564.2853106124711 696.4316992381056 785.9711212679873 # Ar
1880 1880 1 0.0 786.4944710874366 413.18094253615595 162.20096219846906 # Ar
1881 1881 1 0.0 324.455655828133 248.41750383636546 786.4391188314975 # Ar
1882 1882 1 0.0 549.4954424076251 412.4469258394606 115.43790603411557 # Ar
1883 1883 1 0.0 645.6372689668457 233.53125724763237 91.45125773155472 # Ar
1884 1884 1 0.0 179.80321180130719 147.52325670933348 789.3534070424629 # Ar
1885 1885 1 0.0 341.16630950047494 482.1896320797605 306.33510973475677 # Ar
1886 1886 1 0.0 564.0896721820145 587.0917275686071 456.68814730532944 # Ar
1887 1887 1 0.0 361.6475179195455 782.0976163787617 711.264469197268 # Ar
1888 1888 1 0.0 555.1662621601638 153.6074946004485 594.6754954325717 # Ar
1889 1889 1 0.0 530.7234173136169 493.1848629006622 178.23811306634462 # Ar
1890 1890 1 0.0 432.03937702880603 710.696073638373 341.6272859483723 # Ar
1891 1891 1 0.0 435.2716173700089 391.6753699910267 512.0648898471579 # Ar
1892 1892 1 0.0 107.78328031079141 624.0432361119908 575.0997205754755 # Ar
1893 1893 1 0.0 11.636703496162122 66.75584421867732 509.70210695152275 # Ar
1894 1894 1 0.0 380.30149019141663 160.12905503272995 617.3514411610678 # Ar
1895 1895 1 0.0 458.6361922010526 708.9431482037893 590.788347886957 # Ar
1896 1896 1 0.0 348.72068225059604 349.4336394891836 217.05000448681602 # Ar
1897 1897 1 0.0 192.39634704566424 405.6033822879469 110.54927236999967 # Ar
1898 1898 1 0.0 103.16207976024099 161.9271340909893 90.64951468828113 # Ar
1899 1899 1 0.0 540.4349554710758 446.88484005147757 275.21355168059443 # Ar
1900 1900 1 0.0 799.8720504365892 765.2879785085637 763.9482725306353 # Ar
1901 1901 1 0.0 498.7806860748809 477.32174699167604 173.14783679102476 # Ar
1902 1902 1 0.0 639.1655625769778 813.2123237677181 740.9962765486523 # Ar
1903 1903 1 0.0 33.455332588392906 730.7306357392525 650.5994177579345 # Ar
1904 1904 1 0.0 208.1026146327306 405.3042340948178 578.5197021207052 # Ar
1905 1905 1 0.0 213.34003201768962 196.83066393045922 66.385340149735 # Ar
1906 1906 1 0.0 665.9512365414906 212.8884588613839 271.0542010341707 # Ar
1907 1907 1 0.0 538.6533138523929 259.51624026580623 537.4245722038627 # Ar
1908 1908 1 0.0 41.04175590544307 724.8906931910067 150.5439444707703 # Ar
1909 1909 1 0.0 643.2905272970256 27.326641923067882 384.629535819338 # Ar
1910 1910 1 0.0 203.77425385881745 458.50506093605935 148.54315848987352 # Ar
1911 1911 1 0.0 243.47811980810573 633.1946783313784 566.7625344023833 # Ar
1912 1912 1 0.0 81.2164176682877 273.2147090273629 179.40813381674815 # Ar
1913 1913 1 0.0 157.10583577217744 372.3760350011244 746.4711786500534 # Ar
1914 1914 1 0.0 728.1248327657956 467.1629525398498 365.61433054999884 # Ar
1915 1915 1 0.0 660.0786880506183 56.8974167463309 507.3257878904488 # Ar
1916 1916 1 0.0 665.1469435135024 582.275044431719 478.62879604011135 # Ar
1917 1917 1 0.0 103.03012336371779 693.3232403175625 270.07101274769406 # Ar
1918 1918 1 0.0 411.5227182014652 207.1036278500453 231.30442358202436 # Ar
1919 1919 1 0.0 680.0281727441059 35.90332072063532 571.0404086492742 # Ar
1920 1920 1 0.0 641.5550370628889 478.5418653929517 455.69187646600017 # Ar
1921 1921 1 0.0 797.2078769782853 646.7786091459614 770.9254320199572 # Ar
1922 1922 1 0.0 428.2674145452976 191.97445293459026 583.2861048026999 # Ar
1923 1923 1 0.0 675.89829234874 727.5328911757565 768.9841687621791 # Ar
1924 1924 1 0.0 594.4315796787291 609.7333587259046 98.75414520214109 # Ar
1925 1925 1 0.0 234.8078090939424 720.8949750316083 331.5945237352287 # Ar
1926 1926 1 0.0 67.90725608345615 293.8447785678109 215.2339867468158 # Ar
1927 1927 1 0.0 246.26216072824275 379.65361425584734 141.89527228536056 # Ar
1928 1928 1 0.0 697.2166476346549 286.07542150131303 494.2040597356373 # Ar
1929 1929 1 0.0 343.1194231550088 50.0134431258039 508.6281148390414 # Ar
1930 1930 1 0.0 99.51361937994929 131.08045499864886 439.4485507333321 # Ar
1931 1931 1 0.0 796.983907859219 780.3379937203352 644.1231614422373 # Ar
1932 1932 1 0.0 423.2014296229051 641.4079458876676 211.88254105300697 # Ar
1933 1933 1 0.0 50.83738117559444 564.1587316195311 557.1550755726731 # Ar
1934 1934 1 0.0 557.4150140391762 772.1589526538014 277.7058986304151 # Ar
1935 1935 1 0.0 720.2343259419004 220.18610032055483 761.9812147770558 # Ar
1936 1936 1 0.0 624.934819930558 343.73433092958635 170.1110906495574 # Ar
1937 1937 1 0.0 715.5602747244459 362.55010236349875 154.86912321044974 # Ar
1938 1938 1 0.0 390.93529383139804 299.66245695498066 735.5489322551656 # Ar
1939 1939 1 0.0 539.468510714687 458.21721111563465 248.51426665408272 # Ar
1940 1940 1 0.0 586.0096775753393 757.5401166883033 779.7669907895306 # Ar
1941 1941 1 0.0 70.1576577082837 169.1644559908838 395.5605422406396 # Ar
1942 1942 1 0.0 266.52424599107246 612.2100544687385 531.3369176276503 # Ar
1943 1943 1 0.0 816.4131791386687 368.0976416922634 585.6250945331333 # Ar
1944 1944 1 0.0 45.586654652940865 130.53468422302515 773.0959257515835 # Ar
1945 1945 1 0.0 488.32267860557545 791.6581255054991 538.9250360130309 # Ar
1946 1946 1 0.0 44.406888567418264 206.99963729330022 516.123245886914 # Ar
1947 1947 1 0.0 706.8959916837238 485.63589876067056 454.05522706214884 # Ar
1948 1948 1 0.0 479.97762258718905 723.9140410265002 337.31632887322866 # Ar
1949 1949 1 0.0 794.8765395684532 46.657165817866 68.83128576423344 # Ar
1950 1950 1 0.0 497.75559736035774 731.3322294909655 471.8380699178529 # Ar
1951 1951 1 0.0 140.96812221805305 730.2642350701757 750.0187171558727 # Ar
1952 1952 1 0.0 647.337031841929 222.81861734029937 10.473445915725918 # Ar
1953 1953 1 0.0 10.593118813458926 23.973286516717437 568.2856000617516 # Ar
1954 1954 1 0.0 96.31033161180768 726.4493279275531 659.9427306178976 # Ar
1955 1955 1 0.0 467.420062813039 444.1846121556034 358.64092729130664 # Ar
1956 1956 1 0.0 761.7986171058172 101.05656697336822 112.7067805688153 # Ar
1957 1957 1 0.0 508.05893251348294 809.223197165337 170.3488619818552 # Ar
1958 1958 1 0.0 688.5052890893196 30.591061068170646 169.71476242769774 # Ar
1959 1959 1 0.0 369.23920805791954 148.7334753781931 651.4978600687817 # Ar
1960 1960 1 0.0 536.4305850877955 611.0876734021144 495.0987437284255 # Ar
1961 1961 1 0.0 294.7627500597578 150.29429779862068 42.98904789928172 # Ar
1962 1962 1 0.0 815.9042055986118 718.2741854431109 673.1396434667553 # Ar
1963 1963 1 0.0 188.4844949213305 334.6861537059264 31.17400601241879 # Ar
1964 1964 1 0.0 701.7223154201523 499.289263503336 479.42398344314364 # Ar
1965 1965 1 0.0 32.439721063502766 594.3680028727 531.2617738790916 # Ar
1966 1966 1 0.0 151.575778534027 485.45233580140115 671.2025828707882 # Ar
1967 1967 1 0.0 135.18427184567412 430.86444691019784 480.7887201781201 # Ar
1968 1968 1 0.0 469.2882204508047 245.51370373221226 627.882619512193 # Ar
1969 1969 1 0.0 441.9375349641451 555.4004631272586 290.21616811846354 # Ar
1970 1970 1 0.0 454.92200185866386 514.3596569684125 680.0523814702863 # Ar
1971 1971 1 0.0 159.6215476086808 614.4786233407225 57.43311260196337 # Ar
1972 1972 1 0.0 472.3088201195408 510.1584722564303 529.8538425290556 # Ar
1973 1973 1 0.0 678.5189132645905 366.3367829179479 243.47227182536543 # Ar
1974 1974 1 0.0 321.10726094648766 264.96980429856245 571.9655944881772 # Ar
1975 1975 1 0.0 27.243946213027467 448.2770828686257 499.3815582852891 # Ar
1976 1976 1 0.0 688.6764681430715 778.8342218266577 217.71598846701744 # Ar
1977 1977 1 0.0 205.7630345482449 159.17857355664052 407.52436282412157 # Ar
1978 1978 1 0.0 479.7182603272374 428.0090286068008 435.34323375375635 # Ar
1979 1979 1 0.0 730.3734519477836 399.97479031563256 511.33935458743053 # Ar
1980 1980 1 0.0 521.2693258633129 215.06855868296938 579.8889827181277 # Ar
1981 1981 1 0.0 80.81579351680683 739.4824133721921 628.323061788292 # Ar
1982 1982 1 0.0 273.1900046311239 592.2414400698023 297.54001686497736 # Ar
1983 1983 1 0.0 630.6128965225553 378.695804097912 569.5020236816753 # Ar
1984 1984 1 0.0 544.8212559586883 688.6230065434876 417.300342664256 # Ar
1985 1985 1 0.0 791.5164259548787 535.9216332863737 17.122926461887076 # Ar
1986 1986 1 0.0 419.6115291631219 754.2908952494223 782.2631910654245 # Ar
1987 1987 1 0.0 375.7282858379958 502.38566017630177 475.0075723593889 # Ar
1988 1988 1 0.0 123.6542784658746 431.7322795724017 283.74376315197566 # Ar
1989 1989 1 0.0 271.0945742068345 469.9138728912518 77.95598533107857 # Ar
1990 1990 1 0.0 277.82851291113457 168.26989802472826 303.75863556604594 # Ar
1991 1991 1 0.0 84.67342191753504 29.107360835579264 299.13835856999907 # Ar
1992 1992 1 0.0 79.99385439556161 178.8728550360897 720.3691529494805 # Ar
1993 1993 1 0.0 470.9447379180701 792.7694805152647 256.7735272402932 # Ar
1994 1994 1 0.0 289.8054872061297 302.0436265488274 769.5256840271715 # Ar
1995 1995 1 0.0 206.08029382787564 218.01721963576856 96.19748271912896 # Ar
1996 1996 1 0.0 198.5858500637094 102.73457144269408 680.7142574549518 # Ar
1997 1997 1 0.0 474.3027941536581 74.6633309279528 665.0893194317385 # Ar
1998 1998 1 0.0 226.63996193543986 406.043538577376 340.4515165307509 # Ar
1999 1999 1 0.0 654.4181003706123 243.02522870138222 73.45038543386595 # Ar
2000 2000 1 0.0 680.5378446904432 183.72954766576234 612.7300195420752 # Ar
