LAMMPS data file -- atom_style full -- generated by chemfiles
150 atoms
0 bonds
0 angles
0 dihedrals
0 impropers
2 atom types
0 bond types
0 angle types
0 dihedral types
0 improper types
0.00000000 413.303607 xlo xhi
0.00000000 413.303607 ylo yhi
0.00000000 413.303607 zlo zhi

# Pair Coeffs
# 1 Ar
# 2 Ar+

Masses

1 39.948 # Ar
2 39.948 # Ar+

Atoms # full

1 1 1 0.0 370.2751798135974 350.6714888049894 388.1143779789671 # Ar
2 2 1 0.0 209.0483238868033 236.62244360052196 65.51419549779345 # Ar
3 3 1 0.0 388.89642028958224 276.9212792851633 145.68825728827053 # Ar
4 4 1 0.0 3.3814520267163557 80.52378750083405 16.210825756721196 # Ar
5 5 1 0.0 368.6548087747429 325.2284409353603 114.88185445921165 # Ar
6 6 1 0.0 46.241800063940694 195.43244294521037 270.38940664731723 # Ar
7 7 1 0.0 322.5363608166728 85.50277605283593 361.79705416279694 # Ar
8 8 1 0.0 51.115163871504144 148.384740663261 346.98659219791585 # Ar
9 9 1 0.0 324.533386393009 177.15852505731345 344.98674351538915 # Ar
10 10 1 0.0 41.44450777558287 281.98203143892 242.16717485870512 # Ar
11 11 1 0.0 23.389034567403357 260.99074561176974 181.04933422897318 # Ar
12 12 1 0.0 294.91092022434856 161.23868424796325 81.6061668410048 # Ar
13 13 1 0.0 255.68972187094934 126.05976481416349 193.33354837343603 # Ar
14 14 1 0.0 128.5687618282899 95.12948816519652 40.14529872583326 # Ar
15 15 1 0.0 170.94879131761263 129.61362702580243 8.588353272400228 # Ar
16 16 1 0.0 130.73993369091988 42.10991405596184 339.90155083537576 # Ar
17 17 1 0.0 91.0540905055429 79.03551795324644 329.5377954225579 # Ar
18 18 1 0.0 283.0753580768358 56.22528549784 301.0301207301983 # Ar
19 19 1 0.0 223.7247169582081 262.6771394300357 130.75757089794047 # Ar
20 20 1 0.0 35.216256091840464 393.4690420083497 373.65871632965747 # Ar
21 21 1 0.0 14.973981733614986 382.5984380019268 171.73835005863074 # Ar
22 22 1 0.0 126.47412169548318 158.80324254202043 263.0781468411012 # Ar
23 23 1 0.0 145.12458997224627 260.67481432694757 157.91185986782548 # Ar
24 24 1 0.0 343.92008655193956 362.2052071059641 176.02949792305273 # Ar
25 25 1 0.0 1.0213485266144045 206.0920905663723 320.693851530537 # Ar
26 26 1 0.0 267.5174729074969 179.49341580330392 360.410942847011 # Ar
27 27 1 0.0 126.08171984973264 106.04874636759448 296.28396958488725 # Ar
28 28 1 0.0 19.331891266733013 337.36234702872133 290.3010754470415 # Ar
29 29 1 0.0 178.07532479190778 273.20427792417485 167.50744047660476 # Ar
30 30 1 0.0 399.8596850650706 163.985701250773 380.91006453644974 # Ar
31 31 1 0.0 44.334357307446936 235.36029825029527 367.6089555849278 # Ar
32 32 1 0.0 16.723672275940434 166.14360712501897 303.4838413588031 # Ar
33 33 1 0.0 208.23390283552516 384.51087216992954 134.92338203339648 # Ar
34 34 1 0.0 43.860152220581355 84.34944537191988 326.2582525805962 # Ar
35 35 1 0.0 268.7745106393182 266.4024740786104 334.39528921664083 # Ar
36 36 1 0.0 174.6809235785909 161.96398561710956 46.603052098526724 # Ar
37 37 1 0.0 166.99749877058065 125.93956020054182 56.07944151339044 # Ar
38 38 1 0.0 124.14444338096378 227.20896420877062 255.34610435574422 # Ar
39 39 1 0.0 88.13778616860026 165.4251383005412 317.44870087449993 # Ar
40 40 1 0.0 21.37157763368593 286.5941396413945 245.79479579528333 # Ar
41 41 1 0.0 154.79416677325557 178.62334416210362 130.5639511020709 # Ar
42 42 1 0.0 395.9250187148182 71.46843048057713 58.48186211742199 # Ar
43 43 1 0.0 382.9199052259206 92.65542082288195 254.74226397823085 # Ar
44 44 1 0.0 242.84669764427213 127.89462797231499 88.86534089433617 # Ar
45 45 1 0.0 133.24916328882523 256.8876082311768 84.72619917763495 # Ar
46 46 1 0.0 362.82227759046697 97.1985179061676 283.2307101807955 # Ar
47 47 1 0.0 311.12972598032866 373.93572530939934 369.13634198230943 # Ar
48 48 1 0.0 198.77971406633952 81.32209291468725 406.2295031614448 # Ar
49 49 1 0.0 87.35702908020939 352.53797352284425 345.49860489024707 # Ar
50 50 1 0.0 359.23154907725205 337.08909068317126 211.69475677933772 # Ar
51 51 1 0.0 131.44551879944922 341.90388894886814 399.5147524002429 # Ar
52 52 1 0.0 403.7355596878179 302.5900477453275 80.48567531616631 # Ar
53 53 1 0.0 207.0903835620653 268.5985502410978 294.54347873591803 # Ar
54 54 1 0.0 71.15373023810145 99.04925651336566 303.9264375313728 # Ar
55 55 1 0.0 20.580515372395013 21.738454347259335 148.66186473740743 # Ar
56 56 1 0.0 270.4101092859977 192.00204803896025 160.13871114814634 # Ar
57 57 1 0.0 284.78678613718824 278.5734368846484 93.65359575534922 # Ar
58 58 1 0.0 391.6184189224353 211.81727118295055 323.5355854604942 # Ar
59 59 1 0.0 4.064023998660504 202.78957319917217 360.18223283479847 # Ar
60 60 1 0.0 180.0337305729042 173.65624094472793 309.41962888243626 # Ar
61 61 1 0.0 363.6839975807393 322.1223547217677 182.44510287605905 # Ar
62 62 1 0.0 228.49846073222014 284.20287979717017 12.19043154873463 # Ar
63 63 1 0.0 118.71694005353872 263.7935215641639 266.3228811649686 # Ar
64 64 1 0.0 190.78942992231936 388.29722165373823 145.12083389594008 # Ar
65 65 1 0.0 334.3067936087946 388.2401077474667 220.47497924782155 # Ar
66 66 1 0.0 297.8833831172806 114.68374449992245 137.6350780824788 # Ar
67 67 1 0.0 327.13592305478926 152.4829412736163 138.6423610056656 # Ar
68 68 1 0.0 280.3398071208175 12.583001533822221 99.95775933952588 # Ar
69 69 1 0.0 273.74915819712885 194.83755638715004 344.20752766430945 # Ar
70 70 1 0.0 20.079814262224474 306.81425907062004 152.8370088130822 # Ar
71 71 1 0.0 269.28141824269954 23.881768730465023 53.30215741190666 # Ar
72 72 1 0.0 108.39404691285311 404.98132715574235 234.107480513866 # Ar
73 73 1 0.0 176.25721234279166 235.98017527017578 153.0451871528964 # Ar
74 74 1 0.0 250.17871814860348 294.8414664089142 83.00177072920762 # Ar
75 75 1 0.0 104.10717723683632 127.59724242143984 409.8789923451371 # Ar
76 76 1 0.0 190.32215451067805 363.78755461896424 407.9600604634971 # Ar
77 77 1 0.0 396.57049718346383 115.05201628684529 330.1565476844097 # Ar
78 78 1 0.0 173.67737934760726 168.28692413972766 16.05002448670362 # Ar
79 79 1 0.0 366.5986705662711 197.61406211826193 100.98201736734053 # Ar
80 80 1 0.0 344.17871942588533 198.796453581213 221.42833868658556 # Ar
81 81 1 0.0 138.83007289875636 399.51757905167574 14.195997137455288 # Ar
82 82 1 0.0 217.0314650696319 199.5143109641936 296.8991250382016 # Ar
83 83 1 0.0 18.4287488311431 63.033835944337234 388.0181801561602 # Ar
84 84 1 0.0 355.8771421123762 115.21581190572147 3.398104003055287 # Ar
85 85 1 0.0 46.474281898846456 115.67450866295461 340.31667333501497 # Ar
86 86 1 0.0 146.2222026773792 117.89788046830193 86.2871315746961 # Ar
87 87 1 0.0 216.18640460532683 179.45461093248494 124.68926399054125 # Ar
88 88 1 0.0 366.661344993714 370.0253140579506 102.1046564832051 # Ar
89 89 1 0.0 261.8545741224216 280.11828064169947 118.85448047634726 # Ar
90 90 1 0.0 227.74676136329936 46.64828108551561 43.76242531911443 # Ar
91 91 1 0.0 293.207053497232 198.9059893011782 51.08841971748073 # Ar
92 92 1 0.0 38.93565769699981 65.13323170457586 77.6242653785319 # Ar
93 93 1 0.0 12.241485889159629 39.46981613732353 291.13295702989063 # Ar
94 94 1 0.0 223.81002458083057 401.0856996053537 32.53893453712026 # Ar
95 95 1 0.0 90.31949634542389 135.0122104039386 366.73577282462975 # Ar
96 96 1 0.0 54.10655655491874 191.37366214116128 32.69352702274897 # Ar
97 97 1 0.0 150.96535128117543 154.88773480722224 96.08111021944093 # Ar
98 98 1 0.0 158.0763691483052 380.83999587605325 20.837733888378747 # Ar
99 99 1 0.0 189.36701276911714 261.6548137869516 121.71001756673293 # Ar
100 100 1 0.0 184.81632950563255 158.9893496524385 96.90004951001083 # Ar
101 101 1 0.0 126.94631443827241 393.0657376288998 221.99911939002683 # Ar
102 102 1 0.0 381.7508242631954 220.31939112654487 256.1469120125569 # Ar
103 103 1 0.0 167.03890148614238 77.99366410393498 87.00018535937083 # Ar
104 104 1 0.0 224.2600207636273 401.54898301502243 247.59826783833626 # Ar
105 105 1 0.0 48.716993898940785 28.67612968652991 4.694280130514129 # Ar
106 106 1 0.0 365.50706606848513 68.24592683636158 54.40740896393226 # Ar
107 107 1 0.0 257.8909441758734 182.18657479743698 8.307473235138493 # Ar
108 108 1 0.0 305.4044436043692 238.88143927376908 244.33733553590272 # Ar
109 109 1 0.0 7.082926915163569 62.907855901566805 178.50865125771682 # Ar
110 110 1 0.0 317.72206021943157 269.54108990823886 146.34305251812344 # Ar
111 111 1 0.0 328.4119532886419 146.17819995970024 66.46828386433562 # Ar
112 112 1 0.0 410.60604030861236 239.20604410301434 395.67962158478986 # Ar
113 113 1 0.0 271.49394347364506 121.54692136432527 99.3292767585202 # Ar
114 114 1 0.0 412.23309110265143 68.6060565556946 186.26657947086383 # Ar
115 115 1 0.0 105.43229559220244 71.83256955178449 292.46052528501207 # Ar
116 116 1 0.0 354.33384166050496 179.24760820270373 173.24027773661368 # Ar
117 117 1 0.0 324.25827442783697 200.48323964617572 13.319317744422332 # Ar
118 118 1 0.0 114.5880925596187 148.08377977291497 170.81226573041062 # Ar
119 119 1 0.0 145.35222646699074 405.4904475441335 129.38566253541697 # Ar
120 120 1 0.0 260.92148062979305 295.53082155132597 82.78004858840035 # Ar
121 121 1 0.0 344.10327914603 280.3925937908849 221.3347161654916 # Ar
122 122 1 0.0 150.33891399553218 152.06021656502782 127.83160856829728 # Ar
123 123 1 0.0 331.5022653384591 300.27633265597836 377.98035617292595 # Ar
124 124 1 0.0 315.804146692138 370.5912125991069 12.368681509012053 # Ar
125 125 1 0.0 398.4250570228323 245.30177254452468 326.40483038134795 # Ar
126 126 1 0.0 410.1988300444641 401.3572329582477 157.77080774737436 # Ar
127 127 1 0.0 348.1965142975483 79.04571585926757 286.27103976036835 # Ar
128 128 1 0.0 175.60514806935828 122.9955107604085 207.15477982392233 # Ar
129 129 1 0.0 260.5291524810691 174.52874124474803 11.634686288933736 # Ar
130 130 1 0.0 53.379484604383364 29.76589832290092 341.4422906537964 # Ar
131 131 1 0.0 59.10904941763397 92.68815244477682 275.64589677523384 # Ar
132 132 2 0.0 87.63196642513431 33.29034914470936 14.969689526455218 # Ar+
133 133 2 0.0 139.20331036627303 242.37056781932475 308.62914144913225 # Ar+
134 134 2 0.0 206.44807356849572 353.93888528848845 96.00120095055243 # Ar+
135 135 2 0.0 125.38022148110619 37.367309685787866 256.27759346201236 # Ar+
136 136 2 0.0 396.88109526320227 164.09551096778793 95.0981377816802 # Ar+
137 137 2 0.0 250.7653516330273 390.4238510363307 56.79273768698753 # Ar+
138 138 2 0.0 190.95173143781878 45.951196034313696 194.70313091813287 # Ar+
139 139 2 0.0 111.50291828430382 134.86462468432055 136.060705761151 # Ar+
140 140 2 0.0 351.7543559698444 302.8304261334086 400.04421664210514 # Ar+
141 141 2 0.0 302.0464292711009 386.2483962054045 78.70079050324071 # Ar+
142 142 2 0.0 67.10799085427652 44.804366074009344 115.13849758158 # Ar+
143 143 2 0.0 259.9573695832485 395.9049072756034 232.21805152486982 # Ar+
144 144 2 0.0 272.74988583572315 224.3569563335627 101.19420903424104 # Ar+
145 145 2 0.0 202.8315674023412 304.11457360619386 251.21684926399305 # Ar+
146 146 2 0.0 309.2168488234016 396.7076838036974 159.62929365900803 # Ar+
147 147 2 0.0 150.47627604950745 379.16207389599356 334.1659417357402 # Ar+
148 148 2 0.0 198.1518486625355 334.14654505619126 103.72606946954869 # Ar+
149 149 2 0.0 35.05942857975183 303.4694687188389 192.09924821820238 # Ar+
150 150 2 0.0 327.2891141288465 241.61653137315832 71.69815323448725 # Ar+
