LAMMPS data file -- atom_style full -- generated by chemfiles
150 atoms
0 bonds
0 angles
0 dihedrals
0 impropers
2 atom types
0 bond types
0 angle types
0 dihedral types
0 improper types
0.00000000 79.2174016 xlo xhi
0.00000000 79.2174016 ylo yhi
0.00000000 79.2174016 zlo zhi

# Pair Coeffs
# 1 Ar
# 2 Ar+

Masses

1 39.948 # Ar
2 39.948 # Ar+

Atoms # full

1 1 1 0.0 37.60161367437656 47.02324643892975 11.072340619514641 # Ar
2 2 1 0.0 33.7253665388318 75.86235767059478 17.647904297082018 # Ar
3 3 1 0.0 64.24663880599648 35.07809265432133 14.005831267475179 # Ar
4 4 1 0.0 16.835424791866192 56.232707628601695 67.95600643187144 # Ar
5 5 1 0.0 73.95267717719167 38.82034529692217 33.89338301596028 # Ar
6 6 1 0.0 4.207382239235156 20.041859886283497 55.76486151973939 # Ar
7 7 1 0.0 23.125168370322722 68.29840286186533 49.95394333610538 # Ar
8 8 1 0.0 58.99378510320044 69.2319519652031 28.167779540527096 # Ar
9 9 1 0.0 62.38237453177154 79.18526144256376 46.61288019658306 # Ar
10 10 1 0.0 42.46535789344392 47.68119878276895 52.2239474232162 # Ar
11 11 1 0.0 69.60639778874291 37.47228560544813 69.48788183086569 # Ar
12 12 1 0.0 48.68736902506655 22.204918247101745 70.33264187907042 # Ar
13 13 1 0.0 72.25857360046074 55.65208041430527 61.3712047896386 # Ar
14 14 1 0.0 79.05008838762194 66.49723057606045 26.31682700877774 # Ar
15 15 1 0.0 36.76318026907842 37.73593870413906 60.55342935912747 # Ar
16 16 1 0.0 76.81576286242978 17.665962168417558 6.946936933183914 # Ar
17 17 1 0.0 22.027065727136645 25.668182996060114 8.190197764460585 # Ar
18 18 1 0.0 23.54544403967087 32.16155813235742 38.07849972340096 # Ar
19 19 1 0.0 46.70827354635767 50.62848943912277 20.048422366292495 # Ar
20 20 1 0.0 45.03563221441309 27.459413777788054 77.1901004143493 # Ar
21 21 1 0.0 57.20224071190728 77.21661850322694 39.10319929141496 # Ar
22 22 1 0.0 20.875667487682364 25.736941164831787 57.371940486313065 # Ar
23 23 1 0.0 66.94118147462069 78.04043729141111 66.09487153408625 # Ar
24 24 1 0.0 58.20465063600872 4.734799375728801 50.05897641067148 # Ar
25 25 1 0.0 25.729122618367892 41.38848176709967 55.08335708455878 # Ar
26 26 1 0.0 78.83099417423966 60.31656375318637 59.98162175754563 # Ar
27 27 1 0.0 74.6327378888884 7.326003396959326 5.949716679041116 # Ar
28 28 1 0.0 13.27908974160933 30.926194452490794 66.01733617285365 # Ar
29 29 1 0.0 30.510220594903036 67.57337521759719 46.428984663904224 # Ar
30 30 1 0.0 32.45619122758372 12.128273102925116 44.80635704501993 # Ar
31 31 1 0.0 68.11820650224426 62.212496871623465 59.68261395911716 # Ar
32 32 1 0.0 58.451175181168374 8.741139336811875 34.206348490261306 # Ar
33 33 1 0.0 64.6705649646097 10.6812218804576 46.14475667349912 # Ar
34 34 1 0.0 1.4411741121337789 61.678506989809605 60.00460175094374 # Ar
35 35 1 0.0 30.81314996188564 41.40657662668345 56.58494950532259 # Ar
36 36 1 0.0 14.881111174090767 37.110970451097884 13.412597908763694 # Ar
37 37 1 0.0 49.402673257455746 13.306241180426355 56.16081629641106 # Ar
38 38 1 0.0 27.44035131628682 59.83766784256166 22.308461594274565 # Ar
39 39 1 0.0 31.275367771502147 72.21710538907557 74.53114482756716 # Ar
40 40 1 0.0 73.9061391937045 13.752400307911715 53.36854445960235 # Ar
41 41 1 0.0 12.240478045548778 50.15824690006787 69.23434836364564 # Ar
42 42 1 0.0 60.603822426498766 68.2209957248344 21.333118642272822 # Ar
43 43 1 0.0 39.962386353094566 42.05882310271639 44.48984602362672 # Ar
44 44 1 0.0 43.89578171213284 77.1711664374356 29.65979510616417 # Ar
45 45 1 0.0 30.646214925638926 61.495095772816136 58.923452659704274 # Ar
46 46 1 0.0 62.90713137622521 46.261080817076554 29.32271932076679 # Ar
47 47 1 0.0 35.92663179754484 75.64159704324665 16.023832330105094 # Ar
48 48 1 0.0 6.626339789491872 72.79112179185677 4.135215541579746 # Ar
49 49 1 0.0 30.602585316868772 59.041892170858006 38.72884711592411 # Ar
50 50 1 0.0 68.24200328273858 1.6090249487328172 15.029843516726537 # Ar
51 51 1 0.0 66.96260965267345 63.18012790904862 9.818218651338926 # Ar
52 52 1 0.0 77.5006690844569 27.086336902154375 2.11757974451036 # Ar
53 53 1 0.0 34.95825168872201 50.85797928777582 19.020200554318265 # Ar
54 54 1 0.0 64.64800121711347 5.29028474711892 58.87992605655018 # Ar
55 55 1 0.0 74.83840780267568 4.78281961427664 44.93840398418781 # Ar
56 56 1 0.0 26.002986205394055 22.191280984106136 5.226290494369851 # Ar
57 57 1 0.0 1.0720750936107164 68.02271283232506 14.992711796492918 # Ar
58 58 1 0.0 25.001222120755138 73.41225768502123 44.73807941841323 # Ar
59 59 1 0.0 52.06003005167606 9.224192575631326 67.33339313686893 # Ar
60 60 1 0.0 53.603863427701846 53.22526593347022 55.39418051576815 # Ar
61 61 1 0.0 65.65022938073518 5.6854026763612815 41.907699062725435 # Ar
62 62 1 0.0 18.82937587922615 22.619042986934534 53.76645058428173 # Ar
63 63 1 0.0 18.305182928516103 5.4768101112688585 55.84381406752549 # Ar
64 64 1 0.0 65.30309519449652 6.779286565424538 17.984943081958836 # Ar
65 65 1 0.0 16.68943194739479 56.972680572825915 39.68620249895734 # Ar
66 66 1 0.0 76.92851452536712 62.492409749534005 61.61623695455528 # Ar
67 67 1 0.0 10.150264092963697 67.92324954410806 43.10157157444781 # Ar
68 68 1 0.0 77.87306207424191 39.93581182096146 48.651669016725954 # Ar
69 69 1 0.0 2.3702733253800976 38.79465044248215 30.47590535915235 # Ar
70 70 1 0.0 28.147740002799537 78.17588740044363 52.029859747335095 # Ar
71 71 1 0.0 57.36407140943651 58.17535977408294 63.35761879139333 # Ar
72 72 1 0.0 51.99390004012762 12.703599574166713 40.46576968386393 # Ar
73 73 1 0.0 56.69613357085444 38.17038603271233 22.9375343828091 # Ar
74 74 1 0.0 41.22122177313736 52.31538295772907 26.69680836190344 # Ar
75 75 1 0.0 9.785519802017367 43.67605169399291 1.390402625321698 # Ar
76 76 1 0.0 66.05838861118444 0.6186931057504647 69.55306563675863 # Ar
77 77 1 0.0 27.437902796109928 52.74195129909307 79.02803394268302 # Ar
78 78 1 0.0 48.64936424709593 0.39072493356892046 25.424020677290283 # Ar
79 79 1 0.0 30.123402318265168 0.15661054119840903 72.8059620821299 # Ar
80 80 1 0.0 2.0152195764935352 8.098559745104799 6.812975138071706 # Ar
81 81 1 0.0 4.658333301472787 59.79267268257128 34.66489821856026 # Ar
82 82 1 0.0 10.32968941491872 16.562716251479117 70.52724944375565 # Ar
83 83 1 0.0 44.14654770896967 1.2190965868515389 70.11908961215458 # Ar
84 84 1 0.0 14.930937517234272 18.50638078873403 46.82821994170768 # Ar
85 85 1 0.0 68.42375434008267 42.337261459466994 64.1552843239564 # Ar
86 86 1 0.0 32.77110674580407 29.783577143942377 6.107991694172903 # Ar
87 87 1 0.0 29.999021107368957 67.9430270371218 14.133550878487355 # Ar
88 88 1 0.0 10.49723690775721 23.38081497351422 22.984210315091566 # Ar
89 89 1 0.0 72.76134547508555 74.9645307855458 31.20789981309254 # Ar
90 90 1 0.0 49.148700628008484 47.787905894919085 12.59979405048975 # Ar
91 91 1 0.0 42.81456204075442 36.87380379475959 29.319464687821373 # Ar
92 92 1 0.0 12.119282468828654 69.36005648317185 35.3491516645993 # Ar
93 93 1 0.0 75.51716061589325 0.48301139912981866 26.421000685917157 # Ar
94 94 1 0.0 13.26095024956341 39.02914318955247 33.382505930788405 # Ar
95 95 1 0.0 14.461762833849457 79.04988970731006 50.74804915642639 # Ar
96 96 1 0.0 5.542332265446439 56.91293185559454 8.464399360315916 # Ar
97 97 1 0.0 45.654131739026816 71.24678723397565 33.7654854512558 # Ar
98 98 1 0.0 23.405350213890515 55.975378804029916 54.812940501466116 # Ar
99 99 1 0.0 57.00967273975031 54.00989476695649 70.4247830065708 # Ar
100 100 1 0.0 12.418374402452272 24.064381258548366 53.83080749511503 # Ar
101 101 1 0.0 28.621020446363694 15.876557133628202 25.073267906339755 # Ar
102 102 1 0.0 70.30822301121478 73.35432591038358 21.68159760937231 # Ar
103 103 1 0.0 34.58009267855627 26.07304740530532 21.94109022221955 # Ar
104 104 1 0.0 24.95181464940659 2.068297344159021 24.05229157835043 # Ar
105 105 1 0.0 50.151404286586896 26.380321180008796 62.41806073134836 # Ar
106 106 1 0.0 70.95969337916158 69.15882917137121 5.828043485518813 # Ar
107 107 1 0.0 74.62261705489325 73.150228470742 17.954885252434064 # Ar
108 108 1 0.0 2.1491947130435185 32.27869255424361 74.37389430730208 # Ar
109 109 1 0.0 41.350629737187376 50.5475323921362 8.448196296831833 # Ar
110 110 1 0.0 42.392045503992705 73.0353953775356 73.25359115010828 # Ar
111 111 1 0.0 38.41522366353857 5.219544048360822 29.340606048869788 # Ar
112 112 1 0.0 10.084735678581307 45.729747979466204 13.20520973919283 # Ar
113 113 1 0.0 26.334865419299174 58.868336359566236 33.187367681120875 # Ar
114 114 1 0.0 42.487774590133014 11.078891933973189 69.06670616158404 # Ar
115 115 1 0.0 24.40935708736908 74.05026770657193 57.486502734405164 # Ar
116 116 1 0.0 39.91047926797301 10.02391321654253 25.671048375753035 # Ar
117 117 1 0.0 41.21746171883755 42.18520118816452 75.66949224740395 # Ar
118 118 1 0.0 68.02480165796956 78.1052288638778 9.284666964794758 # Ar
119 119 1 0.0 3.1583839113042993 53.04411695547623 33.007825119568025 # Ar
120 120 1 0.0 27.63580134852829 38.582139141528245 62.688498635262874 # Ar
121 121 1 0.0 58.23573295916688 74.97903921794712 18.125725758491694 # Ar
122 122 1 0.0 33.5435257774568 31.555328505302874 35.68070773405657 # Ar
123 123 1 0.0 18.378307658481308 39.64312025059228 65.51844380828774 # Ar
124 124 1 0.0 20.35764757997684 52.10481111761908 55.10878448430521 # Ar
125 125 1 0.0 40.6702596668819 69.6988293731621 21.171304737706663 # Ar
126 126 1 0.0 73.35879112653906 33.79919529756771 57.22280055673035 # Ar
127 127 1 0.0 0.558688979144354 67.48596184798642 54.60438232982699 # Ar
128 128 1 0.0 36.57311463256373 69.53345696696334 74.6292176762722 # Ar
129 129 1 0.0 48.928778599575026 66.99526316410972 16.81607365602676 # Ar
130 130 1 0.0 78.84715453213276 21.263284416122794 61.040567300320774 # Ar
131 131 1 0.0 30.20729533751073 62.79616715075868 5.1912759454911885 # Ar
132 132 1 0.0 71.81356094049416 70.25253588799517 48.039553378722864 # Ar
133 133 1 0.0 61.10326186216968 48.12360170112986 30.416662559559555 # Ar
134 134 1 0.0 35.860553239396836 22.013615226222928 19.74890832054743 # Ar
135 135 1 0.0 34.25554614233196 62.76126331655821 7.306111126297184 # Ar
136 136 1 0.0 66.27630834796506 61.80732439997405 23.844057970781524 # Ar
137 137 1 0.0 52.05339953173272 46.426621316654355 58.86813041503247 # Ar
138 138 1 0.0 69.35680373200002 9.708007297566203 4.13246243972889 # Ar
139 139 1 0.0 54.395525848201665 28.339760562504022 56.57051326375431 # Ar
140 140 1 0.0 22.448695692191922 67.02381650819446 74.13346264831144 # Ar
141 141 1 0.0 25.110391954040118 34.939014838736256 50.104906953012424 # Ar
142 142 1 0.0 9.45757836059982 71.65266736085896 14.864421610785136 # Ar
143 143 1 0.0 45.93925516602378 73.66802665352861 15.147692349071379 # Ar
144 144 1 0.0 33.4449066601305 44.394741926735776 53.87206004065875 # Ar
145 145 1 0.0 8.013110061144811 78.18763987561537 33.474792516204474 # Ar
146 146 1 0.0 78.91371299358231 30.136693683807025 62.8083909018684 # Ar
147 147 1 0.0 27.010738049926335 71.86388948399035 9.12173509924032 # Ar
148 148 2 0.0 77.00137826223133 16.771978950530148 18.77595674119203 # Ar+
149 149 2 0.0 75.19630923079528 20.128882478837312 34.497671762433946 # Ar+
150 150 2 0.0 55.29643173551154 65.39307215382824 12.846643505354182 # Ar+
