LAMMPS data file -- atom_style full -- generated by chemfiles
150 atoms
0 bonds
0 angles
0 dihedrals
0 impropers
2 atom types
0 bond types
0 angle types
0 dihedral types
0 improper types
0.00000000 79.2174016 xlo xhi
0.00000000 79.2174016 ylo yhi
0.00000000 79.2174016 zlo zhi

# Pair Coeffs
# 1 Ar
# 2 Ar+

Masses

1 39.948 # Ar
2 39.948 # Ar+

Atoms # full

1 1 1 0.0 42.84659533730108 24.654903964042617 23.881192983562652 # Ar
2 2 1 0.0 14.39363244829183 79.13357742593269 34.06000456640387 # Ar
3 3 1 0.0 73.79393316513884 70.90047069889746 68.76687039212314 # Ar
4 4 1 0.0 32.755703577268655 67.42572865386981 54.83073417403936 # Ar
5 5 1 0.0 8.331151307771712 8.753127700436906 56.45702729233074 # Ar
6 6 1 0.0 21.377306405192645 14.580300730905371 57.751271362873176 # Ar
7 7 1 0.0 0.6096575188190584 55.5627771979296 56.264932277986745 # Ar
8 8 1 0.0 64.19694302497221 78.8104417102604 39.32373741922494 # Ar
9 9 1 0.0 52.886677669708284 61.33449554660229 72.14758026112659 # Ar
10 10 1 0.0 64.36567129532432 5.606592721364203 28.281409971054714 # Ar
11 11 1 0.0 14.273320545923932 67.07760765075669 34.212293741726306 # Ar
12 12 1 0.0 50.235596528241665 47.342178984712184 74.33301681736057 # Ar
13 13 1 0.0 65.09607429276709 48.26167691708556 65.50491671417065 # Ar
14 14 1 0.0 17.792385091167713 6.056877563033682 56.771651436827185 # Ar
15 15 1 0.0 18.34024461127477 17.298851019373778 9.244453039107306 # Ar
16 16 1 0.0 47.53621594988386 78.58431831932305 32.91797517333964 # Ar
17 17 1 0.0 30.54734732919637 27.313991564459254 76.0227745043131 # Ar
18 18 1 0.0 74.70575531619856 19.816120643323515 31.58531951235238 # Ar
19 19 1 0.0 41.286323079159565 74.4316446660443 73.27951721716605 # Ar
20 20 1 0.0 7.151738880462231 40.975740768741495 55.0120603319653 # Ar
21 21 1 0.0 32.76809259973222 0.01983941349588034 56.996966653107584 # Ar
22 22 1 0.0 21.2554674036186 59.68298594551418 32.622153059389376 # Ar
23 23 1 0.0 30.370261073071557 75.97818381926521 35.628691936901575 # Ar
24 24 1 0.0 51.636195443660995 74.71485562556357 45.60405506183446 # Ar
25 25 1 0.0 21.69289719046374 50.43410298930414 36.431346781410774 # Ar
26 26 1 0.0 53.75240851311895 59.35685763864232 54.45924222849951 # Ar
27 27 1 0.0 29.31742271676985 15.045615237944734 22.42743325601483 # Ar
28 28 1 0.0 21.66856728450444 37.600810923013135 77.25424204132459 # Ar
29 29 1 0.0 43.953904747404 50.241547250062446 74.76826222946592 # Ar
30 30 1 0.0 35.37554226569524 30.43789447380967 66.44298357200604 # Ar
31 31 1 0.0 1.9216867268074938 3.5471967110945397 16.74623605208809 # Ar
32 32 1 0.0 14.50421034232428 76.18589250133412 63.89776841557698 # Ar
33 33 1 0.0 60.977392528421355 39.621476202220265 72.9492570829388 # Ar
34 34 1 0.0 65.1503814501344 65.80358872691674 62.59764533941544 # Ar
35 35 1 0.0 66.56320288541973 1.8573512005855686 61.423257029752214 # Ar
36 36 1 0.0 34.87392802030878 12.837746132393798 30.11735746029411 # Ar
37 37 1 0.0 12.784900168648111 78.94713295311738 47.66340431671627 # Ar
38 38 1 0.0 33.029386924596544 60.393117157917594 77.99487732117367 # Ar
39 39 1 0.0 55.63213462525298 15.221436533592659 33.80226027791429 # Ar
40 40 1 0.0 61.98282555210604 44.03562797962151 69.43426586099558 # Ar
41 41 1 0.0 13.499664359036279 68.66075104295636 21.382037411849897 # Ar
42 42 1 0.0 65.335606410905 2.2126471666267413 7.500489526995444 # Ar
43 43 1 0.0 7.625247623883139 14.424541644718346 20.70036276653697 # Ar
44 44 1 0.0 59.04644812174138 18.540566790090416 44.539916928928434 # Ar
45 45 1 0.0 9.839238215820282 52.008627760721474 73.97292368120546 # Ar
46 46 1 0.0 30.62589091361683 19.268105497486218 15.966027038629901 # Ar
47 47 1 0.0 55.31621624399107 8.583701153395094 32.2303522597894 # Ar
48 48 1 0.0 68.2372923964778 73.63766977833822 3.722950933808924 # Ar
49 49 1 0.0 59.20281628410054 31.394969510697543 9.052558181562762 # Ar
50 50 1 0.0 57.11854943559498 39.16401595386347 38.42628414011907 # Ar
51 51 1 0.0 47.568670361329275 73.38470452175136 5.024043391912604 # Ar
52 52 1 0.0 21.386148899073344 0.8837187863829151 16.505971968118498 # Ar
53 53 1 0.0 19.159571836672935 46.86618079281259 27.72553548250011 # Ar
54 54 1 0.0 78.76850154089665 31.074934044489876 74.331771268188 # Ar
55 55 1 0.0 60.58373417692326 12.085699691032527 77.95958939421882 # Ar
56 56 1 0.0 72.05079185464143 17.86024150424904 27.448074711969134 # Ar
57 57 1 0.0 76.65432275697988 16.267561435374045 7.092313852353536 # Ar
58 58 1 0.0 16.475123946477517 34.22816010154629 43.82537637752282 # Ar
59 59 1 0.0 70.88102680187914 75.94037557974407 1.9801001210439722 # Ar
60 60 1 0.0 53.89361071772729 41.01095000061468 49.109874489313306 # Ar
61 61 1 0.0 32.2478704097977 26.688870431218707 40.77311654050139 # Ar
62 62 1 0.0 16.79821367476607 50.23021439657429 42.445841511716054 # Ar
63 63 1 0.0 46.893535372972984 77.33237814335328 73.24170284447698 # Ar
64 64 1 0.0 49.79830493065444 71.95363113683597 48.797847934952834 # Ar
65 65 1 0.0 34.21061400268598 3.051151238238124 1.8323506962853924 # Ar
66 66 1 0.0 66.07002016285153 66.17860671773222 22.092707983183804 # Ar
67 67 1 0.0 63.91619703974116 31.308454336911065 53.33758126046446 # Ar
68 68 1 0.0 77.41455792274186 75.65446062617154 18.90902189329807 # Ar
69 69 1 0.0 73.54604752436299 77.7297776641055 37.64305949847146 # Ar
70 70 1 0.0 71.85126314920892 32.520959939271165 7.3544462523015985 # Ar
71 71 1 0.0 55.59323388416291 45.195422267286155 76.98636936573887 # Ar
72 72 1 0.0 64.43858596911258 42.48897672841404 39.8207827221342 # Ar
73 73 1 0.0 21.755653903746484 47.228667747200035 46.389287341461866 # Ar
74 74 1 0.0 74.81219405466146 72.00383339352746 8.489583044649727 # Ar
75 75 1 0.0 12.913536701830198 9.686352190005467 1.0005548437646072 # Ar
76 76 1 0.0 64.26669735124418 0.5830580312265838 38.48561138618095 # Ar
77 77 1 0.0 43.278993996550454 24.746283110825974 59.44595956689762 # Ar
78 78 1 0.0 3.9499527063332516 30.590603451139852 24.66605309915455 # Ar
79 79 1 0.0 34.148791646810494 9.279923356103906 49.183009444995704 # Ar
80 80 1 0.0 28.6523285593851 26.393075051422453 55.06206607382211 # Ar
81 81 1 0.0 29.445804380601995 73.08482270353116 30.641479081373824 # Ar
82 82 1 0.0 28.556432258486538 16.199125268871352 54.035117314322164 # Ar
83 83 1 0.0 16.561296689467344 59.132056505888414 1.2633000134251782 # Ar
84 84 1 0.0 42.97257972922679 62.06867942247347 1.5235908112258154 # Ar
85 85 1 0.0 71.99102284828521 51.122947938650995 20.748890913623033 # Ar
86 86 1 0.0 65.48152291020578 50.8019947459281 78.52001460127299 # Ar
87 87 1 0.0 45.92415358180978 25.83067707053761 68.59940190141509 # Ar
88 88 1 0.0 70.36747816577864 35.26250094732236 66.95384167872194 # Ar
89 89 1 0.0 60.03726415189824 41.04527683091069 32.71124669794026 # Ar
90 90 1 0.0 29.88954135559369 21.755606430540105 47.704392569716276 # Ar
91 91 1 0.0 35.45580352300196 49.653599031016185 58.314184090583474 # Ar
92 92 1 0.0 26.75474139797501 8.887123128613512 25.196460262148797 # Ar
93 93 1 0.0 37.50056714036968 13.03486482817422 72.41688630377944 # Ar
94 94 1 0.0 36.07474473477073 64.31926300472148 69.45393797232586 # Ar
95 95 1 0.0 23.342215752512736 32.47053988252911 25.612717260476764 # Ar
96 96 1 0.0 29.90808447370021 43.07978261635288 20.572418295335854 # Ar
97 97 1 0.0 21.77720574973493 66.65341887533457 54.85824608049464 # Ar
98 98 1 0.0 9.402934963305857 41.920950302877465 60.09180384398779 # Ar
99 99 1 0.0 56.764226743434605 45.55207787337082 7.455825390309641 # Ar
100 100 1 0.0 15.152229589811801 35.363590437626456 50.03646451609722 # Ar
101 101 1 0.0 61.86879342733742 39.43675079590446 33.015113670919064 # Ar
102 102 1 0.0 75.02064358007281 48.20774902263022 62.60833208888111 # Ar
103 103 1 0.0 78.75682401744142 40.69669738753829 8.272170994804982 # Ar
104 104 1 0.0 60.769065022810295 41.96490996912687 54.5887019110503 # Ar
105 105 1 0.0 57.20982475866731 56.99145924314788 55.890508242975464 # Ar
106 106 1 0.0 2.2577668723686073 51.49013864141409 49.309535611740365 # Ar
107 107 1 0.0 9.330090524916804 33.7613174515483 60.427688684351814 # Ar
108 108 1 0.0 52.19191142135811 2.9071781261611975 76.88110067435747 # Ar
109 109 1 0.0 47.56008989583905 19.225610994892836 50.664645902764924 # Ar
110 110 1 0.0 48.47945024746371 35.951411695938724 77.52498144752381 # Ar
111 111 1 0.0 41.3782560263342 23.328448926950017 39.0147418898867 # Ar
112 112 1 0.0 70.05033164410088 26.47079822564958 54.724497868710266 # Ar
113 113 1 0.0 29.1639003256383 72.96104134943714 23.991123116719194 # Ar
114 114 1 0.0 61.93003412691573 33.94350969238811 16.213475467158204 # Ar
115 115 1 0.0 1.7114893027103553 34.5777562360564 44.666006937253094 # Ar
116 116 1 0.0 40.60300087907588 67.31158825814164 38.814258027133846 # Ar
117 117 1 0.0 57.973671300714784 74.80442765968913 27.883772777702767 # Ar
118 118 1 0.0 58.52180189559772 11.870543544682302 24.732419181173075 # Ar
119 119 1 0.0 59.411403442045994 73.0095956921485 28.38770006153478 # Ar
120 120 1 0.0 14.465173133077062 13.24793538947967 38.807300820963405 # Ar
121 121 1 0.0 46.61492679078113 4.058075673225912 71.86815419737573 # Ar
122 122 1 0.0 8.535283876610151 24.401965584675782 54.25799404301835 # Ar
123 123 1 0.0 13.121809980493667 37.12427356954662 55.39633175202732 # Ar
124 124 1 0.0 22.121390725050492 64.22283831965066 20.396027314790953 # Ar
125 125 1 0.0 75.06467040003476 9.608124708152388 50.49272626297858 # Ar
126 126 1 0.0 54.04147169604656 41.48565561904527 56.849636530776436 # Ar
127 127 1 0.0 28.225114564152463 18.890827406909377 56.88285039095314 # Ar
128 128 1 0.0 32.315238725859174 63.40229865155931 26.50083964817425 # Ar
129 129 1 0.0 36.967535711878504 3.4944215356701736 48.14258019025665 # Ar
130 130 1 0.0 8.952051096587125 27.83749351898095 7.873982702821045 # Ar
131 131 1 0.0 31.054140006043415 27.955574482021184 2.295502255645866 # Ar
132 132 1 0.0 49.37296211622537 51.45644436485141 63.235463797957486 # Ar
133 133 1 0.0 29.42440989565634 3.186513559289458 57.035657781741854 # Ar
134 134 1 0.0 76.37333886444623 61.60062745480102 44.45935107793423 # Ar
135 135 1 0.0 27.24500143938233 53.40731997451278 8.28227438886815 # Ar
136 136 1 0.0 53.65558991875223 68.12554153988896 37.77427514364116 # Ar
137 137 1 0.0 63.569008688230035 64.88465023083053 42.57016921820676 # Ar
138 138 1 0.0 74.53330973806487 27.41929319414394 9.267620105065376 # Ar
139 139 1 0.0 27.719122359199662 70.00518080037536 70.81661667740175 # Ar
140 140 1 0.0 58.0118268718447 38.751830412691774 13.684693577017821 # Ar
141 141 1 0.0 12.928753608905884 52.224029253272654 25.946842640162675 # Ar
142 142 1 0.0 57.730681394810155 77.8140990123003 5.037741157138056 # Ar
143 143 1 0.0 78.49463338672238 1.3122395963661115 38.305863258404045 # Ar
144 144 1 0.0 72.81281367891427 78.53433619337088 66.34191898671202 # Ar
145 145 1 0.0 10.291892884851665 48.17716562891502 56.34271164471802 # Ar
146 146 1 0.0 30.826584484124716 75.99219274411882 2.0936539450690397 # Ar
147 147 1 0.0 69.57747750934193 49.36112360344523 69.51617191274114 # Ar
148 148 2 0.0 15.84665775720949 65.8035113889337 10.543194902062 # Ar+
149 149 2 0.0 44.703376710545065 63.28401728317543 77.8633027218693 # Ar+
150 150 2 0.0 69.93057198843707 19.35061973271771 48.624324492198355 # Ar+
