LAMMPS data file -- atom_style full -- generated by chemfiles
150 atoms
0 bonds
0 angles
0 dihedrals
0 impropers
2 atom types
0 bond types
0 angle types
0 dihedral types
0 improper types
0.00000000 192.649377 xlo xhi
0.00000000 192.649377 ylo yhi
0.00000000 192.649377 zlo zhi

# Pair Coeffs
# 1 Ar
# 2 Ar+

Masses

1 39.948 # Ar
2 39.948 # Ar+

Atoms # full

1 1 1 0.0 62.6811992339768 28.0453860013056 117.44321816092531 # Ar
2 2 1 0.0 104.6116090092011 47.720335983121444 34.411559745058874 # Ar
3 3 1 0.0 117.00208131845855 22.827296141232768 23.93482322579582 # Ar
4 4 1 0.0 27.602391517306962 56.61634393910592 98.61452633864687 # Ar
5 5 1 0.0 126.04686444624639 80.3334354821792 24.138269288883354 # Ar
6 6 1 0.0 190.93721412757444 71.3502398506041 186.50238147440825 # Ar
7 7 1 0.0 77.0185501231003 179.833348285704 147.73227762528063 # Ar
8 8 1 0.0 97.45366277665632 129.22420145038328 13.154393435032118 # Ar
9 9 1 0.0 41.29935062689635 81.11620413806897 19.835271175602838 # Ar
10 10 1 0.0 17.994884331606656 148.82381407588625 97.20005350837289 # Ar
11 11 1 0.0 14.838162492000496 155.0135994798802 162.583257461321 # Ar
12 12 1 0.0 133.36173787766958 43.50835966209347 3.0465098860872843 # Ar
13 13 1 0.0 79.56916457876622 119.99593094852989 64.29336926896484 # Ar
14 14 1 0.0 115.26015838977138 126.77112726227489 2.785634054271327 # Ar
15 15 1 0.0 143.6897722662025 158.9704681710878 92.36174429657042 # Ar
16 16 1 0.0 94.62446216289662 106.07799311513304 79.67678955124127 # Ar
17 17 1 0.0 118.85195412256068 144.76994725377125 82.37085760332037 # Ar
18 18 1 0.0 128.64916294423674 11.125347201951625 18.152182939504684 # Ar
19 19 1 0.0 42.716223920042566 13.300890422744706 92.80621823995045 # Ar
20 20 1 0.0 31.45728519665296 46.89278446849384 13.204815169919979 # Ar
21 21 1 0.0 103.01131725279811 176.17260298171354 187.52310702451365 # Ar
22 22 1 0.0 111.92131631455548 134.7393756092305 68.83562080366416 # Ar
23 23 1 0.0 111.8399243755575 143.0847625599448 21.656751366957515 # Ar
24 24 1 0.0 18.02281118724974 115.11238275534737 124.96208541486443 # Ar
25 25 1 0.0 17.604254501478586 30.7239845604078 59.79056300639195 # Ar
26 26 1 0.0 47.18327509425097 144.57554150012328 90.01232945873826 # Ar
27 27 1 0.0 116.45699865707131 127.9508110114982 61.75806065183292 # Ar
28 28 1 0.0 127.03788351010392 159.97945200409967 15.050708334268128 # Ar
29 29 1 0.0 145.50580764007174 170.8908061511744 121.85190792117344 # Ar
30 30 1 0.0 187.61974977165855 192.59631019915963 166.69257568877597 # Ar
31 31 1 0.0 147.5119302500926 157.4264760769178 22.77854395359824 # Ar
32 32 1 0.0 26.98434657601776 156.58568710262998 122.57328254788982 # Ar
33 33 1 0.0 155.26634067649888 13.548722939749569 80.89936568117078 # Ar
34 34 1 0.0 100.38200739483324 149.11034871242742 70.12491325749268 # Ar
35 35 1 0.0 52.44387055028519 111.20252157427842 57.93687962010256 # Ar
36 36 1 0.0 65.4720957116123 25.181108594416695 161.82746723349706 # Ar
37 37 1 0.0 21.662073760571655 56.07918963419299 76.05315655487549 # Ar
38 38 1 0.0 173.99916217810292 76.27063773729317 101.65539425710341 # Ar
39 39 1 0.0 181.21973815601672 120.89409554897091 84.84895884963244 # Ar
40 40 1 0.0 148.67446259281903 60.53660863125835 102.3247412914228 # Ar
41 41 1 0.0 114.42324207656287 70.16757963206975 90.23629407198554 # Ar
42 42 1 0.0 120.48153843464749 162.36513552153252 126.2987636452364 # Ar
43 43 1 0.0 19.3833949125075 177.13873774380053 37.0127174184398 # Ar
44 44 1 0.0 66.88720634101948 85.34262317603819 42.444679687900106 # Ar
45 45 1 0.0 147.24977395076073 12.348757304041737 24.497301378720834 # Ar
46 46 1 0.0 152.08639458544866 61.37180277737491 100.71665213324114 # Ar
47 47 1 0.0 34.565668345786605 160.65248531465937 82.60941803346805 # Ar
48 48 1 0.0 15.077279738666007 40.540305089797585 113.32124302869947 # Ar
49 49 1 0.0 185.15288813372732 175.56317789594968 105.5205425522232 # Ar
50 50 1 0.0 42.124734134631545 190.61652144946592 13.994020025486291 # Ar
51 51 1 0.0 97.37291536203736 41.553598085877326 99.29483142709012 # Ar
52 52 1 0.0 74.21065231907116 119.28168818090046 186.56506057330685 # Ar
53 53 1 0.0 141.7948978896116 130.33932476420617 92.25838236334901 # Ar
54 54 1 0.0 187.75443458433674 53.06581157882295 2.0597217526234877 # Ar
55 55 1 0.0 134.34157114807735 68.03271178091242 108.7703557549891 # Ar
56 56 1 0.0 49.28752801449135 162.38910850993747 175.60533318766713 # Ar
57 57 1 0.0 150.53030187108075 37.96699503908236 164.7984535183922 # Ar
58 58 1 0.0 16.498808492099123 14.894634679350247 61.10096932299226 # Ar
59 59 1 0.0 175.08424630704874 180.31803522638506 62.78572231960883 # Ar
60 60 1 0.0 5.714838565721992 133.31298385650518 67.08441461297483 # Ar
61 61 1 0.0 169.4526542869089 169.77136886687381 151.8105081423531 # Ar
62 62 1 0.0 25.104508819603954 157.78419218402536 10.305624136289468 # Ar
63 63 1 0.0 58.50654637034543 178.55897878765086 22.894005488619413 # Ar
64 64 1 0.0 34.3839128756926 139.91294182730408 69.16511683530898 # Ar
65 65 1 0.0 68.80665331785548 84.59965621242833 77.55151765442815 # Ar
66 66 1 0.0 131.8450352763213 75.28523764805638 27.599163779723938 # Ar
67 67 1 0.0 124.68649333007741 58.48611912298595 115.74407483202886 # Ar
68 68 1 0.0 83.76064235230193 40.119461608862295 60.11020912537713 # Ar
69 69 1 0.0 110.06525812398692 79.90722635024437 0.40791824721042713 # Ar
70 70 1 0.0 21.69871554094852 130.69567261010636 93.34713294394936 # Ar
71 71 1 0.0 119.21183474464398 111.3097932224067 16.74330124519573 # Ar
72 72 1 0.0 64.7758563267449 120.89008827098031 136.65771382365978 # Ar
73 73 1 0.0 154.80673152538074 6.108682526144263 131.12050584140815 # Ar
74 74 1 0.0 189.40181228332483 171.70630923865946 171.88758973874542 # Ar
75 75 1 0.0 90.93082259420821 94.03232304863633 188.38577385802773 # Ar
76 76 1 0.0 125.25238860129137 36.715948018310854 124.64417902344486 # Ar
77 77 1 0.0 12.826199280700889 168.27799320331866 87.51096531794515 # Ar
78 78 1 0.0 87.01030978448274 164.48096609530958 101.00179385007989 # Ar
79 79 1 0.0 180.65556502714804 0.7544472436778235 92.61378041521867 # Ar
80 80 1 0.0 34.683863860797906 192.541171430732 174.32002062357662 # Ar
81 81 1 0.0 115.24193265997513 150.4334754644466 108.16651738606483 # Ar
82 82 1 0.0 122.73157885693675 66.08482157058653 122.65463711261658 # Ar
83 83 1 0.0 76.95090770268769 60.46360205349534 157.0155819785915 # Ar
84 84 1 0.0 109.01122538943112 26.695466307249415 149.79957864795074 # Ar
85 85 1 0.0 129.2124195342051 54.1233791734208 18.363495672651787 # Ar
86 86 1 0.0 174.5751488072872 150.42600668932437 183.66996317976458 # Ar
87 87 1 0.0 174.12088422644192 161.8201148353363 10.929642124588636 # Ar
88 88 1 0.0 86.80457932100634 104.70007267662966 175.4813510409587 # Ar
89 89 1 0.0 71.98568202714202 93.93069302464491 117.47616559890464 # Ar
90 90 1 0.0 128.0724663887191 117.20912535592096 23.148251412215444 # Ar
91 91 1 0.0 154.16324127494448 180.63705236906668 115.13104379746463 # Ar
92 92 1 0.0 186.31574920691466 49.220167476149726 5.964167749151269 # Ar
93 93 1 0.0 163.08406745937765 52.9174021285388 41.25030709353025 # Ar
94 94 1 0.0 95.75309858414693 174.96919824743435 17.518798453589977 # Ar
95 95 1 0.0 149.58113007654035 31.737759108528653 166.0173545677825 # Ar
96 96 1 0.0 169.35831356097538 154.57791107046353 185.28248798866764 # Ar
97 97 1 0.0 11.104136288937143 107.31019720528082 147.23172795862428 # Ar
98 98 1 0.0 26.653464029322027 106.1847776529915 100.46917773414924 # Ar
99 99 1 0.0 67.7231527439236 178.71756293365243 163.65426137076508 # Ar
100 100 1 0.0 88.03942117962646 113.0483506044545 92.92719983069291 # Ar
101 101 1 0.0 180.75071002929138 53.133027469818394 36.64765474618537 # Ar
102 102 1 0.0 155.33838290011317 111.18856208289742 181.89902382461256 # Ar
103 103 1 0.0 14.56213555214476 53.98080811172218 32.43069554837588 # Ar
104 104 1 0.0 128.8720420064237 35.1356744754547 110.63425378861831 # Ar
105 105 1 0.0 137.75077224407764 19.258880347051743 123.54694391389125 # Ar
106 106 1 0.0 63.520223245413014 31.130757716821336 143.27418395657944 # Ar
107 107 1 0.0 131.6189896388029 14.156034162540449 158.52169048388743 # Ar
108 108 1 0.0 163.28164175228244 3.007844396340825 164.45934754610798 # Ar
109 109 1 0.0 103.72419940190471 173.57958831460766 189.63066474271633 # Ar
110 110 1 0.0 179.7272644095573 72.31456178703723 125.22251309819346 # Ar
111 111 1 0.0 180.04632326799285 86.92349284313251 82.30046680253463 # Ar
112 112 1 0.0 103.58335364958637 180.6096644098227 60.91397120563222 # Ar
113 113 1 0.0 107.89099061358046 87.03196468607369 82.41326592416428 # Ar
114 114 1 0.0 70.22125719319916 14.079098216670763 88.56575392119379 # Ar
115 115 1 0.0 13.635486326802145 158.5748852376156 65.12592578367774 # Ar
116 116 1 0.0 91.6530179252132 63.53439481026988 95.62229352530214 # Ar
117 117 1 0.0 44.54950298397325 150.76024682221927 149.20007677399485 # Ar
118 118 1 0.0 48.03242398418278 75.50067332500547 131.55101147397733 # Ar
119 119 1 0.0 134.8896178246447 47.85594438884043 168.65409059234716 # Ar
120 120 1 0.0 126.5431680608072 171.73587491558257 96.14773165491472 # Ar
121 121 1 0.0 46.28526298569947 175.47810589704105 55.6060619991814 # Ar
122 122 1 0.0 71.22303895022793 4.876305115233509 58.35489986416558 # Ar
123 123 1 0.0 58.49243975919514 105.16631188722933 81.3853140711421 # Ar
124 124 1 0.0 183.14266577080642 120.59832078919042 53.97510808698654 # Ar
125 125 1 0.0 159.8008132947653 112.18896262794627 36.60279004702242 # Ar
126 126 1 0.0 175.55163834654883 39.49435718173581 141.42715453743247 # Ar
127 127 1 0.0 54.6090170177219 171.9727286366173 97.3431752164461 # Ar
128 128 1 0.0 34.41128904660249 124.73602678873378 69.06673421016265 # Ar
129 129 1 0.0 0.6083626122629605 71.85073986549298 45.55622645787243 # Ar
130 130 1 0.0 177.75979624644174 156.6155241435238 136.38983115981745 # Ar
131 131 1 0.0 74.88714640019126 121.84665693953978 171.35969266662977 # Ar
132 132 1 0.0 173.12538867965628 83.11739787820639 38.962965053627116 # Ar
133 133 1 0.0 80.59570213438397 18.037825991862377 188.38632382586707 # Ar
134 134 1 0.0 183.64109579045513 40.34708797958267 17.11423376075071 # Ar
135 135 1 0.0 5.705817812558108 181.42753550799412 48.357381680956266 # Ar
136 136 1 0.0 157.372980776437 117.63906428824296 126.24142467426937 # Ar
137 137 1 0.0 61.260976348626066 132.9587139380867 90.18647334111621 # Ar
138 138 1 0.0 58.47774781073618 119.99221133236142 4.324044410896878 # Ar
139 139 1 0.0 8.72308475347639 47.14007927659697 181.87281918933778 # Ar
140 140 1 0.0 55.698599548802946 56.514610930785295 110.25444287715945 # Ar
141 141 1 0.0 81.52716859309308 122.76093434385491 171.42937890886114 # Ar
142 142 1 0.0 49.282737182282965 8.506205676888174 122.99779511478323 # Ar
143 143 2 0.0 89.73362377704119 62.11359279054601 169.27800961118746 # Ar+
144 144 2 0.0 183.0816690892789 68.90001986399488 64.82729815080968 # Ar+
145 145 2 0.0 190.29154066666183 164.5431448437451 114.44698888816468 # Ar+
146 146 2 0.0 81.89726865227728 118.24086650536604 104.11759492186295 # Ar+
147 147 2 0.0 10.79080207148266 143.20608686187418 102.8352217072424 # Ar+
148 148 2 0.0 129.45806521947787 23.44277653400715 101.76874347377174 # Ar+
149 149 2 0.0 60.56506429963116 43.805420349878794 97.68115351448421 # Ar+
150 150 2 0.0 187.62066771885785 144.64232048346264 24.617671695910346 # Ar+
