LAMMPS data file -- atom_style full -- generated by chemfiles
150 atoms
0 bonds
0 angles
0 dihedrals
0 impropers
2 atom types
0 bond types
0 angle types
0 dihedral types
0 improper types
0.00000000 79.2174016 xlo xhi
0.00000000 79.2174016 ylo yhi
0.00000000 79.2174016 zlo zhi

# Pair Coeffs
# 1 Ar
# 2 Ar+

Masses

1 39.948 # Ar
2 39.948 # Ar+

Atoms # full

1 1 1 0.0 18.9976924133942 66.25711261994584 15.576539393499763 # Ar
2 2 1 0.0 29.29428662129203 9.865730539037061 48.32434350023469 # Ar
3 3 1 0.0 40.144254476568626 47.18520497815626 54.96074560188317 # Ar
4 4 1 0.0 27.546160620427532 59.466249051143 18.435599314760942 # Ar
5 5 1 0.0 40.37624539065316 30.40434457269661 1.2865210506511002 # Ar
6 6 1 0.0 68.11151379851678 15.041901158338515 64.87268782710434 # Ar
7 7 1 0.0 18.572013473499567 35.11268578556722 21.124577266673423 # Ar
8 8 1 0.0 36.58323750851392 10.303269792543961 77.26494593724011 # Ar
9 9 1 0.0 2.45212500435595 37.90192032693197 46.150498808432175 # Ar
10 10 1 0.0 75.72899737715167 73.62915614311865 19.928147766106644 # Ar
11 11 1 0.0 56.30672300491382 40.57649217832538 57.332484287967915 # Ar
12 12 1 0.0 72.67976388506578 70.15379924720149 59.51740295491192 # Ar
13 13 1 0.0 20.05034809433233 5.3373465931337405 13.363235948503334 # Ar
14 14 1 0.0 6.98574776130587 23.313060557723063 36.625350043037045 # Ar
15 15 1 0.0 49.10932379096748 47.13894230696453 2.1618289704905282 # Ar
16 16 1 0.0 0.6537027172282027 32.668207939392005 52.744985044536605 # Ar
17 17 1 0.0 43.138732914225415 41.06459029519813 36.38791101805765 # Ar
18 18 1 0.0 65.12683712844061 75.69250685698687 37.26497250099618 # Ar
19 19 1 0.0 36.339776847865494 8.959875259859011 44.582357469172145 # Ar
20 20 1 0.0 65.31016924542573 20.062523599722144 8.855286545533163 # Ar
21 21 1 0.0 44.38985841610394 22.690270222117643 75.05692537879256 # Ar
22 22 1 0.0 4.247846416736642 15.930902972955112 9.18160716133323 # Ar
23 23 1 0.0 58.427724353565274 65.86880353907436 70.50063780067656 # Ar
24 24 1 0.0 29.50486666228834 43.1807763019795 33.951850548339806 # Ar
25 25 1 0.0 64.21227601175865 36.579834797179906 36.52151995806471 # Ar
26 26 1 0.0 1.2742105966339137 4.700438832400936 7.56157190655771 # Ar
27 27 1 0.0 18.695549618044197 31.411238750192226 71.693911181353 # Ar
28 28 1 0.0 53.80899896890476 14.769066477464461 20.98418231400757 # Ar
29 29 1 0.0 2.105503457331762 42.612941714271976 25.06327689436084 # Ar
30 30 1 0.0 34.997421650389064 63.38707030505558 44.78433871580312 # Ar
31 31 1 0.0 62.65794768489967 6.48639387660761 9.87466137834137 # Ar
32 32 1 0.0 65.7135058837613 47.89473271931167 4.439125843289515 # Ar
33 33 1 0.0 38.56161722491971 60.69909425636157 28.644001897203797 # Ar
34 34 1 0.0 4.107625602916149 32.49925501777512 22.826839508044472 # Ar
35 35 1 0.0 7.021153375160269 16.693326084011726 3.4650482632080806 # Ar
36 36 1 0.0 8.980909151173158 14.752025951359903 76.57701970016338 # Ar
37 37 1 0.0 38.953377803804486 16.833135265104293 22.39716503620069 # Ar
38 38 1 0.0 17.571375215251134 11.208846065334138 6.19262583295257 # Ar
39 39 1 0.0 64.48711297810694 2.5730807012556998 72.46927634178688 # Ar
40 40 1 0.0 54.131285378679756 28.748949281661965 35.91800145834019 # Ar
41 41 1 0.0 49.12986974130452 20.533777092511407 61.263211737180434 # Ar
42 42 1 0.0 70.93080578493208 8.642598189949188 67.76198099630965 # Ar
43 43 1 0.0 24.363544150589416 32.414125648908836 31.459333840450416 # Ar
44 44 1 0.0 37.27193930599869 47.03132616122016 21.36236306376403 # Ar
45 45 1 0.0 47.91834539153344 70.83636799759898 9.48449121512094 # Ar
46 46 1 0.0 24.09004819587827 63.11537768300908 9.71901450753624 # Ar
47 47 1 0.0 16.978991308477042 24.119969562784203 2.608402817928701 # Ar
48 48 1 0.0 37.6105770411942 7.692951273591045 69.4042540827325 # Ar
49 49 1 0.0 7.775981258336004 20.563735189285524 76.66154214496555 # Ar
50 50 1 0.0 17.474229241358664 41.24372312911726 64.84081981975787 # Ar
51 51 1 0.0 63.62406504863175 47.572045234308604 42.52565290823134 # Ar
52 52 1 0.0 32.36718518064323 22.031309830991372 75.49209674907053 # Ar
53 53 1 0.0 53.6562296329415 63.76118283278167 42.03889291066133 # Ar
54 54 1 0.0 4.90567030715239 16.886453273476818 21.530024884451628 # Ar
55 55 1 0.0 33.664213804291656 5.303477858964318 21.059820117073834 # Ar
56 56 1 0.0 3.9204423468345913 1.816605387013704 27.68969182211943 # Ar
57 57 1 0.0 76.78590862875224 11.862170876039826 28.950740415674197 # Ar
58 58 1 0.0 78.88116661654321 56.441356779148066 64.03045775507883 # Ar
59 59 1 0.0 71.15261900938101 42.73144107850933 9.832685311769541 # Ar
60 60 1 0.0 71.17852463898704 46.53846498987511 61.64839628306323 # Ar
61 61 1 0.0 37.910296872466674 6.212780049230902 26.19588129075098 # Ar
62 62 1 0.0 41.88271541573406 46.79574611412918 58.303400146186235 # Ar
63 63 1 0.0 38.53129045106608 54.7781198103998 41.13808390271874 # Ar
64 64 1 0.0 2.6903578566797126 13.579765090660175 15.618271457638118 # Ar
65 65 1 0.0 58.21503662598421 77.0422719365854 11.068932577404157 # Ar
66 66 1 0.0 78.88457929364058 68.85884671829103 57.41679386880955 # Ar
67 67 1 0.0 48.22452881014688 9.371436329818298 39.911862046973276 # Ar
68 68 1 0.0 20.580014347754794 48.228872366821385 78.4988834781618 # Ar
69 69 1 0.0 66.11262938073561 41.849404490705226 18.71203911510842 # Ar
70 70 1 0.0 70.13452428516582 8.660540631642295 34.04827799878026 # Ar
71 71 1 0.0 32.70746828099013 44.326038993679546 70.73720278217657 # Ar
72 72 1 0.0 58.33347493663839 61.62104425608577 73.2434916817134 # Ar
73 73 1 0.0 61.47071499617848 62.91090328946082 16.061707291353436 # Ar
74 74 1 0.0 18.949502827913275 36.221939882799724 11.91812134168596 # Ar
75 75 1 0.0 59.07098811069265 42.83323068345473 50.25055384443613 # Ar
76 76 1 0.0 29.67257634281545 48.92583746553557 34.819103381859556 # Ar
77 77 1 0.0 64.65994586232618 65.70380843606554 63.30706322462168 # Ar
78 78 1 0.0 35.152008992739205 76.08443565233215 21.656721790922337 # Ar
79 79 1 0.0 12.637938170636243 61.978034305221115 46.47301388826959 # Ar
80 80 1 0.0 52.21490546806913 6.835502122145477 74.1617424362801 # Ar
81 81 1 0.0 18.73438782676323 14.11808247093417 9.932676939275051 # Ar
82 82 1 0.0 48.05411523723596 41.893648778200664 69.65553624666015 # Ar
83 83 1 0.0 59.94969180083136 5.866380015805041 3.375555563961203 # Ar
84 84 1 0.0 0.7584508788842114 15.970847366413503 68.22495057977952 # Ar
85 85 1 0.0 56.3497691633158 58.014898663653035 72.05741363722943 # Ar
86 86 1 0.0 31.51547267648403 33.144203776144046 34.180442467705895 # Ar
87 87 1 0.0 50.14757231571329 62.82112943144303 28.532876328761088 # Ar
88 88 1 0.0 38.88159643454512 23.431630642610696 55.33478639852848 # Ar
89 89 1 0.0 76.14811850207748 69.50237298136594 38.53277554392715 # Ar
90 90 1 0.0 37.18210731735864 1.9001237811973657 45.187445911597756 # Ar
91 91 1 0.0 59.76488218941083 38.70886784968596 55.268730700700885 # Ar
92 92 1 0.0 65.82545136972173 51.31393397338688 34.14682220368148 # Ar
93 93 1 0.0 38.60038156203504 38.4068671253617 59.033577035971526 # Ar
94 94 1 0.0 63.266012976477086 50.23089351068651 72.8761026816867 # Ar
95 95 1 0.0 77.19277913223077 15.658150301994745 47.78953390678005 # Ar
96 96 1 0.0 24.46014802271914 30.242978195756827 21.369387906630806 # Ar
97 97 1 0.0 21.472000585824613 47.47121307450858 74.5278542659181 # Ar
98 98 1 0.0 8.239541349322414 28.910725967554576 75.47950305425826 # Ar
99 99 1 0.0 37.97735066371259 18.885089517133522 21.187812614595494 # Ar
100 100 1 0.0 57.90862918982495 22.472387019703625 19.88573253046613 # Ar
101 101 1 0.0 68.80242573683178 27.03084166444038 41.760711270591074 # Ar
102 102 1 0.0 1.4986453343077049 39.9454090009364 51.08151270122952 # Ar
103 103 1 0.0 0.39695038559428136 41.5760924139967 78.85434384611266 # Ar
104 104 1 0.0 48.66831388387822 7.713637512278796 52.2090441515698 # Ar
105 105 1 0.0 36.84655985029801 66.50339581960695 1.8332263705642813 # Ar
106 106 1 0.0 57.499702998614666 39.59328703143617 39.807514810647845 # Ar
107 107 1 0.0 58.30529367812623 75.37970012482083 12.095402967334213 # Ar
108 108 1 0.0 76.70391911246755 55.06562484543882 68.44237924347618 # Ar
109 109 1 0.0 3.5160785929752345 19.19166518185514 5.340914763620151 # Ar
110 110 1 0.0 33.09947283516519 29.969238731626714 9.852267001028812 # Ar
111 111 1 0.0 73.84045335707293 47.67958344707931 74.59388047341564 # Ar
112 112 1 0.0 44.11726494871813 48.06345420008859 7.723611005984917 # Ar
113 113 1 0.0 18.408756961829535 70.9631998500389 60.76351395117386 # Ar
114 114 1 0.0 68.55899199838335 47.90244557027464 1.3442897129710152 # Ar
115 115 1 0.0 77.39570003753938 68.98754989361858 2.7545949652590407 # Ar
116 116 1 0.0 60.07045136202093 56.23483806988894 19.381384159068297 # Ar
117 117 1 0.0 23.021042822690635 25.996031142979877 74.27990024237238 # Ar
118 118 1 0.0 73.76052587674599 43.45639840160991 0.7444894844898184 # Ar
119 119 1 0.0 25.58204672973703 77.30256309866363 28.877895411155357 # Ar
120 120 1 0.0 7.924608022937008 58.42123563346691 30.827336959416794 # Ar
121 121 1 0.0 0.5392291713031204 41.30876535151819 78.34563230475885 # Ar
122 122 1 0.0 47.183260827359774 73.57169553373903 25.33417058225392 # Ar
123 123 1 0.0 43.36360102947484 58.20445877787398 38.59146044633134 # Ar
124 124 1 0.0 78.68967339110584 8.364712346226705 71.3633586299801 # Ar
125 125 1 0.0 69.43919573951109 69.97354505569497 72.31499868456126 # Ar
126 126 1 0.0 63.390748776955334 36.314570085231985 57.86111569270151 # Ar
127 127 1 0.0 1.6907413518056988 54.64191951758801 40.018042711630926 # Ar
128 128 1 0.0 13.549545507091684 2.3363090225374332 24.67575989038201 # Ar
129 129 1 0.0 76.29584378280498 32.796787688150715 59.89299973462135 # Ar
130 130 1 0.0 42.905747354960475 30.43734575314354 54.46645674100756 # Ar
131 131 1 0.0 75.66827045731328 27.516506146235635 65.77890196942533 # Ar
132 132 1 0.0 53.8604044257955 11.174035225441624 69.24198228877786 # Ar
133 133 1 0.0 52.13727255162348 15.311894824901126 48.28316676201049 # Ar
134 134 1 0.0 72.91887224408407 27.78778861733385 16.467522822815184 # Ar
135 135 1 0.0 69.28552466365484 62.388854425873696 38.76789079252514 # Ar
136 136 1 0.0 62.118395611507026 1.9533608953914194 11.463661568801529 # Ar
137 137 1 0.0 55.43163510171772 64.17789274251913 71.45483425094854 # Ar
138 138 1 0.0 56.705443135278045 67.76211993871736 41.23180767918359 # Ar
139 139 1 0.0 27.465208766524796 51.17895651721135 43.302364521461605 # Ar
140 140 1 0.0 8.49983970332932 64.22793895804284 59.90967486092098 # Ar
141 141 1 0.0 66.90081225081593 2.519984547418171 49.34214488585332 # Ar
142 142 1 0.0 37.409135174987554 42.83832504048558 27.707946407577897 # Ar
143 143 1 0.0 44.02018963089214 32.63890803849941 36.38477232417696 # Ar
144 144 1 0.0 8.114240559176256 71.52998156387208 77.99074631018954 # Ar
145 145 1 0.0 13.27995754618618 65.30107513332098 12.455298602086842 # Ar
146 146 1 0.0 24.224167392803636 68.57101785850777 57.91345629581071 # Ar
147 147 1 0.0 27.908108530354074 37.78187952090049 72.91370129266583 # Ar
148 148 2 0.0 36.91536372569152 1.836902785291636 4.929717071516246 # Ar+
149 149 2 0.0 24.308283670968894 19.970658964217815 26.036120039959624 # Ar+
150 150 2 0.0 71.85273374394042 0.17620208897728662 56.978117906758165 # Ar+
