LAMMPS data file -- atom_style full -- generated by chemfiles
2000 atoms
0 bonds
0 angles
0 dihedrals
0 impropers
1 atom types
0 bond types
0 angle types
0 dihedral types
0 improper types
0.00000000 935.059629 xlo xhi
0.00000000 935.059629 ylo yhi
0.00000000 935.059629 zlo zhi

# Pair Coeffs
# 1 Ar

Masses

1 39.948 # Ar

Atoms # full

1 1 1 0.0 525.4218574054615 418.4534546334111 723.9960051641423 # Ar
2 2 1 0.0 664.0807650609479 114.43621351970904 157.19538929348195 # Ar
3 3 1 0.0 364.0781557988025 619.5101369514282 764.446282134843 # Ar
4 4 1 0.0 408.7130394117247 904.0106344923337 771.1846499126938 # Ar
5 5 1 0.0 818.7522635646828 807.4783749831442 247.92667301788677 # Ar
6 6 1 0.0 925.4626409213608 175.4089995799865 254.69218169020206 # Ar
7 7 1 0.0 299.3612830001586 456.0718383165002 198.0690424557858 # Ar
8 8 1 0.0 211.11637248420814 322.2851777091739 782.1877401159211 # Ar
9 9 1 0.0 24.380228568967638 234.31169701108283 457.1956469196913 # Ar
10 10 1 0.0 762.2283614081633 717.1521518677343 451.2216217657479 # Ar
11 11 1 0.0 668.9546643452828 364.67801403068995 198.21648284961645 # Ar
12 12 1 0.0 798.9794257596009 231.68065808229827 891.6933147115732 # Ar
13 13 1 0.0 622.7968652486302 297.97241253377115 178.65563811165836 # Ar
14 14 1 0.0 610.3996839987448 620.7500411397893 104.48984884717088 # Ar
15 15 1 0.0 392.0905179480179 245.43566503199506 832.4911580895043 # Ar
16 16 1 0.0 481.2907860185553 833.4745431979948 384.4837392543028 # Ar
17 17 1 0.0 168.65944095986708 841.8906619978102 903.4597952192422 # Ar
18 18 1 0.0 676.7519274180373 54.83533018475443 293.91244449628743 # Ar
19 19 1 0.0 21.71763904588472 12.26592916252985 481.3343161799947 # Ar
20 20 1 0.0 606.317330216943 216.9536865046654 791.0129253362016 # Ar
21 21 1 0.0 246.13228098375777 82.94007834599446 659.3511744208649 # Ar
22 22 1 0.0 454.2079114870489 421.4660039531526 167.3809957868024 # Ar
23 23 1 0.0 899.1103551619482 49.228958762706 28.399136658122938 # Ar
24 24 1 0.0 687.5496049461295 348.7216221141519 406.81779558074214 # Ar
25 25 1 0.0 676.9457435880109 639.4062245690782 845.2171549990936 # Ar
26 26 1 0.0 906.0643110281139 431.3071596386679 47.96413295689331 # Ar
27 27 1 0.0 259.02572081895096 301.514877435002 394.8817409348948 # Ar
28 28 1 0.0 245.1326326987033 581.7065197410661 425.54132606611597 # Ar
29 29 1 0.0 472.26940717447883 782.3728153076665 502.043131372865 # Ar
30 30 1 0.0 33.88534872951661 877.3328276780954 904.8639995240195 # Ar
31 31 1 0.0 481.5593593092725 22.485010482046917 773.3572712490244 # Ar
32 32 1 0.0 224.29164964205617 891.3544332860398 110.7516981832374 # Ar
33 33 1 0.0 863.5710508422765 796.2044703077486 23.26629577467056 # Ar
34 34 1 0.0 456.45366813145 525.4741300535305 131.58893012075546 # Ar
35 35 1 0.0 89.87499952064783 896.9407577673122 145.39471298566784 # Ar
36 36 1 0.0 137.88595041820568 157.65649743067084 597.1242913891867 # Ar
37 37 1 0.0 657.1980507872178 276.38469966309555 74.34843028887646 # Ar
38 38 1 0.0 834.6976768620696 131.13864154042918 267.32749860746094 # Ar
39 39 1 0.0 266.00384344578026 717.6100850640228 601.4527967525554 # Ar
40 40 1 0.0 659.3333473290718 558.3279689204816 23.651808026416926 # Ar
41 41 1 0.0 445.8632314674193 182.27457846314962 527.5095834638846 # Ar
42 42 1 0.0 504.5876589582503 635.9513196430911 402.15403240696463 # Ar
43 43 1 0.0 445.1159985567096 601.1008790521963 599.3734292682113 # Ar
44 44 1 0.0 388.63632960212755 444.5734809262371 344.3869006636155 # Ar
45 45 1 0.0 770.5333292178815 758.6549194052513 296.59137164344224 # Ar
46 46 1 0.0 228.51235431328766 928.5916215240965 416.10914664347956 # Ar
47 47 1 0.0 537.4166802143263 710.6295701006015 185.56237716216953 # Ar
48 48 1 0.0 156.2044136805173 887.8999905178282 601.4953075220791 # Ar
49 49 1 0.0 496.47594697042234 506.87834424614107 732.889926060224 # Ar
50 50 1 0.0 686.0073165788335 868.5866161033457 550.3882648603042 # Ar
51 51 1 0.0 489.43623491743847 446.8889290714982 596.1764952548278 # Ar
52 52 1 0.0 122.49016460850007 822.0960482312979 652.279061895486 # Ar
53 53 1 0.0 823.8007018366466 181.54707573429036 708.8533606158021 # Ar
54 54 1 0.0 823.3712025566626 810.3291052471475 118.02078351816446 # Ar
55 55 1 0.0 267.18087472698187 256.89208794614785 299.44205294802816 # Ar
56 56 1 0.0 661.963910994615 55.885735089822845 126.73449909985757 # Ar
57 57 1 0.0 322.96794408482896 708.4648921827152 544.4384915318161 # Ar
58 58 1 0.0 539.0439991042358 398.3982608639269 111.30460253180249 # Ar
59 59 1 0.0 733.2636387191644 630.1027314888046 692.903070256579 # Ar
60 60 1 0.0 675.0849427126769 123.6136551577045 623.4812174282429 # Ar
61 61 1 0.0 31.15111534942887 400.94892547138704 805.7234439929799 # Ar
62 62 1 0.0 147.41196514366973 732.2715303839922 36.26963076306652 # Ar
63 63 1 0.0 864.8379653465068 327.61919115306694 866.5044473896935 # Ar
64 64 1 0.0 397.4275679278757 837.7373749752414 894.5930344807153 # Ar
65 65 1 0.0 491.71485001238193 388.9708194491668 710.640458882405 # Ar
66 66 1 0.0 288.4107167144761 655.3740382553484 820.9460391843095 # Ar
67 67 1 0.0 55.52091169503947 213.08443076973532 484.8168726860596 # Ar
68 68 1 0.0 541.9518766313777 112.46606972766055 16.805735042345603 # Ar
69 69 1 0.0 781.5551801405245 353.44594332556534 665.1964046631896 # Ar
70 70 1 0.0 149.41666474777276 533.5807884520906 341.1962085613072 # Ar
71 71 1 0.0 154.10626754364475 176.00255135668073 480.5268927354725 # Ar
72 72 1 0.0 63.95406585628115 288.40681648081664 66.12509162950221 # Ar
73 73 1 0.0 643.0378953643626 891.3124085630403 680.6574392303246 # Ar
74 74 1 0.0 95.2674289811557 47.77943332105475 43.681923425424074 # Ar
75 75 1 0.0 670.5896492900167 746.1605302082453 819.5865244361454 # Ar
76 76 1 0.0 410.20466333560586 53.582883547281504 700.1312875309744 # Ar
77 77 1 0.0 831.4021029889058 818.8495642138762 168.1615296859518 # Ar
78 78 1 0.0 473.8012978833229 373.82660160805574 113.17981307301461 # Ar
79 79 1 0.0 559.4811864326658 171.82619853745427 756.020769263817 # Ar
80 80 1 0.0 785.400304712499 727.3479100920964 204.6406095163427 # Ar
81 81 1 0.0 254.67526794605075 7.7591586214215775 23.93788847898894 # Ar
82 82 1 0.0 371.40262057066394 144.24656944800614 252.50422475230297 # Ar
83 83 1 0.0 244.56596429281848 21.149577609201692 61.840940833836825 # Ar
84 84 1 0.0 768.5959948099444 900.832974294974 511.51280900935564 # Ar
85 85 1 0.0 430.70110146739114 335.8444698764777 221.54533898807694 # Ar
86 86 1 0.0 42.79428483697617 286.0891627529607 477.48542828890254 # Ar
87 87 1 0.0 332.54265057139264 686.2189735893883 42.979114229793126 # Ar
88 88 1 0.0 502.0925083703042 353.1873758142495 661.628686010061 # Ar
89 89 1 0.0 67.06875565018508 305.9395830445561 623.6354587685715 # Ar
90 90 1 0.0 126.46417045167782 112.43969454386512 376.4697676577687 # Ar
91 91 1 0.0 548.9409886685477 552.9037861102507 368.9219200277689 # Ar
92 92 1 0.0 806.2374719353537 55.115680501404306 592.422444097903 # Ar
93 93 1 0.0 749.5114280092197 458.45066859332235 807.616702564775 # Ar
94 94 1 0.0 163.77292843437658 382.9705300133738 39.68307575788784 # Ar
95 95 1 0.0 141.76722829509876 278.00568816564436 121.49536403884379 # Ar
96 96 1 0.0 364.5909652242986 700.7914912381866 891.1805764741276 # Ar
97 97 1 0.0 631.9249858182425 852.5017628933 494.4709785450102 # Ar
98 98 1 0.0 476.105505078927 626.3803050590711 351.6532530931136 # Ar
99 99 1 0.0 722.5295207597957 345.8131482610639 99.63795225501812 # Ar
100 100 1 0.0 119.48280351252434 567.9394928840641 15.981477812126085 # Ar
101 101 1 0.0 258.44468111457434 419.67328702135325 581.289396160967 # Ar
102 102 1 0.0 713.5501680183357 457.6224812933685 29.85734554981633 # Ar
103 103 1 0.0 387.4808132333906 737.2786773939748 607.1878185164247 # Ar
104 104 1 0.0 526.1227690349439 590.3997772671756 66.72691261110985 # Ar
105 105 1 0.0 600.824239311552 82.077561010036 913.5168135109947 # Ar
106 106 1 0.0 431.0368709580835 832.6460473538478 120.37582802774982 # Ar
107 107 1 0.0 531.5997144866961 516.9853432216568 586.2409303320919 # Ar
108 108 1 0.0 887.102847591159 445.1775043524136 46.86059866729818 # Ar
109 109 1 0.0 751.4163271283522 392.52639051742915 496.80550650162616 # Ar
110 110 1 0.0 685.1304867457044 797.6393833191771 248.97805065287397 # Ar
111 111 1 0.0 645.9179595169554 396.71342563129974 593.4734868751804 # Ar
112 112 1 0.0 861.7384891522033 52.885846189302505 578.5949623497286 # Ar
113 113 1 0.0 921.1587759942926 372.50359687336646 800.9110691201412 # Ar
114 114 1 0.0 260.9086074060107 755.2874276126894 916.4557356343948 # Ar
115 115 1 0.0 70.76261211610125 43.89784988191843 3.0280741697084346 # Ar
116 116 1 0.0 61.534141058529194 603.2498704714202 186.40040401524433 # Ar
117 117 1 0.0 773.472599722614 676.4625315371409 639.1189074558839 # Ar
118 118 1 0.0 721.1076296632933 220.8237424721567 653.3069328042154 # Ar
119 119 1 0.0 418.5514547620395 23.628541407649838 598.5052834054065 # Ar
120 120 1 0.0 284.24372985422565 252.06437429040668 700.372018959025 # Ar
121 121 1 0.0 77.06584943933278 327.534512978296 463.48316530493724 # Ar
122 122 1 0.0 306.17941847674746 373.18444475170656 109.00373688446635 # Ar
123 123 1 0.0 764.8736708746144 22.845515884690204 640.5762230961269 # Ar
124 124 1 0.0 488.33032219449274 290.8089259354578 142.97289348752045 # Ar
125 125 1 0.0 742.8305863264501 788.5779454238162 658.7168899595961 # Ar
126 126 1 0.0 149.43329786469033 661.9756691525768 174.228333418714 # Ar
127 127 1 0.0 886.1750831440933 408.85111106595247 435.2926637620175 # Ar
128 128 1 0.0 747.1997086659795 447.9895189994132 68.12653386386908 # Ar
129 129 1 0.0 591.739062665283 692.5482706400696 41.98339680814837 # Ar
130 130 1 0.0 831.6602198790836 34.66129528783593 41.711843145445826 # Ar
131 131 1 0.0 182.3652645561676 706.0898311651365 601.6854615142522 # Ar
132 132 1 0.0 82.21256918071961 785.0599045065355 64.33312731761909 # Ar
133 133 1 0.0 443.86365454502396 249.5118819322055 678.3402475482895 # Ar
134 134 1 0.0 315.83171666799024 200.05825649603634 223.3237081476214 # Ar
135 135 1 0.0 256.22510801550754 193.3973571085505 862.8953463218916 # Ar
136 136 1 0.0 874.2510852860938 342.58699698502545 305.7897939428347 # Ar
137 137 1 0.0 20.783886826610058 298.7765834734962 485.64115424467576 # Ar
138 138 1 0.0 817.0151500977888 763.1388326746061 558.8914840326794 # Ar
139 139 1 0.0 521.4048258591268 110.05515582532874 654.3570883764652 # Ar
140 140 1 0.0 48.41171227336532 71.8425625400091 214.51224820336674 # Ar
141 141 1 0.0 486.8767389231421 615.2066105162671 85.70338770734982 # Ar
142 142 1 0.0 506.5993146878825 214.09339418204183 37.06857265261562 # Ar
143 143 1 0.0 665.0556577186883 548.7362993157165 821.2789791410569 # Ar
144 144 1 0.0 232.8315421197253 752.3399453869849 290.75547805221686 # Ar
145 145 1 0.0 194.87660308640392 526.7909721435107 147.78996598634794 # Ar
146 146 1 0.0 122.29973224250742 705.5516141983143 482.3992725515331 # Ar
147 147 1 0.0 859.7075473763333 353.6999922770797 483.4890027122179 # Ar
148 148 1 0.0 676.6102252155766 910.8747652252166 214.548402170757 # Ar
149 149 1 0.0 459.7044148252872 746.944112766769 593.487833004004 # Ar
150 150 1 0.0 87.70187139862534 71.92536609890684 332.17580535657936 # Ar
151 151 1 0.0 920.3354683207547 178.0179938682768 820.8686578502694 # Ar
152 152 1 0.0 318.80280396266005 403.505297981918 5.706881222762053 # Ar
153 153 1 0.0 638.4796150453568 557.848277482441 852.6475016518782 # Ar
154 154 1 0.0 539.7858158934938 332.91994161380904 788.0102368252391 # Ar
155 155 1 0.0 196.38363589308253 196.13724035339692 477.4873935256358 # Ar
156 156 1 0.0 662.7234358728016 83.64931207310492 15.457625547352107 # Ar
157 157 1 0.0 378.1995797131132 181.31195131255708 828.35711281646 # Ar
158 158 1 0.0 905.9686187022053 925.485462742203 464.97806479701717 # Ar
159 159 1 0.0 384.3893912658204 64.5741552118108 915.4303235532574 # Ar
160 160 1 0.0 156.28918312763224 19.22718918218717 99.8949303684788 # Ar
161 161 1 0.0 186.27505470239095 338.98861096568237 165.07821909626279 # Ar
162 162 1 0.0 536.6371967290486 45.34432392188765 796.4848229595175 # Ar
163 163 1 0.0 425.6609308784187 509.2960824256112 160.97524909328914 # Ar
164 164 1 0.0 712.4894416817659 215.98636218289272 867.6255526190193 # Ar
165 165 1 0.0 559.9048685742864 512.2238176138925 137.67857566587966 # Ar
166 166 1 0.0 464.0096043975598 3.6765630254595254 710.7039738398611 # Ar
167 167 1 0.0 179.5650523063133 439.07157291821 857.8320174525626 # Ar
168 168 1 0.0 492.14892902329944 542.7728265753568 188.7809139744144 # Ar
169 169 1 0.0 588.3310930062203 16.76807773510836 311.3306055323095 # Ar
170 170 1 0.0 275.1562999631989 445.80995439901596 739.6342072756051 # Ar
171 171 1 0.0 579.5479671647407 263.0887135870208 105.08292904614439 # Ar
172 172 1 0.0 821.6582751841487 514.1401640823074 570.056375359194 # Ar
173 173 1 0.0 213.17135382918286 665.567121980928 127.6291061282847 # Ar
174 174 1 0.0 496.05622389805484 634.1299682720576 156.76598252860356 # Ar
175 175 1 0.0 9.799789467255046 876.1318355111227 916.0235944144079 # Ar
176 176 1 0.0 142.34336302731296 312.80399885047564 498.49234689786925 # Ar
177 177 1 0.0 824.5121159643628 238.6624109007284 243.42115675008088 # Ar
178 178 1 0.0 792.0448605935836 915.1042475786153 496.6011765445537 # Ar
179 179 1 0.0 239.105872627607 641.1844002764685 404.3758150803417 # Ar
180 180 1 0.0 433.33333036361375 499.6441691324767 245.089525454507 # Ar
181 181 1 0.0 708.6053609414791 523.9200842644034 579.403057514983 # Ar
182 182 1 0.0 754.9248223412271 532.5094811964767 660.0087863155309 # Ar
183 183 1 0.0 652.0983304229662 105.61508875949869 658.9910858968019 # Ar
184 184 1 0.0 853.8322878711417 269.3458715958533 82.09966086245855 # Ar
185 185 1 0.0 842.727780465318 649.6635961933065 438.7805406335675 # Ar
186 186 1 0.0 126.945611790214 163.24719273616347 871.8214136976758 # Ar
187 187 1 0.0 252.27494156113738 615.8233853836459 389.8508317069262 # Ar
188 188 1 0.0 881.7032159467213 523.8921873509154 21.218774921181435 # Ar
189 189 1 0.0 23.724988384567745 312.6004442197288 851.0701393718392 # Ar
190 190 1 0.0 294.56883758302666 334.80324677857584 170.83496045992797 # Ar
191 191 1 0.0 612.8807280998409 461.73270817042754 294.0195001328185 # Ar
192 192 1 0.0 43.50604484144079 774.9910654468415 697.490298844927 # Ar
193 193 1 0.0 760.438108894352 877.2952015674931 669.7842789649037 # Ar
194 194 1 0.0 221.7530383639489 311.5942928408633 179.4071261969985 # Ar
195 195 1 0.0 844.4065762479011 63.83463609883512 842.7963101397278 # Ar
196 196 1 0.0 590.3369770242277 126.12508397979052 673.4834252901985 # Ar
197 197 1 0.0 491.00378756818543 92.619171199689 208.64435058211404 # Ar
198 198 1 0.0 4.242307048190337 578.6551902336621 132.0042766973181 # Ar
199 199 1 0.0 537.4030168529254 231.84300996315838 783.4006902111629 # Ar
200 200 1 0.0 190.5294697061522 731.7996541324242 678.1847454323984 # Ar
201 201 1 0.0 822.623535853885 813.0387757208358 152.55295758860737 # Ar
202 202 1 0.0 854.6308723546745 315.63428495958584 666.1269066093495 # Ar
203 203 1 0.0 99.75952490126323 418.3184451545802 477.3526200685762 # Ar
204 204 1 0.0 550.3004650584982 329.97197797080617 136.0184942075575 # Ar
205 205 1 0.0 7.077050599893738 588.9675486966306 586.8473953023736 # Ar
206 206 1 0.0 623.2736109301156 385.5155480377212 10.731664026005237 # Ar
207 207 1 0.0 799.451722541366 616.3584357218289 197.20132198490046 # Ar
208 208 1 0.0 854.438567377623 623.5130240331653 899.8399382997195 # Ar
209 209 1 0.0 226.22358986740363 530.6862109766965 490.9192246962365 # Ar
210 210 1 0.0 825.2375442198638 767.1491162527301 53.542717744477265 # Ar
211 211 1 0.0 379.1630483952339 453.2132822526418 923.8684934498233 # Ar
212 212 1 0.0 791.9436928116861 328.8975680972713 728.864735058176 # Ar
213 213 1 0.0 650.2928882221978 542.8395645052334 513.4982058668708 # Ar
214 214 1 0.0 469.7211832560328 597.448683861899 890.3332775019117 # Ar
215 215 1 0.0 346.31777520713723 928.4083502769888 210.41797608811564 # Ar
216 216 1 0.0 88.4982200430365 417.77774764611354 599.6555253133104 # Ar
217 217 1 0.0 545.0838466872616 189.17165352190014 11.982725377459296 # Ar
218 218 1 0.0 756.9235302475072 451.52663843919044 4.258776407567084 # Ar
219 219 1 0.0 248.96659438973558 817.1709636008239 383.0606693493247 # Ar
220 220 1 0.0 568.1155795894209 147.98534365445772 917.2356821964099 # Ar
221 221 1 0.0 567.6922445199722 609.7622125933003 702.7331347375836 # Ar
222 222 1 0.0 670.6212437541778 665.5952324802571 817.0304117290646 # Ar
223 223 1 0.0 679.4755283957329 845.3114092595437 230.5233178379361 # Ar
224 224 1 0.0 662.1888268503574 255.0817547157416 324.7826160430207 # Ar
225 225 1 0.0 778.2583252625968 244.92199031207343 96.13627354802519 # Ar
226 226 1 0.0 53.44811678772871 484.08865144633455 124.26915696573133 # Ar
227 227 1 0.0 105.54650407989384 9.063667102097213 252.02238606599911 # Ar
228 228 1 0.0 155.2491707996534 563.7928867390807 880.9646105428735 # Ar
229 229 1 0.0 164.75911284016487 605.927837948907 258.31312934324603 # Ar
230 230 1 0.0 449.9972832696003 843.5021254595916 901.6831086000984 # Ar
231 231 1 0.0 874.8871934188667 58.16478533818557 569.2172234694716 # Ar
232 232 1 0.0 403.86101018739384 398.93369720867446 855.8229018965258 # Ar
233 233 1 0.0 1.786711962134218 775.5467377642757 503.8435284841531 # Ar
234 234 1 0.0 788.152310082205 796.8708470659309 17.84187028031964 # Ar
235 235 1 0.0 387.1172845688263 26.154042944534044 723.1014633321739 # Ar
236 236 1 0.0 82.19490339721831 719.5232324240104 593.941994995066 # Ar
237 237 1 0.0 370.21099181684053 164.26279258720075 249.93534054150416 # Ar
238 238 1 0.0 721.5322188063066 1.5254558933787323 819.1965379251524 # Ar
239 239 1 0.0 394.5940411006722 460.1662352099329 98.12722691388936 # Ar
240 240 1 0.0 917.983069251354 824.0540201086754 352.07148818664217 # Ar
241 241 1 0.0 21.99216933014295 539.0769859017045 38.786420504487445 # Ar
242 242 1 0.0 465.0505771187812 200.07724991791548 507.67086680013676 # Ar
243 243 1 0.0 2.6451744488927034 323.82340609485794 434.87802463530335 # Ar
244 244 1 0.0 476.87836998872234 615.0380959628131 820.6227596848246 # Ar
245 245 1 0.0 719.8433862037559 752.6076846405282 534.0161547663249 # Ar
246 246 1 0.0 570.1703063942609 247.06558217664426 577.2385168823461 # Ar
247 247 1 0.0 465.83344570270066 647.5826917074156 152.3716562838088 # Ar
248 248 1 0.0 859.2851119609843 17.94283184344916 719.5156928134402 # Ar
249 249 1 0.0 452.3421371925804 171.67919168986825 569.7564914748762 # Ar
250 250 1 0.0 561.6409823772068 621.7061150116184 26.84944077199652 # Ar
251 251 1 0.0 901.9732037541731 348.2127019904808 480.3480576761109 # Ar
252 252 1 0.0 691.7330423432196 861.0060574906735 705.8314675497043 # Ar
253 253 1 0.0 472.45089955204173 300.15035296981193 477.8069156729068 # Ar
254 254 1 0.0 662.6182894261516 683.9093330476995 773.8072584923299 # Ar
255 255 1 0.0 914.2079773520795 77.01829781367147 677.1470717741805 # Ar
256 256 1 0.0 260.360394457845 689.8213631136307 104.88646471987437 # Ar
257 257 1 0.0 241.21416465374148 232.39537805469485 735.0660087830496 # Ar
258 258 1 0.0 108.2787167527701 218.41874405239986 604.2259281334658 # Ar
259 259 1 0.0 666.7718757998894 576.2245921723539 303.34018286887857 # Ar
260 260 1 0.0 466.23455524277637 721.98245468245 437.98909305652114 # Ar
261 261 1 0.0 490.5805861227226 745.7938064536175 692.2333399075409 # Ar
262 262 1 0.0 549.7965814072664 95.2776827258987 705.8529069473527 # Ar
263 263 1 0.0 313.24523067611113 376.2825104997547 691.356235315298 # Ar
264 264 1 0.0 31.69327900680611 888.8952429549664 519.2028110711309 # Ar
265 265 1 0.0 62.868285590713256 339.8149669519761 649.016734803868 # Ar
266 266 1 0.0 213.06130998707013 479.7478651588189 553.9950688034016 # Ar
267 267 1 0.0 359.41493287804155 880.774695395609 125.68755101127108 # Ar
268 268 1 0.0 37.45616770205835 596.1619857614364 357.02194758938435 # Ar
269 269 1 0.0 799.6624461074898 457.6026989794246 927.7771288033719 # Ar
270 270 1 0.0 772.2650882577709 182.08297149405888 673.5984859546198 # Ar
271 271 1 0.0 820.8805214599064 368.17626195966085 303.67994467139687 # Ar
272 272 1 0.0 829.5167613958928 379.11313073697096 406.74161294627197 # Ar
273 273 1 0.0 376.57701911809124 244.91670631140948 311.90609939562444 # Ar
274 274 1 0.0 428.9297064220002 588.7912403883942 341.49883721686473 # Ar
275 275 1 0.0 413.47119285161193 287.25192704523494 447.6860016887406 # Ar
276 276 1 0.0 471.19672436520494 700.4659810429666 509.6556796257592 # Ar
277 277 1 0.0 644.1214070991414 914.4294772053925 374.24107317812087 # Ar
278 278 1 0.0 279.3559946542308 764.6127093487331 725.0851487324518 # Ar
279 279 1 0.0 128.55115736412287 256.9425287366663 21.51035932020734 # Ar
280 280 1 0.0 51.964447310585285 731.5054440041246 75.86842604404596 # Ar
281 281 1 0.0 217.6679157394992 483.78516188139713 158.62002584566181 # Ar
282 282 1 0.0 898.5303164028618 426.4318652623035 143.64238494094678 # Ar
283 283 1 0.0 267.0878201052217 132.09156817345254 165.60732469063174 # Ar
284 284 1 0.0 608.6811782159912 569.7103196743129 246.58256151444684 # Ar
285 285 1 0.0 84.6982766101052 751.0699629198281 898.5620880521453 # Ar
286 286 1 0.0 209.18198717757537 772.887598323525 826.1150534715649 # Ar
287 287 1 0.0 84.71159918597691 638.7919369570645 599.6251808728097 # Ar
288 288 1 0.0 330.71935824532113 846.8341921187681 647.5060759727164 # Ar
289 289 1 0.0 851.7049842339961 584.5251753893094 677.8978764415476 # Ar
290 290 1 0.0 869.5926132896774 201.92717947767406 510.8780762868874 # Ar
291 291 1 0.0 30.26857141159486 63.679872492959554 309.618730523084 # Ar
292 292 1 0.0 839.9066182883603 508.90251366744684 542.5716761835209 # Ar
293 293 1 0.0 659.9073318696583 683.6109924219732 265.5325283512175 # Ar
294 294 1 0.0 869.2721703499063 539.8483795612699 565.1772030972451 # Ar
295 295 1 0.0 179.25267344554644 165.24075697236253 855.2453408992409 # Ar
296 296 1 0.0 460.93663665041123 550.50384401851 226.6193640939812 # Ar
297 297 1 0.0 709.7565634393869 414.841115317165 329.13102363716786 # Ar
298 298 1 0.0 811.5142142631902 34.08224492764821 253.38181877196357 # Ar
299 299 1 0.0 135.19973195513077 890.6122981504692 858.7040352217696 # Ar
300 300 1 0.0 858.995202360356 220.38078478424293 31.979011896032734 # Ar
301 301 1 0.0 163.46120724629301 771.6264543888049 150.19160091976403 # Ar
302 302 1 0.0 896.9865000013999 290.80639771675465 469.38559563324077 # Ar
303 303 1 0.0 427.5943084155845 518.6003031428787 491.31747389106584 # Ar
304 304 1 0.0 661.8933644732241 855.0382170296497 665.5020391659983 # Ar
305 305 1 0.0 684.4461023454214 676.6854978384349 226.27355523330112 # Ar
306 306 1 0.0 252.41304621557146 670.8232499408387 254.27176073183918 # Ar
307 307 1 0.0 794.1607690783178 687.9801120830314 713.5461146874316 # Ar
308 308 1 0.0 565.141857211783 735.7073124684464 227.90901246191132 # Ar
309 309 1 0.0 822.8871615452628 536.1260134679283 171.1999286334149 # Ar
310 310 1 0.0 934.4508384396366 563.8153596200433 101.00791618763881 # Ar
311 311 1 0.0 221.41287030985998 161.87749679455135 809.3036178548753 # Ar
312 312 1 0.0 653.8598017031608 342.08919766374896 671.3374863931707 # Ar
313 313 1 0.0 610.1658786707319 527.1194783929692 319.5150698983165 # Ar
314 314 1 0.0 294.7525273555556 231.5592952587959 834.9121031793915 # Ar
315 315 1 0.0 281.5070251204042 529.4778437015048 697.2083272147266 # Ar
316 316 1 0.0 231.93581925174203 742.7605145601885 809.7903062001091 # Ar
317 317 1 0.0 308.6697865037177 339.22606307195986 338.09051540077365 # Ar
318 318 1 0.0 557.795085011841 288.4873705942769 483.2273636436259 # Ar
319 319 1 0.0 65.74744379352637 130.99092163069244 95.4817575621273 # Ar
320 320 1 0.0 364.6965232593335 389.2566740589794 788.6884814367318 # Ar
321 321 1 0.0 826.0254804299644 28.186904006076922 786.2176285749406 # Ar
322 322 1 0.0 108.20012288125018 346.4432536652813 595.6891031237737 # Ar
323 323 1 0.0 814.9326663588563 251.70341126880473 932.4895755133391 # Ar
324 324 1 0.0 585.1238788456018 313.2618610625231 89.48779943923273 # Ar
325 325 1 0.0 236.64943274674812 351.89544042071395 621.4642047372619 # Ar
326 326 1 0.0 855.7656625007088 76.76698972077793 789.3965197990548 # Ar
327 327 1 0.0 474.42730603938446 18.6749801162668 0.7495547628689732 # Ar
328 328 1 0.0 446.9626811264627 929.9194749119767 771.0063176386572 # Ar
329 329 1 0.0 869.154962464684 197.3884380210333 782.1799708457678 # Ar
330 330 1 0.0 823.1657891548545 842.7503934315775 187.96813647825522 # Ar
331 331 1 0.0 196.71999188177992 808.1224147753228 229.00917004005126 # Ar
332 332 1 0.0 299.6317727684153 667.789856170512 475.47639522670346 # Ar
333 333 1 0.0 710.8389273774865 563.5576054970107 273.91756852336005 # Ar
334 334 1 0.0 612.487962089954 629.2918598456158 247.3902500191628 # Ar
335 335 1 0.0 903.694607951353 241.46807997166601 187.47487849043557 # Ar
336 336 1 0.0 492.9177219390693 922.6114318733332 300.4108935645691 # Ar
337 337 1 0.0 30.077336411646773 708.3831216808784 471.9159089767952 # Ar
338 338 1 0.0 470.2866686636574 648.1606031118029 804.584350188364 # Ar
339 339 1 0.0 330.4461528246934 623.1001597629987 395.5882014202005 # Ar
340 340 1 0.0 102.0064914596637 213.7027259465493 19.34479428079415 # Ar
341 341 1 0.0 380.50928070519643 525.7172079600285 642.6312859056632 # Ar
342 342 1 0.0 441.9118565357126 508.26800499521386 511.69276726510213 # Ar
343 343 1 0.0 152.55218835646917 372.357785782766 876.458283117324 # Ar
344 344 1 0.0 578.6351488559186 100.15505126850152 719.8881174673999 # Ar
345 345 1 0.0 440.7956829433382 607.4780515398112 572.0566506200124 # Ar
346 346 1 0.0 483.80726299906263 921.0348526035722 84.70327506448952 # Ar
347 347 1 0.0 804.8394711129541 395.06552574327304 374.77011214094506 # Ar
348 348 1 0.0 472.7730604403728 567.7446905721631 392.7651739719104 # Ar
349 349 1 0.0 237.40464013634897 462.4627163819123 582.3604761328443 # Ar
350 350 1 0.0 281.08226258387367 94.82538771852543 493.2847672398898 # Ar
351 351 1 0.0 196.73179069886393 131.93743023704093 20.060943826466836 # Ar
352 352 1 0.0 291.96943402162015 275.96248475858596 845.6505143280835 # Ar
353 353 1 0.0 698.4750054432288 301.0882947590485 849.3493902099225 # Ar
354 354 1 0.0 279.5925520433419 283.3891199982504 591.8324631778468 # Ar
355 355 1 0.0 317.97432010164454 156.42914159440124 934.2892138025416 # Ar
356 356 1 0.0 248.38556572971103 725.337656407531 789.9021041155233 # Ar
357 357 1 0.0 80.28754876079623 429.7454370478075 909.0693147893928 # Ar
358 358 1 0.0 301.2177056219721 694.5209628722566 425.8679847095251 # Ar
359 359 1 0.0 181.2072081598541 523.846383459426 106.6605606166002 # Ar
360 360 1 0.0 693.2529952281218 865.125693987424 558.316272236641 # Ar
361 361 1 0.0 726.3606468838792 73.92814046878213 888.3703409684537 # Ar
362 362 1 0.0 228.9114740875175 109.99233045401428 865.0298770105013 # Ar
363 363 1 0.0 929.9359873629221 556.4373143907249 829.2389597509251 # Ar
364 364 1 0.0 78.41477163829506 172.98971915224567 306.85998579673293 # Ar
365 365 1 0.0 520.7169517129937 225.5696471105929 699.2226108398447 # Ar
366 366 1 0.0 802.8190827713179 766.5262145541727 880.8872444680499 # Ar
367 367 1 0.0 818.3503670931678 830.3945712294214 0.1231264555689551 # Ar
368 368 1 0.0 568.2725258273854 19.39006115334225 206.99553601554243 # Ar
369 369 1 0.0 427.25292437663416 143.1592083921333 632.1486965630378 # Ar
370 370 1 0.0 899.5531969254164 931.2638004793592 331.32766711827315 # Ar
371 371 1 0.0 474.1490417191641 484.5337039909343 875.5768202392537 # Ar
372 372 1 0.0 466.49509260045784 242.16668776987683 399.181564141517 # Ar
373 373 1 0.0 921.8583970409333 810.9285902660181 879.4722216946892 # Ar
374 374 1 0.0 710.9462359003284 377.4850812240923 853.036622330277 # Ar
375 375 1 0.0 846.132687355012 783.9077940841435 232.43042445457652 # Ar
376 376 1 0.0 171.03984495225544 203.82186035371694 358.6358313544154 # Ar
377 377 1 0.0 664.9849546702615 910.375395372666 522.5255470887456 # Ar
378 378 1 0.0 661.0653059256823 307.9395237902755 35.38083308471759 # Ar
379 379 1 0.0 243.49005936274418 787.6005683583364 772.5358365893136 # Ar
380 380 1 0.0 162.321616202587 123.59130375399668 259.00524024386556 # Ar
381 381 1 0.0 393.89927098798154 308.11715000040857 227.98405906673233 # Ar
382 382 1 0.0 927.4227051762693 5.558530897340326 161.7539096743518 # Ar
383 383 1 0.0 268.98677234421746 486.78600253185493 164.44187695531122 # Ar
384 384 1 0.0 825.8684133276455 35.70343945927391 877.8218967248276 # Ar
385 385 1 0.0 815.3153809019062 669.804384820194 222.69275088953106 # Ar
386 386 1 0.0 64.22856166196526 306.7140541570236 371.37991040486224 # Ar
387 387 1 0.0 155.24201239780334 707.2193269598317 542.6780891299198 # Ar
388 388 1 0.0 137.35479666140364 754.7122319399226 117.97236824579088 # Ar
389 389 1 0.0 736.0857697121082 15.958430744110734 670.2013614719314 # Ar
390 390 1 0.0 299.9564577372619 365.81429555139187 814.1570089548898 # Ar
391 391 1 0.0 681.2668555262468 699.3619441465905 888.4752026287947 # Ar
392 392 1 0.0 688.8369624219264 19.707733293620226 918.1729909755738 # Ar
393 393 1 0.0 314.97553021020116 895.8879227237826 523.3201736946935 # Ar
394 394 1 0.0 355.06306791972906 527.319603586528 424.72753853927355 # Ar
395 395 1 0.0 557.4674079862042 775.3025687032623 643.3581829583078 # Ar
396 396 1 0.0 829.2840443355303 688.9088777604256 292.77742435116045 # Ar
397 397 1 0.0 725.8772078802918 920.0534240959378 357.12174755673493 # Ar
398 398 1 0.0 401.28338495585444 519.0595936518378 917.9356170271012 # Ar
399 399 1 0.0 690.540443320542 136.510780213502 4.077536989941941 # Ar
400 400 1 0.0 217.65175587833878 668.6748122776364 733.1137343759416 # Ar
401 401 1 0.0 420.62272043272975 66.79038322533317 321.72666943430113 # Ar
402 402 1 0.0 657.2018582779826 803.3029357686927 698.1409312784053 # Ar
403 403 1 0.0 139.1711892100117 395.3065205166253 209.27136091951508 # Ar
404 404 1 0.0 435.3515376441392 668.6265333720868 769.0098415176245 # Ar
405 405 1 0.0 582.0452768130539 886.9674634037585 73.41947427231172 # Ar
406 406 1 0.0 471.5706643068167 125.67673087843644 383.11162283944304 # Ar
407 407 1 0.0 514.7465623994381 263.3223077181995 798.105653622027 # Ar
408 408 1 0.0 751.6232670490655 354.56109576424603 516.7769377786518 # Ar
409 409 1 0.0 349.7954729696481 291.4805410977171 112.3541424224619 # Ar
410 410 1 0.0 673.0762880211514 289.28313892911854 224.62272431061032 # Ar
411 411 1 0.0 765.7739575061315 914.9961661694141 75.68124267552176 # Ar
412 412 1 0.0 464.3209781510876 820.6444224873051 708.6409002378698 # Ar
413 413 1 0.0 723.3791231407624 396.5355573272923 447.58288463955904 # Ar
414 414 1 0.0 600.0333224642527 148.03193692186252 873.7168504640783 # Ar
415 415 1 0.0 682.1939682129756 817.6271087590516 12.969203593868219 # Ar
416 416 1 0.0 916.7267603996509 928.326969247516 689.6672730038002 # Ar
417 417 1 0.0 423.6099460473359 135.7447092179965 526.8200161935616 # Ar
418 418 1 0.0 441.25541818363536 110.77273922960428 494.0434944408143 # Ar
419 419 1 0.0 501.1232614232508 146.29307602887982 634.7136924421508 # Ar
420 420 1 0.0 658.8025501783709 832.7119260463418 159.70828112085505 # Ar
421 421 1 0.0 475.54618074292586 920.726129943106 24.10275796368896 # Ar
422 422 1 0.0 282.92604598242787 675.1859545615774 295.09484904185916 # Ar
423 423 1 0.0 446.8777968779901 164.61926885035962 220.38781353286353 # Ar
424 424 1 0.0 336.43199118430215 681.9015350145493 702.1593885875867 # Ar
425 425 1 0.0 780.1750623281945 690.7165133763443 543.4613581139419 # Ar
426 426 1 0.0 883.7763158489626 38.18430138031665 342.6065330775174 # Ar
427 427 1 0.0 592.9991949516942 11.562763997542095 933.2576222343046 # Ar
428 428 1 0.0 619.4508819244194 1.2163742022583401 55.5649054369513 # Ar
429 429 1 0.0 116.52796720106804 167.14835401072762 855.9813653330604 # Ar
430 430 1 0.0 119.9241484835301 772.1309881867205 75.20822745951637 # Ar
431 431 1 0.0 322.0411249234758 707.3001873250073 401.8247063796663 # Ar
432 432 1 0.0 851.2577928267442 537.7922565780202 741.2281755514257 # Ar
433 433 1 0.0 413.73559279106814 170.83839631932082 357.39383748727016 # Ar
434 434 1 0.0 250.98101200862698 156.42117014709325 713.905986094484 # Ar
435 435 1 0.0 505.56169541384077 102.5787327119121 215.78175555835332 # Ar
436 436 1 0.0 287.940080869147 375.201090108915 40.91336648619624 # Ar
437 437 1 0.0 891.2844175751186 598.4173277648104 626.7803016309572 # Ar
438 438 1 0.0 500.0507312294325 386.44942292384485 474.18611459729226 # Ar
439 439 1 0.0 318.26440039650265 152.38792641662582 128.38992358090937 # Ar
440 440 1 0.0 644.5522248407655 793.9958929399968 828.671200669689 # Ar
441 441 1 0.0 41.17477087079611 395.5719838583796 9.409919916410649 # Ar
442 442 1 0.0 296.6004231577548 613.3928049709297 343.43151576625297 # Ar
443 443 1 0.0 334.2447423996639 546.086793415161 21.92426192132666 # Ar
444 444 1 0.0 484.4981700909098 217.7692580829092 682.9700089209135 # Ar
445 445 1 0.0 379.11248330325475 232.68424150169417 650.832322026527 # Ar
446 446 1 0.0 12.904164231803787 70.6324967648211 351.3728892790226 # Ar
447 447 1 0.0 827.2400877286159 451.0685137464899 770.5378498437525 # Ar
448 448 1 0.0 506.89201198750266 886.287041851344 580.3506331133557 # Ar
449 449 1 0.0 177.05909088462178 192.36941816541287 326.1998558167679 # Ar
450 450 1 0.0 513.4426462395289 272.76973859535053 373.6241610418218 # Ar
451 451 1 0.0 674.5320035777909 757.8294248293163 169.68097592971404 # Ar
452 452 1 0.0 794.1524697729357 773.230073924719 617.2740591177768 # Ar
453 453 1 0.0 546.234139294231 12.110872214471131 246.4596877182003 # Ar
454 454 1 0.0 570.6123531051041 766.0778618761053 838.2371646386039 # Ar
455 455 1 0.0 559.427795515653 862.1940803726251 489.6808430622249 # Ar
456 456 1 0.0 472.9963179600744 582.4560377920244 483.8876542086288 # Ar
457 457 1 0.0 595.390714318591 591.083931236023 840.986810443843 # Ar
458 458 1 0.0 218.853666410443 14.843649748272126 269.2222915676155 # Ar
459 459 1 0.0 488.75053394056897 40.178723110577764 422.99639961743395 # Ar
460 460 1 0.0 437.48442578399977 782.8889214452571 818.1136347018072 # Ar
461 461 1 0.0 352.4864907275637 901.8950460415181 92.68222647497562 # Ar
462 462 1 0.0 477.5894494475166 165.66138937398816 547.1356405600461 # Ar
463 463 1 0.0 106.42432365128965 902.8016446927462 904.2681000759445 # Ar
464 464 1 0.0 706.271865913483 414.6206215788142 201.22849887319353 # Ar
465 465 1 0.0 71.75997694224675 903.4317370741237 933.2968573332214 # Ar
466 466 1 0.0 69.28659445075725 614.510906943136 663.0830932091802 # Ar
467 467 1 0.0 568.2231059856485 517.3961967277776 400.0386822761488 # Ar
468 468 1 0.0 712.3921553581325 667.7333892019685 198.033589465516 # Ar
469 469 1 0.0 672.8403226448316 933.9832956361262 513.3457799644757 # Ar
470 470 1 0.0 452.67833863287296 388.92528597373956 419.7509850255 # Ar
471 471 1 0.0 932.3547367048659 722.2844718176648 517.2268107368658 # Ar
472 472 1 0.0 258.65910108359594 457.773526767498 811.4095527065233 # Ar
473 473 1 0.0 21.795248839037573 713.9724625247378 33.89398376746304 # Ar
474 474 1 0.0 104.40118448174685 863.9522321829704 299.1064739018652 # Ar
475 475 1 0.0 484.4924083664332 915.2872347483459 345.0962823238964 # Ar
476 476 1 0.0 350.7618254008831 479.31483399537177 915.3244880331165 # Ar
477 477 1 0.0 87.17979094492213 275.8040821326116 37.86806697567217 # Ar
478 478 1 0.0 487.64727137312497 226.70434976683612 254.77628165292742 # Ar
479 479 1 0.0 217.99409656713078 256.4049968569137 447.35544468240977 # Ar
480 480 1 0.0 530.067329589184 87.48601148281489 612.100108675477 # Ar
481 481 1 0.0 228.4304191792655 367.7722574910046 231.4347529216794 # Ar
482 482 1 0.0 281.451271539854 497.21209963075324 865.1905148367042 # Ar
483 483 1 0.0 451.99051943074056 798.875373160323 211.41492205603015 # Ar
484 484 1 0.0 563.8430443888473 846.6852703121679 908.0187346313464 # Ar
485 485 1 0.0 170.21117111896095 28.79868545165893 516.9392320840843 # Ar
486 486 1 0.0 201.11053671146684 520.3183399713289 40.35947502506012 # Ar
487 487 1 0.0 926.4501009276869 288.7597536699727 87.24601269786199 # Ar
488 488 1 0.0 382.02329934229294 395.684349468212 535.907886040902 # Ar
489 489 1 0.0 411.4817864758433 414.18090675091435 360.49012249763797 # Ar
490 490 1 0.0 710.9708145421429 429.0350457607722 621.4159898026948 # Ar
491 491 1 0.0 666.0257171600443 139.07132208155036 328.0012793952723 # Ar
492 492 1 0.0 341.25669324294887 184.06205558534643 815.1552469487431 # Ar
493 493 1 0.0 68.51646055582525 470.3146473575171 744.976293225847 # Ar
494 494 1 0.0 350.1294391936131 238.13277362087814 274.38240736971153 # Ar
495 495 1 0.0 472.62926437152163 157.90192343483398 830.0064661572724 # Ar
496 496 1 0.0 346.47935309797543 308.53260269442546 130.6122084685532 # Ar
497 497 1 0.0 11.282286514943687 249.92729514242234 342.08982094879593 # Ar
498 498 1 0.0 339.4401766547474 730.1924955722762 225.44695350610064 # Ar
499 499 1 0.0 574.7942907490278 204.96746605700199 928.7349097194663 # Ar
500 500 1 0.0 733.2215292368555 859.922423689832 870.1982230649605 # Ar
501 501 1 0.0 2.1378978976798053 276.95909871862636 432.8884548906653 # Ar
502 502 1 0.0 598.789753100264 374.297253943638 761.5996584383977 # Ar
503 503 1 0.0 120.02079259128786 777.6307687559479 662.3505355721747 # Ar
504 504 1 0.0 929.7613478847392 833.9514416125363 176.99871997899143 # Ar
505 505 1 0.0 810.4069665389704 398.49940204902344 518.7307437475439 # Ar
506 506 1 0.0 811.1120303098696 573.9843788931838 773.526367990871 # Ar
507 507 1 0.0 606.1887175055998 307.94646110552225 721.0581881894974 # Ar
508 508 1 0.0 716.0496817546081 307.0944895548397 293.46578526765023 # Ar
509 509 1 0.0 4.072726478760951 14.18070618320495 927.6428832656258 # Ar
510 510 1 0.0 668.4242868296911 907.6782514419041 43.28853285597903 # Ar
511 511 1 0.0 930.2957134267551 275.08477054006954 127.2267870974599 # Ar
512 512 1 0.0 525.46236835088 769.7259618134673 170.4336176270376 # Ar
513 513 1 0.0 286.18146962246965 73.8111836990821 297.66226771918537 # Ar
514 514 1 0.0 366.837958011112 783.8754036963763 217.57754046046688 # Ar
515 515 1 0.0 857.9864415732632 311.5639596822742 252.44121770752236 # Ar
516 516 1 0.0 586.0257546705395 375.9024702183337 461.92398294188723 # Ar
517 517 1 0.0 4.551464000464319 142.49198625081692 95.86188532227966 # Ar
518 518 1 0.0 802.6390327463074 383.5894453969857 467.61276628387236 # Ar
519 519 1 0.0 346.23528122704056 376.30576439549657 459.98448617530727 # Ar
520 520 1 0.0 406.6658715212441 244.16680843213 63.795999287907044 # Ar
521 521 1 0.0 669.36875129009 751.3168459779955 914.4033341447797 # Ar
522 522 1 0.0 553.1122403201838 322.27154670999505 25.0938836330525 # Ar
523 523 1 0.0 895.4928109594298 435.33240038804826 703.2369839520182 # Ar
524 524 1 0.0 17.910970719000193 229.71112850118985 14.857079537961264 # Ar
525 525 1 0.0 109.44931143794699 468.2551346169455 134.2939569211045 # Ar
526 526 1 0.0 707.6473694855918 921.6169790006319 918.8481339907628 # Ar
527 527 1 0.0 829.0214084516671 800.6407725750284 707.8300976955588 # Ar
528 528 1 0.0 643.8926557921499 121.63058459091148 643.0840358748306 # Ar
529 529 1 0.0 388.62835585897346 154.96626293082542 210.78485312369872 # Ar
530 530 1 0.0 232.94105939189274 590.8138805171608 8.548659501299944 # Ar
531 531 1 0.0 270.0434403250285 635.4154980502519 371.674446961407 # Ar
532 532 1 0.0 268.7558002817987 689.9242863561811 366.8273093800112 # Ar
533 533 1 0.0 647.0452073084562 476.6941227396996 606.9100396889664 # Ar
534 534 1 0.0 526.8364123063816 425.29264910616126 123.85526209266777 # Ar
535 535 1 0.0 433.635809763047 890.4309274934426 584.147686267182 # Ar
536 536 1 0.0 9.233786606801463 839.7245181706201 561.2724005673876 # Ar
537 537 1 0.0 402.8201639450324 434.2730516398713 725.2922612584604 # Ar
538 538 1 0.0 851.235123275201 125.9246646123322 20.634100112092607 # Ar
539 539 1 0.0 562.3374554836339 744.472981211746 699.1977008635537 # Ar
540 540 1 0.0 879.6815850593338 127.70023724354162 526.5337230957952 # Ar
541 541 1 0.0 465.3851304269772 644.0412076684102 502.002312492811 # Ar
542 542 1 0.0 611.2233432815151 461.9586220264026 260.2260875714719 # Ar
543 543 1 0.0 277.67430440965484 892.7440721498745 135.3268986725441 # Ar
544 544 1 0.0 390.4656780201716 245.90664245022376 565.039496747223 # Ar
545 545 1 0.0 400.746184220212 239.0663104703016 159.09859906509823 # Ar
546 546 1 0.0 592.4453611031994 672.9572271111542 70.64408266371888 # Ar
547 547 1 0.0 12.385100213234962 199.41464677217724 848.7848918022854 # Ar
548 548 1 0.0 801.910447353478 44.48340389839014 570.1551945571406 # Ar
549 549 1 0.0 360.6516654689218 662.5176872381828 629.1979866236755 # Ar
550 550 1 0.0 515.6171542239271 289.8828004891988 119.03169063566834 # Ar
551 551 1 0.0 788.8403806024066 925.4954140587826 686.5402415698244 # Ar
552 552 1 0.0 38.450688891234115 208.61639070242285 416.61033528657237 # Ar
553 553 1 0.0 362.51968617498306 572.458875932098 591.8683986034491 # Ar
554 554 1 0.0 68.8913642701728 78.10998260263436 530.901796056013 # Ar
555 555 1 0.0 330.8906387869832 256.92065279187113 107.93235296786577 # Ar
556 556 1 0.0 495.6432295820521 793.3961697350004 303.4426339874191 # Ar
557 557 1 0.0 820.0350578483901 864.6095136934739 2.6997250895651974 # Ar
558 558 1 0.0 0.25179763799993865 416.47813444858986 177.52761502381423 # Ar
559 559 1 0.0 816.9886288938012 343.85330177567823 724.3090561725505 # Ar
560 560 1 0.0 114.89922403373929 121.78519914567629 807.3885361894547 # Ar
561 561 1 0.0 69.11487611632823 887.124631648697 658.8842751844232 # Ar
562 562 1 0.0 677.4043877486918 635.9276441017246 821.6383997188702 # Ar
563 563 1 0.0 170.07699750415088 822.2534798086107 588.2516027964241 # Ar
564 564 1 0.0 278.33530447038584 611.2851473318141 761.1063546930994 # Ar
565 565 1 0.0 666.4521693654528 193.30616997129778 756.7803939007393 # Ar
566 566 1 0.0 324.4264507709651 458.23856189112274 335.8398376878131 # Ar
567 567 1 0.0 223.30270330386685 754.4585141039448 366.39580004677805 # Ar
568 568 1 0.0 710.3580680464022 455.8321303610068 480.39114490366546 # Ar
569 569 1 0.0 437.40040890998694 419.5302672178737 859.8736632406294 # Ar
570 570 1 0.0 310.729046648267 869.981315610154 223.7944923639592 # Ar
571 571 1 0.0 806.2114807594548 235.76908475141792 489.0467225949293 # Ar
572 572 1 0.0 475.75051949637253 188.33337262679473 771.0096125247086 # Ar
573 573 1 0.0 144.98957346625986 476.35027645469376 691.7139626700722 # Ar
574 574 1 0.0 99.80794749426558 528.945004387236 174.8720958203624 # Ar
575 575 1 0.0 304.3760093060217 703.039236255824 706.4565762821568 # Ar
576 576 1 0.0 165.02526178998096 425.42224604207547 391.07976563725964 # Ar
577 577 1 0.0 735.1642386844892 919.2621953999364 927.9744509359351 # Ar
578 578 1 0.0 432.9892065232758 84.67088768029636 929.7112700120232 # Ar
579 579 1 0.0 35.58243286438393 851.3109463703422 12.549386107471156 # Ar
580 580 1 0.0 717.5168494891261 575.70786447557 522.8579217561571 # Ar
581 581 1 0.0 215.49360574341028 393.49021760256323 693.4123962297803 # Ar
582 582 1 0.0 86.05864741639112 144.6104707377447 212.57228030437705 # Ar
583 583 1 0.0 338.23984963393923 912.2801508778705 97.41983011380923 # Ar
584 584 1 0.0 697.4797265016997 663.4927288001564 399.3962410746367 # Ar
585 585 1 0.0 400.8920294071706 425.2034815661235 69.73817001902407 # Ar
586 586 1 0.0 665.482591205668 676.0687211064576 523.6025417869861 # Ar
587 587 1 0.0 597.2859875028726 8.048527652974805 614.7552842597325 # Ar
588 588 1 0.0 620.7119143441399 577.19522441182 305.7984095137133 # Ar
589 589 1 0.0 925.6752251448537 141.1023584036059 616.5688595360912 # Ar
590 590 1 0.0 598.3803019361043 344.9167762858825 63.861587336386805 # Ar
591 591 1 0.0 379.1765286785067 6.554851095788929 593.6828987702628 # Ar
592 592 1 0.0 654.4089547973327 877.4563525532894 718.4968575774716 # Ar
593 593 1 0.0 401.49830128554777 790.4686717892745 638.0714080611797 # Ar
594 594 1 0.0 784.7449574519969 332.86471765740885 296.33169112413526 # Ar
595 595 1 0.0 377.34052889409446 376.5115990534385 231.20191339388876 # Ar
596 596 1 0.0 78.0545555627507 50.53780350587281 829.6906900575483 # Ar
597 597 1 0.0 604.9744979789383 193.38442625362157 109.56532837111581 # Ar
598 598 1 0.0 798.2380918219031 593.0332535658393 357.40575298448374 # Ar
599 599 1 0.0 759.9973381654894 611.7520302230687 17.58400721534894 # Ar
600 600 1 0.0 94.63424025410467 759.5670525253765 705.4366426926214 # Ar
601 601 1 0.0 451.44700155167584 91.1726318457997 234.32192120008267 # Ar
602 602 1 0.0 92.46040252149781 334.01349850212347 453.49473670846373 # Ar
603 603 1 0.0 567.3789821775028 93.66858008988429 143.71568858380328 # Ar
604 604 1 0.0 828.5787552624347 818.8782018597058 768.2276572139726 # Ar
605 605 1 0.0 666.139061572463 751.6488351912445 715.089803350781 # Ar
606 606 1 0.0 385.28504486678673 617.5483206278585 746.4063667797793 # Ar
607 607 1 0.0 343.51180870401646 582.4460819097234 480.65816641916774 # Ar
608 608 1 0.0 133.96964024285376 255.7703125493162 226.65920030947603 # Ar
609 609 1 0.0 483.52468271468575 445.0247807581739 105.70936741263935 # Ar
610 610 1 0.0 453.7368557657486 382.1832365000716 544.296185323166 # Ar
611 611 1 0.0 31.25219226721229 543.8343101269286 894.2446613961911 # Ar
612 612 1 0.0 767.0228222145344 88.68905150179229 914.5138961559499 # Ar
613 613 1 0.0 164.90156064883823 690.5345406371587 126.91670540116034 # Ar
614 614 1 0.0 507.5334595185922 296.75592582952703 38.67231918525738 # Ar
615 615 1 0.0 672.5191984667097 12.208361478077716 820.9049273383118 # Ar
616 616 1 0.0 721.5889696793647 101.34739544872498 379.3209054060793 # Ar
617 617 1 0.0 35.64171424345095 52.36766311588181 342.79275607071787 # Ar
618 618 1 0.0 905.1140594596556 8.901235846947472 650.9426625819016 # Ar
619 619 1 0.0 151.3492049813693 67.58327130808198 613.8809644845605 # Ar
620 620 1 0.0 799.8418163603359 318.3796944876232 228.58506204491147 # Ar
621 621 1 0.0 687.4581313484451 129.71272308560575 668.924372796616 # Ar
622 622 1 0.0 390.8794815187097 67.7921957006163 287.6803508766641 # Ar
623 623 1 0.0 102.42092863516457 302.5853303236544 548.0826328160036 # Ar
624 624 1 0.0 769.4884106435601 707.5408380792368 479.95298334028 # Ar
625 625 1 0.0 318.9599060963421 629.2178572826394 75.34346034953721 # Ar
626 626 1 0.0 249.0501378960245 578.6210691092982 678.1822705185674 # Ar
627 627 1 0.0 712.4118346735626 436.37870730513924 50.59869611881887 # Ar
628 628 1 0.0 459.8073995005134 435.0925407001982 51.395681272867044 # Ar
629 629 1 0.0 909.2059011809613 693.3760590166337 729.5327407290762 # Ar
630 630 1 0.0 373.4554467634433 843.261796315353 921.074762202224 # Ar
631 631 1 0.0 708.1849718272823 133.51491618535744 162.6813995850124 # Ar
632 632 1 0.0 344.8709789464249 636.5726434889925 275.10530064566717 # Ar
633 633 1 0.0 690.3933172178969 713.410711003748 864.0866960978018 # Ar
634 634 1 0.0 849.1749882338976 176.93063512010497 372.16662659939465 # Ar
635 635 1 0.0 179.66996605065108 440.2823476749227 229.4119278663078 # Ar
636 636 1 0.0 377.53559362820874 727.1704759568206 150.05939144333615 # Ar
637 637 1 0.0 699.5508213472456 699.9777854884279 448.9524732476244 # Ar
638 638 1 0.0 459.5730853244628 475.1670520652726 864.564430553921 # Ar
639 639 1 0.0 640.1868796368013 579.5348219391101 708.1011191406822 # Ar
640 640 1 0.0 42.923316672924855 906.7265092901398 199.10746740853082 # Ar
641 641 1 0.0 234.05570599741395 839.5074080798186 115.4521541118937 # Ar
642 642 1 0.0 725.7590922355364 710.9924484742409 602.1289759495124 # Ar
643 643 1 0.0 737.0226784472533 253.25721223967517 15.920724692983878 # Ar
644 644 1 0.0 512.9683568822217 818.2537445939164 184.73603400362992 # Ar
645 645 1 0.0 373.06506448558196 235.6602427439719 230.17483819463385 # Ar
646 646 1 0.0 915.7920740204963 732.0446993642122 654.3858814676801 # Ar
647 647 1 0.0 284.0187870999958 69.33261684190754 637.5813866243504 # Ar
648 648 1 0.0 388.31555665206685 434.8843987120033 191.60150450948308 # Ar
649 649 1 0.0 671.9565888658325 468.26791108950715 339.9495824856882 # Ar
650 650 1 0.0 609.21265077786 587.8432015940853 111.9238047570076 # Ar
651 651 1 0.0 673.6114413233225 504.85328146725914 607.9735637041634 # Ar
652 652 1 0.0 423.39418424257104 893.3848809957517 440.3872202140222 # Ar
653 653 1 0.0 590.8510643482279 519.0395854697439 549.3147104128501 # Ar
654 654 1 0.0 326.25332298906864 305.9488315182616 784.38804067742 # Ar
655 655 1 0.0 25.903063001359676 913.5110550609097 441.1943844595008 # Ar
656 656 1 0.0 227.85353558738134 235.89975003947308 789.526947481918 # Ar
657 657 1 0.0 598.3538209416049 709.5156282614266 846.605446917857 # Ar
658 658 1 0.0 438.3414307446593 451.7494421651966 664.231018117815 # Ar
659 659 1 0.0 246.7882241086481 850.9785867688694 57.87946388023491 # Ar
660 660 1 0.0 116.87551353848481 538.0989793900083 468.74933702715714 # Ar
661 661 1 0.0 475.2948757724301 256.3928601202988 382.333169225948 # Ar
662 662 1 0.0 752.8760686704776 246.78302369649143 126.64294415521162 # Ar
663 663 1 0.0 911.662679739688 544.0071552389126 129.85579936509802 # Ar
664 664 1 0.0 147.0553988752985 334.82770247573086 365.3744486665641 # Ar
665 665 1 0.0 340.7268844119829 22.030231669076464 702.3830128638779 # Ar
666 666 1 0.0 589.711635749704 206.44135687905654 92.92462295559913 # Ar
667 667 1 0.0 104.08596243213401 261.96298273875976 552.2843729741203 # Ar
668 668 1 0.0 716.2061513911402 689.1860727052817 740.8954498397545 # Ar
669 669 1 0.0 398.5181525243877 880.9221576141199 220.19910208597815 # Ar
670 670 1 0.0 642.2934472351549 114.46967617671712 40.08987358737203 # Ar
671 671 1 0.0 829.2120611007977 452.7405541779868 261.88037010456344 # Ar
672 672 1 0.0 438.25491899463475 889.7427558532204 363.20117360585857 # Ar
673 673 1 0.0 454.65785302292915 850.1382248277062 276.7817320109569 # Ar
674 674 1 0.0 11.580303543009169 812.668889116201 740.7386371047162 # Ar
675 675 1 0.0 899.3291083691219 261.27745728904256 22.218796156284046 # Ar
676 676 1 0.0 921.5133350427084 806.9514738205337 0.7025105070229081 # Ar
677 677 1 0.0 562.5794568113135 594.4952698775977 449.72797821539285 # Ar
678 678 1 0.0 168.974875124413 798.4978398873143 900.2628957840606 # Ar
679 679 1 0.0 130.38175613423812 788.9143349453235 611.7774620370382 # Ar
680 680 1 0.0 735.7834879608151 119.89576131921767 324.0285775761708 # Ar
681 681 1 0.0 137.3091534136218 380.66065155062347 384.8567561886558 # Ar
682 682 1 0.0 513.3679482473835 922.9994010015281 49.79654407249841 # Ar
683 683 1 0.0 90.5562682702899 148.52706166614226 356.9085537534293 # Ar
684 684 1 0.0 254.90242509052754 41.852112121904426 180.44934461533245 # Ar
685 685 1 0.0 52.2942373525327 790.694761082746 647.9371391891221 # Ar
686 686 1 0.0 638.1260005524916 777.6774330869425 418.7165611964912 # Ar
687 687 1 0.0 771.6177456160024 830.086247582857 825.9086541832014 # Ar
688 688 1 0.0 133.25602276243697 734.0912492899973 766.7828890241544 # Ar
689 689 1 0.0 917.9575616251128 934.4747111353227 55.60885021540837 # Ar
690 690 1 0.0 715.8229957087227 929.134978856079 622.0312736354867 # Ar
691 691 1 0.0 95.02750213255287 123.35522815398159 745.496661027947 # Ar
692 692 1 0.0 215.9685152976223 43.15752281195179 266.1699988675553 # Ar
693 693 1 0.0 899.0220718150582 635.3647477869606 25.872584402619978 # Ar
694 694 1 0.0 271.55927443141417 645.041800248908 480.380426298865 # Ar
695 695 1 0.0 700.8109639525726 185.08849902927298 645.0204326129044 # Ar
696 696 1 0.0 367.8195433568952 749.0746966501572 729.8640379981404 # Ar
697 697 1 0.0 831.4026593686643 863.0712007589749 325.5409157684091 # Ar
698 698 1 0.0 622.0791744310849 777.7121150789498 670.4088577989604 # Ar
699 699 1 0.0 259.0285251156429 470.3952890558883 334.98838750248655 # Ar
700 700 1 0.0 598.1462293849856 339.65059368118676 577.1162449695345 # Ar
701 701 1 0.0 846.4035028617659 589.1346343297007 78.72888255049507 # Ar
702 702 1 0.0 850.6764950071564 81.22759682788376 859.9742339096061 # Ar
703 703 1 0.0 585.9063519078363 830.7720976071091 95.19033007140648 # Ar
704 704 1 0.0 673.0327385098544 369.26992345647824 745.2262198033503 # Ar
705 705 1 0.0 488.69463061944043 718.8786893617872 384.02934013256305 # Ar
706 706 1 0.0 360.4992206861337 552.5379174982671 317.919578193656 # Ar
707 707 1 0.0 529.4594729454278 359.08127474514725 160.87452310134873 # Ar
708 708 1 0.0 473.2352001602543 712.9783045880476 63.301326845374106 # Ar
709 709 1 0.0 3.5683129334471397 190.81152137749137 317.1399573648991 # Ar
710 710 1 0.0 189.17098635191002 698.4724828864752 460.1246842921108 # Ar
711 711 1 0.0 933.4615778303438 415.6401288165217 15.565999637963746 # Ar
712 712 1 0.0 170.08855968313364 78.49161523609249 913.1871085278416 # Ar
713 713 1 0.0 56.49623680564076 535.0340165712942 214.90195032938766 # Ar
714 714 1 0.0 592.5485660379168 901.456074854083 546.985226404585 # Ar
715 715 1 0.0 686.7513343877566 152.53365839265462 928.8296704647566 # Ar
716 716 1 0.0 653.0212427577302 326.3119471797492 575.9423363008688 # Ar
717 717 1 0.0 686.7494438091244 665.1715167846587 340.4538575352711 # Ar
718 718 1 0.0 729.592147591119 916.3667474929744 4.14729165061451 # Ar
719 719 1 0.0 421.6937524849075 933.5921806027297 573.3750575995533 # Ar
720 720 1 0.0 796.2512299392113 378.23040389307994 140.7710190541362 # Ar
721 721 1 0.0 276.1228856351875 718.1559751611427 408.7907232689279 # Ar
722 722 1 0.0 483.50756857712645 99.70681986831117 717.3675087838077 # Ar
723 723 1 0.0 87.54340262763607 929.2649283215408 648.1782965705548 # Ar
724 724 1 0.0 473.2658847823623 682.8491906617388 661.5695377770654 # Ar
725 725 1 0.0 785.4861212208457 886.8080165274793 229.5665353689556 # Ar
726 726 1 0.0 648.4830239036316 856.1107868360442 302.5063678327832 # Ar
727 727 1 0.0 368.7581170140774 574.2820931181125 732.0356436804955 # Ar
728 728 1 0.0 246.01645093277142 207.64681206359958 265.00351615763907 # Ar
729 729 1 0.0 697.4754077844723 429.5657493075009 751.8020790851829 # Ar
730 730 1 0.0 716.0519129922548 666.0090903572451 448.6715136312744 # Ar
731 731 1 0.0 647.6649255240428 509.5951051489378 638.4556496031157 # Ar
732 732 1 0.0 509.023107690889 418.5018810807284 497.85259358031266 # Ar
733 733 1 0.0 49.766063686285236 262.4760148194088 571.3560688057117 # Ar
734 734 1 0.0 321.75491466748656 871.1252136907515 415.58431581794486 # Ar
735 735 1 0.0 201.94705520560404 908.8583345513665 603.8347968846134 # Ar
736 736 1 0.0 744.936290914618 871.9240108527526 655.5233839660655 # Ar
737 737 1 0.0 791.2091008972886 441.3733050238572 248.66812397711394 # Ar
738 738 1 0.0 143.98168712401537 759.5426231669278 491.7972897319172 # Ar
739 739 1 0.0 796.6559096156282 715.2673381059882 461.80668966461985 # Ar
740 740 1 0.0 617.1542895612711 658.6177050314965 73.98049819829072 # Ar
741 741 1 0.0 455.5984751930256 563.9339186975192 833.0205140114671 # Ar
742 742 1 0.0 288.91110364869536 54.833467182386805 529.9565490380746 # Ar
743 743 1 0.0 199.6432893640946 24.099823097729722 454.4982931994829 # Ar
744 744 1 0.0 691.9929358127899 280.2317074559566 24.04598507252716 # Ar
745 745 1 0.0 170.88068189724584 875.4332075160016 302.1400071969191 # Ar
746 746 1 0.0 499.64276391153874 218.64524502691782 453.720596430506 # Ar
747 747 1 0.0 688.0126495117341 209.8642629306622 152.01746511183623 # Ar
748 748 1 0.0 795.6107273085896 834.3779588724335 749.3504326327125 # Ar
749 749 1 0.0 627.7026644890143 768.6547763266005 774.2938919617476 # Ar
750 750 1 0.0 314.54199958308527 331.20460174231715 460.3988734368724 # Ar
751 751 1 0.0 280.35118251627523 664.9473366495334 327.2304082664837 # Ar
752 752 1 0.0 598.9873583766292 839.5448147063822 666.671448934368 # Ar
753 753 1 0.0 776.2837331877703 862.8891871637047 696.249559264853 # Ar
754 754 1 0.0 555.0206113943641 569.8182721520401 911.8208643899254 # Ar
755 755 1 0.0 502.02035802194223 867.8184881087759 76.41117010115222 # Ar
756 756 1 0.0 551.0705560317803 466.9362928495473 774.0766011599367 # Ar
757 757 1 0.0 524.7153091740581 365.62515113592957 699.6739490047098 # Ar
758 758 1 0.0 578.7356111221654 597.6852672213042 40.73447344098275 # Ar
759 759 1 0.0 403.8569021455494 258.9816678065757 185.12237555128993 # Ar
760 760 1 0.0 745.2065278265268 698.1431442649006 419.03566145216547 # Ar
761 761 1 0.0 47.788596274018026 903.04469517163 528.9029777799158 # Ar
762 762 1 0.0 897.7751167514707 621.3068926246345 303.7799236888077 # Ar
763 763 1 0.0 384.33972955971535 772.3249961958049 289.5526989095894 # Ar
764 764 1 0.0 148.7693552996336 143.5689649378901 929.7771596440775 # Ar
765 765 1 0.0 212.062724048087 231.25965741423926 396.0335648398858 # Ar
766 766 1 0.0 133.48842001373083 771.2332047433177 910.9253408641111 # Ar
767 767 1 0.0 213.90934522033604 615.3850608648752 775.1255558437808 # Ar
768 768 1 0.0 885.2148777848237 595.0945669551664 647.9067903380875 # Ar
769 769 1 0.0 34.79312824935431 193.64243233087916 824.5617196206965 # Ar
770 770 1 0.0 514.0879617242862 711.3004780728365 103.72341579166455 # Ar
771 771 1 0.0 403.3795056079457 310.5017950870644 537.3045585921011 # Ar
772 772 1 0.0 32.52252284401007 569.4467650373196 466.5335222298041 # Ar
773 773 1 0.0 573.3765506105284 680.4144572110336 353.18069886337616 # Ar
774 774 1 0.0 280.48459499132804 139.7450454461518 838.59341870945 # Ar
775 775 1 0.0 450.4458654861211 712.9597168533799 880.8846352469945 # Ar
776 776 1 0.0 331.06953718976416 400.1391914460699 347.749687537935 # Ar
777 777 1 0.0 737.4976303425226 232.9077396927926 899.8909603250893 # Ar
778 778 1 0.0 549.3150053540347 860.3344217474001 687.5610404949413 # Ar
779 779 1 0.0 351.38663833065567 842.6229115224497 786.5296684062586 # Ar
780 780 1 0.0 172.96395841432854 460.36226852872625 597.9569299935363 # Ar
781 781 1 0.0 818.4753812556335 740.9831800178359 598.5141864967962 # Ar
782 782 1 0.0 186.0519303474557 534.5296223514168 114.31416664402707 # Ar
783 783 1 0.0 63.14067185651206 604.9231092757052 257.80796117667416 # Ar
784 784 1 0.0 696.9818810804865 291.094532820057 61.56867726156801 # Ar
785 785 1 0.0 324.8570111575534 145.23723833104998 894.8553466334498 # Ar
786 786 1 0.0 548.0250832510231 539.6111352540645 836.7479852799923 # Ar
787 787 1 0.0 225.7032695037847 409.1437218318969 899.9907609872532 # Ar
788 788 1 0.0 930.1878252892157 581.3084119308179 472.03496759031043 # Ar
789 789 1 0.0 4.654032758472246 774.6483880407885 499.6034206408755 # Ar
790 790 1 0.0 589.38109843938 181.04939027463854 810.4897324312399 # Ar
791 791 1 0.0 933.09172980888 198.10988095465098 36.27200463883627 # Ar
792 792 1 0.0 645.9736189006933 550.3330312622401 803.0055543390399 # Ar
793 793 1 0.0 777.2067048083944 140.3908214588688 506.64689845772637 # Ar
794 794 1 0.0 42.843693700253844 622.7427674462089 45.64506598635255 # Ar
795 795 1 0.0 499.0104951726861 715.2666415757568 447.5653939642961 # Ar
796 796 1 0.0 657.5113876578682 445.09244960954726 457.1611941701178 # Ar
797 797 1 0.0 715.917733480051 614.0154193932938 428.36185163163816 # Ar
798 798 1 0.0 929.7563212890507 681.4609486940044 127.57414096595738 # Ar
799 799 1 0.0 115.62185095444455 582.4976287575797 906.9974663536552 # Ar
800 800 1 0.0 145.50000221962844 270.86859292153264 18.554634326991533 # Ar
801 801 1 0.0 51.99857148786394 189.730835425141 426.20036725102887 # Ar
802 802 1 0.0 187.97903611022164 909.4952765722403 588.72605465011 # Ar
803 803 1 0.0 324.77670719504016 408.14605394452116 657.2737280380159 # Ar
804 804 1 0.0 654.3178293974921 654.4594087380555 424.87152642823264 # Ar
805 805 1 0.0 851.9340150097585 873.2580490495927 198.3201381987037 # Ar
806 806 1 0.0 300.9667896367321 871.8079492064517 820.8935889333802 # Ar
807 807 1 0.0 600.942258109774 409.9933851289022 474.9718259383568 # Ar
808 808 1 0.0 464.3804584559984 377.9571969289516 18.59181642308833 # Ar
809 809 1 0.0 812.8687500538935 81.70300176007123 184.07854016156347 # Ar
810 810 1 0.0 745.5031609125541 554.234620288047 425.74516066742854 # Ar
811 811 1 0.0 192.40395763302686 458.6528543213235 77.40834898610112 # Ar
812 812 1 0.0 277.27631691367515 220.66920750633582 311.78824354864497 # Ar
813 813 1 0.0 934.5192341899572 256.0183668588257 150.35015574685104 # Ar
814 814 1 0.0 13.644647452800381 155.55631293234168 191.8457520857262 # Ar
815 815 1 0.0 286.94718014820904 234.98388575211754 249.5279815342311 # Ar
816 816 1 0.0 487.4457866092407 345.7240502601904 366.30397206722813 # Ar
817 817 1 0.0 771.6797412093832 460.69002841727115 395.46811052724155 # Ar
818 818 1 0.0 41.43606555005491 308.09313598696866 312.8340700865735 # Ar
819 819 1 0.0 90.09666629659516 365.8515912014946 456.95067334319765 # Ar
820 820 1 0.0 586.3874393250403 325.79723588192974 682.4010927377341 # Ar
821 821 1 0.0 869.2535887188566 750.5837653397097 146.091648377593 # Ar
822 822 1 0.0 490.4481134531619 100.2772209195691 668.8676733785379 # Ar
823 823 1 0.0 237.448160838576 476.97402369906314 424.2044233834669 # Ar
824 824 1 0.0 605.9849200304348 729.1589907166199 318.41158950552875 # Ar
825 825 1 0.0 4.101450345598028 847.891219261165 374.95951447185007 # Ar
826 826 1 0.0 166.2623611912106 727.8812896924148 707.3089740537686 # Ar
827 827 1 0.0 564.1824367178299 344.7243262255002 766.3767208206078 # Ar
828 828 1 0.0 695.5555346100172 550.3995962701987 665.6429535212818 # Ar
829 829 1 0.0 799.5048486771603 872.2411968895498 339.5021820158109 # Ar
830 830 1 0.0 186.08316759571264 266.8497081898175 606.9917590590671 # Ar
831 831 1 0.0 498.91837904085867 66.76690296155519 376.4969368571776 # Ar
832 832 1 0.0 399.76849834811014 536.1253080028588 589.2481040286941 # Ar
833 833 1 0.0 763.3904043517217 841.7405760754992 145.3483986323952 # Ar
834 834 1 0.0 552.6417607513813 696.1665846934 895.949856540978 # Ar
835 835 1 0.0 91.3160566034525 682.9275750269874 231.77632776541688 # Ar
836 836 1 0.0 141.11349602203765 670.1599598854101 235.37806217090488 # Ar
837 837 1 0.0 284.24226343284494 668.1207194667594 466.6286151946924 # Ar
838 838 1 0.0 663.3539945123144 310.4091650920516 732.1199450630377 # Ar
839 839 1 0.0 659.9488878209863 600.536581839344 86.96794824288193 # Ar
840 840 1 0.0 47.52039067840115 900.6753901280937 326.30441394480187 # Ar
841 841 1 0.0 523.210994244447 738.2343966003876 646.7849778126632 # Ar
842 842 1 0.0 198.1248862422089 224.08812494135765 314.42420097786226 # Ar
843 843 1 0.0 640.293782319202 469.85890691872976 845.3387114909367 # Ar
844 844 1 0.0 278.92472653537595 823.0524047871193 135.70130321697243 # Ar
845 845 1 0.0 291.3291324363392 490.01615220122306 767.7749344819949 # Ar
846 846 1 0.0 848.4083791284654 67.75322415417367 125.57992018410556 # Ar
847 847 1 0.0 497.93724446412637 902.4439719697284 765.993603104735 # Ar
848 848 1 0.0 685.6254875198323 753.0478532485714 32.7196117869339 # Ar
849 849 1 0.0 586.4223196973458 180.34483386295932 236.31920368513605 # Ar
850 850 1 0.0 71.27599886750491 550.6837323006566 464.6818982880402 # Ar
851 851 1 0.0 109.71640489582714 707.3433692214637 565.3543449550724 # Ar
852 852 1 0.0 901.4683384352836 326.1404250016438 922.0794907625694 # Ar
853 853 1 0.0 327.8478373967222 220.47747967815613 114.80361497196222 # Ar
854 854 1 0.0 308.5445273710253 780.091518668496 874.3768061418555 # Ar
855 855 1 0.0 734.8251403050508 885.7885681404703 649.187419783254 # Ar
856 856 1 0.0 206.34566366950247 43.35110488006542 626.7637866265236 # Ar
857 857 1 0.0 886.8069468364193 922.8689627513563 346.5660994692239 # Ar
858 858 1 0.0 533.0454832722343 850.2624239568368 306.7907634532195 # Ar
859 859 1 0.0 156.70119603324937 560.1241728088798 510.52254130408255 # Ar
860 860 1 0.0 454.8503090795887 470.84545784862456 108.71964938598488 # Ar
861 861 1 0.0 523.4810926143916 492.0871915057375 663.5690884059591 # Ar
862 862 1 0.0 927.4351467412395 745.6417402443207 853.9021537285704 # Ar
863 863 1 0.0 144.18746774587893 119.99616549804482 65.77544518847297 # Ar
864 864 1 0.0 316.24247423048655 26.303399025802182 516.3846460731556 # Ar
865 865 1 0.0 279.9083729944764 112.62778632721037 838.7270621319437 # Ar
866 866 1 0.0 807.2123773481017 250.88093848896224 805.6850562961756 # Ar
867 867 1 0.0 125.75235645089974 65.59807358581621 54.952068731807564 # Ar
868 868 1 0.0 870.0156499342942 566.4915663291811 445.86200840359453 # Ar
869 869 1 0.0 681.1655695740046 655.9679469365228 749.1978228194137 # Ar
870 870 1 0.0 836.2105174344646 766.9990366042672 203.87026729900242 # Ar
871 871 1 0.0 205.14274496704758 208.97725689251044 431.81777279179056 # Ar
872 872 1 0.0 714.1834856983877 20.57576534853922 863.3536835201472 # Ar
873 873 1 0.0 344.2017418562411 331.84685147239077 382.07908011983284 # Ar
874 874 1 0.0 617.3228781330482 767.2271127787681 607.1804192936773 # Ar
875 875 1 0.0 180.52334907792283 362.525874804708 69.3874564585587 # Ar
876 876 1 0.0 924.0333081706407 309.5175700479212 533.0593921642007 # Ar
877 877 1 0.0 14.198827078101012 169.071717365216 110.93386984169214 # Ar
878 878 1 0.0 523.2731835452291 902.2290835053627 432.5998427288829 # Ar
879 879 1 0.0 630.7233588875673 859.8043252437986 161.20097204852638 # Ar
880 880 1 0.0 694.5745759379168 932.1018817584621 687.6269915236762 # Ar
881 881 1 0.0 869.0091968922554 897.2292675945775 658.8494948167935 # Ar
882 882 1 0.0 348.0415032070042 927.8869215126342 335.7809543768334 # Ar
883 883 1 0.0 796.0057646481326 547.034146888946 97.10559231936283 # Ar
884 884 1 0.0 483.4129263819205 40.781238220959686 745.7755829163215 # Ar
885 885 1 0.0 756.4373439597952 236.34495040433214 140.15106878910794 # Ar
886 886 1 0.0 18.259148024689214 530.8949495192272 234.5976950597777 # Ar
887 887 1 0.0 622.6490759827732 764.4841939586518 592.9084428714731 # Ar
888 888 1 0.0 149.62189857697354 700.9176982048184 822.7150789113614 # Ar
889 889 1 0.0 363.0086269496607 583.7878863961403 861.6424239064617 # Ar
890 890 1 0.0 408.350111649101 388.3675819497091 203.15757354842296 # Ar
891 891 1 0.0 662.9640108488062 85.49928826475055 347.0839282265634 # Ar
892 892 1 0.0 780.981765265327 47.10911248831463 725.9792059210629 # Ar
893 893 1 0.0 846.4241099189207 452.8203400320023 647.8315407948824 # Ar
894 894 1 0.0 709.8676059873725 72.83638074398685 230.7774132398902 # Ar
895 895 1 0.0 223.43906347891243 896.9363524676938 619.3368904089588 # Ar
896 896 1 0.0 569.1929177214289 550.2971622606048 386.7509395000961 # Ar
897 897 1 0.0 810.9190682407838 21.78990305279047 697.5859125612521 # Ar
898 898 1 0.0 259.29830644277035 210.9118924674556 732.7235905070066 # Ar
899 899 1 0.0 551.118545272696 729.6358014305797 876.9941541202809 # Ar
900 900 1 0.0 917.2111170908576 521.1846450251974 207.6935432227916 # Ar
901 901 1 0.0 179.13990652626808 789.3431596960554 429.56088306240963 # Ar
902 902 1 0.0 305.6793782120534 17.475855572926097 499.20423437737054 # Ar
903 903 1 0.0 624.428328476839 465.56347484164127 299.20853150368447 # Ar
904 904 1 0.0 451.6624131224305 112.03712100807924 482.73144475856424 # Ar
905 905 1 0.0 648.996704959246 738.2585009237002 20.272975390513253 # Ar
906 906 1 0.0 140.1489018400463 304.3333183764706 413.2353140095668 # Ar
907 907 1 0.0 413.70365189772485 706.1348735485382 684.1238317132452 # Ar
908 908 1 0.0 618.1375531437834 731.9042984378417 841.4119147017853 # Ar
909 909 1 0.0 914.5019859336047 844.8377887030282 678.5432408808241 # Ar
910 910 1 0.0 932.1210559920816 407.8774825656721 555.5484149651315 # Ar
911 911 1 0.0 799.5970633057331 896.7237996805229 683.6973787462881 # Ar
912 912 1 0.0 229.6225146319342 648.1277124683994 688.3127974820293 # Ar
913 913 1 0.0 811.5952852467447 141.20175907746946 635.4038227783839 # Ar
914 914 1 0.0 557.4989954600245 422.5376581309896 491.0423078116826 # Ar
915 915 1 0.0 640.6072826147885 576.3823902954683 745.5972832974362 # Ar
916 916 1 0.0 2.7233436461035754 111.79948217918891 289.8651083506452 # Ar
917 917 1 0.0 758.036973057005 19.137690567276437 678.7779073619523 # Ar
918 918 1 0.0 146.58128834013516 630.3854281138589 10.962459950139495 # Ar
919 919 1 0.0 238.16667947943768 473.5740049388284 907.7051656445353 # Ar
920 920 1 0.0 100.54393611735034 199.37924506199755 870.6839999638466 # Ar
921 921 1 0.0 926.2992765614299 180.06769196825022 219.85327134916975 # Ar
922 922 1 0.0 247.83792302279457 535.5665371320873 287.19426607528027 # Ar
923 923 1 0.0 394.3757957470965 375.4931268561517 881.0440052356214 # Ar
924 924 1 0.0 868.4521218507607 473.4873840541218 255.9466669603669 # Ar
925 925 1 0.0 642.337233831818 427.29668258354235 312.89964777550796 # Ar
926 926 1 0.0 488.8916387559957 541.6048401548711 667.6262633626147 # Ar
927 927 1 0.0 168.6587623697747 62.84120478233263 728.7016145431028 # Ar
928 928 1 0.0 889.0945316636511 259.31383216341925 608.9466006801392 # Ar
929 929 1 0.0 638.0909968844708 608.7920376308529 285.400294085827 # Ar
930 930 1 0.0 520.4945574764866 902.886778237425 553.3395610619058 # Ar
931 931 1 0.0 729.9704612916322 412.32806494297273 611.941113966726 # Ar
932 932 1 0.0 369.7243948450675 305.2485506973945 66.88163796458343 # Ar
933 933 1 0.0 643.8986565019113 550.2323112096832 281.28514762339495 # Ar
934 934 1 0.0 561.5792666110635 185.14019071387497 560.6658434791517 # Ar
935 935 1 0.0 87.29846144286431 607.9785215701933 681.3132403666497 # Ar
936 936 1 0.0 442.6288565021005 222.82102517680764 481.05193787732605 # Ar
937 937 1 0.0 318.24502929884267 185.09567444861975 615.6025358270037 # Ar
938 938 1 0.0 513.8984031448186 633.9824805558911 888.5727599748901 # Ar
939 939 1 0.0 18.575277722448376 853.5514958222861 223.4766408284436 # Ar
940 940 1 0.0 250.38250933773762 87.48337873232703 507.83736675475586 # Ar
941 941 1 0.0 769.3831674001264 292.77113199231235 417.35293936535885 # Ar
942 942 1 0.0 306.64517451454276 758.4540692951301 825.3526170046316 # Ar
943 943 1 0.0 12.448488260694063 389.3046083063727 847.815793488981 # Ar
944 944 1 0.0 541.9477662041804 774.5991789615609 284.886470937625 # Ar
945 945 1 0.0 416.59597025185155 88.01743032031443 44.7444696970643 # Ar
946 946 1 0.0 877.4038449665469 139.54527819036477 28.094585872632805 # Ar
947 947 1 0.0 487.2778832510958 725.6614578353235 179.42739121694842 # Ar
948 948 1 0.0 218.85027034778105 184.51496354148043 594.7518439881227 # Ar
949 949 1 0.0 610.638371989475 71.99062307844835 413.0615538642442 # Ar
950 950 1 0.0 278.91405487008115 93.18942903303453 486.93737457762415 # Ar
951 951 1 0.0 606.0992624273607 511.2990761709411 649.1622485389574 # Ar
952 952 1 0.0 520.9573877839694 266.86608502285964 115.08993868915182 # Ar
953 953 1 0.0 237.5886634056064 35.50563206951699 541.7303738811754 # Ar
954 954 1 0.0 594.2782224970344 428.63711355879815 467.3855438592441 # Ar
955 955 1 0.0 636.8634792277203 148.78311012519103 778.6885215339454 # Ar
956 956 1 0.0 654.6059670477606 300.84858026283564 668.594881980317 # Ar
957 957 1 0.0 394.81283832411634 504.0309686788845 370.23807109200817 # Ar
958 958 1 0.0 182.00013763502224 240.77421226859218 581.7338793365659 # Ar
959 959 1 0.0 912.8223529347692 398.4962700716061 427.4614916023271 # Ar
960 960 1 0.0 914.8683698042516 91.55689494604611 462.9322172931079 # Ar
961 961 1 0.0 410.4746832085973 113.53412361264354 551.7790478434787 # Ar
962 962 1 0.0 895.6703055160466 611.1130179182563 72.67159844703791 # Ar
963 963 1 0.0 86.2379559930822 44.50515653248846 398.54460638590257 # Ar
964 964 1 0.0 56.9392993007474 571.3002135460763 299.5635457824987 # Ar
965 965 1 0.0 611.7576786318784 728.8861545444558 780.5543912029593 # Ar
966 966 1 0.0 504.61987996406657 164.48669214514192 868.5089169872153 # Ar
967 967 1 0.0 651.5334312719987 913.5899741600623 82.52360815664284 # Ar
968 968 1 0.0 519.5213664891147 236.32811769516368 748.9760588349616 # Ar
969 969 1 0.0 35.332033224155985 875.3014498778851 377.1432944565509 # Ar
970 970 1 0.0 142.07597088825503 716.8000494674027 590.8214293416072 # Ar
971 971 1 0.0 236.41041342591015 130.95028606399114 43.536241140680204 # Ar
972 972 1 0.0 425.44098994221554 497.12686570608355 19.272721448887587 # Ar
973 973 1 0.0 577.4746208404644 825.4292442945804 279.19981578306914 # Ar
974 974 1 0.0 63.483192739308585 395.99337443607186 482.3806575561995 # Ar
975 975 1 0.0 768.3415004393672 169.97425465656517 214.61889230411404 # Ar
976 976 1 0.0 327.5238866288438 725.0298974053943 382.0226601422259 # Ar
977 977 1 0.0 404.2376547715965 332.75901297098693 10.87009207275675 # Ar
978 978 1 0.0 605.0572232906937 48.42000109931575 579.5978898611589 # Ar
979 979 1 0.0 345.081598447544 666.6197818498978 117.63390020848757 # Ar
980 980 1 0.0 365.9812452282587 645.0496312140882 0.46422782687280717 # Ar
981 981 1 0.0 184.3116217754755 587.9312332851737 315.83711781004905 # Ar
982 982 1 0.0 733.066149292607 814.7443677274575 527.1357446876656 # Ar
983 983 1 0.0 547.6734879553275 496.4941293341459 585.3363614451916 # Ar
984 984 1 0.0 337.2216052160927 614.1436347015539 704.6868321679282 # Ar
985 985 1 0.0 106.97072398226007 510.6933595341989 607.8371518437928 # Ar
986 986 1 0.0 458.31468955598325 498.28472723196654 891.3890374111908 # Ar
987 987 1 0.0 657.4595542887512 871.2189527205104 234.61069780628142 # Ar
988 988 1 0.0 166.48784775603102 619.1962376537824 727.2096130864157 # Ar
989 989 1 0.0 617.2449956453096 50.30486357315605 725.2552548503326 # Ar
990 990 1 0.0 106.1655827436727 665.326047230449 785.6999502948511 # Ar
991 991 1 0.0 333.6926094943132 435.34836872728386 422.51752995855884 # Ar
992 992 1 0.0 745.575385868421 517.7251323710291 50.36336911687535 # Ar
993 993 1 0.0 797.5978193684317 328.4238671439826 812.4492070738139 # Ar
994 994 1 0.0 498.9820395457981 412.67670913306034 721.951563581202 # Ar
995 995 1 0.0 131.31551543095097 191.83041705148202 261.77871435168436 # Ar
996 996 1 0.0 104.6331616243462 436.00154051423453 715.0430365124544 # Ar
997 997 1 0.0 697.087168183848 43.293019364850785 200.49396533150085 # Ar
998 998 1 0.0 16.23609552849007 845.9356606025618 749.7910209164068 # Ar
999 999 1 0.0 227.90986537338156 562.2251882325185 439.5958783766865 # Ar
1000 1000 1 0.0 680.6420119753856 702.6127485045844 243.09788391069682 # Ar
1001 1001 1 0.0 878.0470022010768 325.3708405182155 331.0380483860902 # Ar
1002 1002 1 0.0 66.65388754121712 641.8522930783821 53.54061093353627 # Ar
1003 1003 1 0.0 764.6384760213466 286.8613494946533 400.58653159435124 # Ar
1004 1004 1 0.0 916.1740537185095 783.221930424692 456.49199706808844 # Ar
1005 1005 1 0.0 576.3771337192447 553.0926140276581 463.36385284502495 # Ar
1006 1006 1 0.0 160.96839456397922 453.3234671979481 602.548923542078 # Ar
1007 1007 1 0.0 373.5934741985345 130.09892688598666 924.4628298259166 # Ar
1008 1008 1 0.0 417.1734949959007 201.3492118501734 340.46005207786743 # Ar
1009 1009 1 0.0 170.4495111502867 272.44945842593785 380.07702150469754 # Ar
1010 1010 1 0.0 380.190033205358 851.2456570852547 553.5907139326679 # Ar
1011 1011 1 0.0 859.6732693559451 652.593264876688 297.2980135465616 # Ar
1012 1012 1 0.0 1.5265329010925446 912.5049299011533 305.29988733969554 # Ar
1013 1013 1 0.0 14.07713413137906 726.0376071705753 887.2273057874067 # Ar
1014 1014 1 0.0 809.1698649603999 525.2628251972092 369.5785799269606 # Ar
1015 1015 1 0.0 183.65456793657543 261.95895582664934 881.6264507289317 # Ar
1016 1016 1 0.0 257.1414458020765 563.5172196785086 612.9354893241591 # Ar
1017 1017 1 0.0 206.64185778113094 588.0170533428523 873.5652242980474 # Ar
1018 1018 1 0.0 611.732913209674 883.0917526762411 343.36636100994326 # Ar
1019 1019 1 0.0 921.9886579586561 478.2486748519083 86.55632842014418 # Ar
1020 1020 1 0.0 565.1181664359699 597.763605721601 892.382478444067 # Ar
1021 1021 1 0.0 75.40978813024881 121.00153896153567 49.052125621975755 # Ar
1022 1022 1 0.0 601.5295271825653 478.23836052208134 611.9043522297939 # Ar
1023 1023 1 0.0 185.85311027143143 335.2550668671382 879.2957521828494 # Ar
1024 1024 1 0.0 331.7439342550124 498.5215500947489 433.4150381239092 # Ar
1025 1025 1 0.0 211.1978338009455 636.3626358514758 488.0758187207997 # Ar
1026 1026 1 0.0 212.3507091436811 198.5151506264073 774.9280170602681 # Ar
1027 1027 1 0.0 165.924558718518 483.6718189770972 438.58363121935463 # Ar
1028 1028 1 0.0 70.5609192398179 839.3693787848948 141.5061760525559 # Ar
1029 1029 1 0.0 749.1102615222401 640.3856551082358 140.91464519464486 # Ar
1030 1030 1 0.0 171.3327365476099 468.43977523189335 471.1964762295845 # Ar
1031 1031 1 0.0 355.7513265104739 712.011392397691 514.0946504331592 # Ar
1032 1032 1 0.0 14.469074601600527 143.92271205589742 320.19946683790533 # Ar
1033 1033 1 0.0 854.3315322653995 349.5121881388471 156.97925656257914 # Ar
1034 1034 1 0.0 165.1086654607112 646.8157866909339 826.2011714614838 # Ar
1035 1035 1 0.0 34.665613842103525 529.8352046959723 485.71643395819524 # Ar
1036 1036 1 0.0 96.58146254790749 59.295475409278275 287.48242517219336 # Ar
1037 1037 1 0.0 798.5724749713054 783.719473096735 814.374891534557 # Ar
1038 1038 1 0.0 615.3277559832204 148.57439281690284 889.6481578867808 # Ar
1039 1039 1 0.0 508.2440118935021 430.01284042238404 642.5359854649055 # Ar
1040 1040 1 0.0 124.1744743595149 499.06485470632333 624.7130082360936 # Ar
1041 1041 1 0.0 476.6132257344675 752.2077151384385 32.095186596940096 # Ar
1042 1042 1 0.0 406.6362569863457 176.3149431410551 232.74753522324647 # Ar
1043 1043 1 0.0 455.3587122830136 485.36866283838606 464.8488249002094 # Ar
1044 1044 1 0.0 203.73840441359278 861.3100215150915 294.86990498801094 # Ar
1045 1045 1 0.0 602.8052614536288 655.110977650416 921.9053123977053 # Ar
1046 1046 1 0.0 530.9334226748512 898.0977093660159 304.5511574189998 # Ar
1047 1047 1 0.0 603.7323646217467 785.2286644445089 196.63097872143467 # Ar
1048 1048 1 0.0 446.71057856704624 726.9207730692474 434.3366403422515 # Ar
1049 1049 1 0.0 77.58422749827419 852.5077909831793 322.9779534572387 # Ar
1050 1050 1 0.0 710.4938561614414 17.34113636427209 169.2059462685955 # Ar
1051 1051 1 0.0 24.42833818443419 629.5142526830988 162.22023857685463 # Ar
1052 1052 1 0.0 78.20394080379454 387.2897496881333 634.3902799590331 # Ar
1053 1053 1 0.0 153.79770830502613 424.4413410045755 103.20933817804614 # Ar
1054 1054 1 0.0 791.8527514376333 50.137695573514584 554.0397160386937 # Ar
1055 1055 1 0.0 920.9792759157854 454.0230443187397 684.807279958017 # Ar
1056 1056 1 0.0 90.15992293345332 494.96926324672427 428.7642529519936 # Ar
1057 1057 1 0.0 74.4624492809227 79.23905267133745 888.1431493699125 # Ar
1058 1058 1 0.0 662.7768527099843 387.06392008749896 715.8936260624636 # Ar
1059 1059 1 0.0 363.57804939149014 923.5044004619738 421.8676637161348 # Ar
1060 1060 1 0.0 819.3757722141319 520.0555539229485 153.5549023792183 # Ar
1061 1061 1 0.0 203.08867709980265 597.4110435995931 773.4661714263079 # Ar
1062 1062 1 0.0 540.455642839443 764.1460265350685 118.23820477208896 # Ar
1063 1063 1 0.0 850.0430622825301 653.0449111217872 704.4673855886854 # Ar
1064 1064 1 0.0 168.04452859749358 637.2189493067249 420.76472639102445 # Ar
1065 1065 1 0.0 607.4070884970112 345.57902564317976 647.0401959491426 # Ar
1066 1066 1 0.0 931.9586680350188 447.93542523678144 421.77774560181274 # Ar
1067 1067 1 0.0 214.15455100201893 853.6727747993841 825.9050017990668 # Ar
1068 1068 1 0.0 257.26746641880305 529.165147320989 641.3508124570446 # Ar
1069 1069 1 0.0 772.3640607545652 230.50610533013779 650.113730366972 # Ar
1070 1070 1 0.0 631.5179416512538 393.60591537700503 636.309004574521 # Ar
1071 1071 1 0.0 265.93792584516757 721.0738285939058 661.4681977032435 # Ar
1072 1072 1 0.0 248.1667315888882 539.3865109177848 929.9676680740871 # Ar
1073 1073 1 0.0 180.99379767215942 893.9202890110581 439.7717803347182 # Ar
1074 1074 1 0.0 313.13871324590394 900.6873577509868 381.9342891804913 # Ar
1075 1075 1 0.0 808.3014511212407 326.3553437180062 749.7916887178773 # Ar
1076 1076 1 0.0 369.27394611571424 285.05003741201887 308.17632480920133 # Ar
1077 1077 1 0.0 379.7427911709555 652.2858373364273 7.375665124539398 # Ar
1078 1078 1 0.0 181.38953694694462 524.5527326692717 619.3926186738921 # Ar
1079 1079 1 0.0 628.6448844837797 546.1160263986732 677.8470746523024 # Ar
1080 1080 1 0.0 371.34902915561696 31.701508863619566 664.1062158652885 # Ar
1081 1081 1 0.0 892.7587358156209 38.93532186606574 594.7534481187314 # Ar
1082 1082 1 0.0 175.12772371179608 433.8492678217249 506.53859386905185 # Ar
1083 1083 1 0.0 467.3227712283225 34.970019291642814 269.72928304487374 # Ar
1084 1084 1 0.0 665.8741493657202 534.1993971467753 779.2189234016221 # Ar
1085 1085 1 0.0 152.54695075486646 210.58938983555163 283.8151122848344 # Ar
1086 1086 1 0.0 853.6366438143268 778.7749292488544 896.5703507465197 # Ar
1087 1087 1 0.0 650.4941114215516 828.0985566621996 868.8723618434415 # Ar
1088 1088 1 0.0 236.81329679537228 567.458803596402 398.5390486040375 # Ar
1089 1089 1 0.0 401.97117461588203 174.46667489675585 434.98887125873006 # Ar
1090 1090 1 0.0 306.040706252683 74.00893287089698 236.65369460168802 # Ar
1091 1091 1 0.0 363.713606017773 708.0887265675387 47.72519858049703 # Ar
1092 1092 1 0.0 19.867164290292152 513.5813803359524 309.18121429882757 # Ar
1093 1093 1 0.0 32.63331165946666 751.0075641378304 156.3339969004554 # Ar
1094 1094 1 0.0 421.9121603902069 747.6063913872232 835.9949217803128 # Ar
1095 1095 1 0.0 715.6758401014994 482.6924995770146 915.4530113907523 # Ar
1096 1096 1 0.0 46.146260140902285 327.67906432015843 916.4930922721111 # Ar
1097 1097 1 0.0 64.58193908515506 642.7407260413202 337.52518940025726 # Ar
1098 1098 1 0.0 817.013791066879 675.2802432029952 189.86922913806498 # Ar
1099 1099 1 0.0 911.9967381741214 40.82144331933323 553.846316253451 # Ar
1100 1100 1 0.0 472.31692480128356 170.183614790999 442.09978765862326 # Ar
1101 1101 1 0.0 270.8176279259633 536.7639047787371 490.32458957982715 # Ar
1102 1102 1 0.0 847.585273666792 458.88150893375035 891.2407171423328 # Ar
1103 1103 1 0.0 671.0804224078225 57.08391010219599 11.263197310824282 # Ar
1104 1104 1 0.0 552.9615171517925 733.1325052612817 828.8572080340851 # Ar
1105 1105 1 0.0 754.7070024329872 474.0675317663927 231.19269023950477 # Ar
1106 1106 1 0.0 923.0041670049451 368.10026690743376 792.1225903100171 # Ar
1107 1107 1 0.0 607.4528528174703 637.5859712393916 588.663307666482 # Ar
1108 1108 1 0.0 386.0923485661365 126.25382037043859 354.76542123210953 # Ar
1109 1109 1 0.0 308.8415595693334 812.2606530467616 673.6856778816674 # Ar
1110 1110 1 0.0 819.3625598427171 874.4940178307307 115.08219559214606 # Ar
1111 1111 1 0.0 748.4905654060416 585.1200569606204 719.8459071514798 # Ar
1112 1112 1 0.0 643.2989255760358 908.9852233354965 175.86517298986462 # Ar
1113 1113 1 0.0 281.3823117665835 382.5233543712348 489.34877295866363 # Ar
1114 1114 1 0.0 9.093894162206798 132.54791572340847 56.97415244534212 # Ar
1115 1115 1 0.0 187.48776819118922 477.768101976707 154.22130442089093 # Ar
1116 1116 1 0.0 831.2669310422975 739.498042134624 464.67638438472625 # Ar
1117 1117 1 0.0 705.663745898144 789.3642202110947 23.196925052839834 # Ar
1118 1118 1 0.0 816.4224397472449 430.1323264505555 544.2039838734199 # Ar
1119 1119 1 0.0 853.8720023320727 714.5746082146932 901.0917061456819 # Ar
1120 1120 1 0.0 109.37121988452404 528.4467366193946 204.1637860060109 # Ar
1121 1121 1 0.0 212.6626561292755 470.42143804555633 362.8863065244236 # Ar
1122 1122 1 0.0 45.73139302594052 216.36620703708996 863.8905835894598 # Ar
1123 1123 1 0.0 777.3353154950164 905.184361585687 66.15910456542338 # Ar
1124 1124 1 0.0 861.9179258976807 606.8250570837504 562.5451602790458 # Ar
1125 1125 1 0.0 839.5252851460772 489.60932260718545 712.9699727034831 # Ar
1126 1126 1 0.0 215.03331780179445 897.8068981786095 135.13748045245268 # Ar
1127 1127 1 0.0 7.474366037714493 244.30860035001868 9.262906789378585 # Ar
1128 1128 1 0.0 779.382730835779 531.5930046247781 45.815816664978534 # Ar
1129 1129 1 0.0 847.0931637709881 381.53506560940525 358.7600984775223 # Ar
1130 1130 1 0.0 249.29896323998503 31.350958152654908 272.4624153677509 # Ar
1131 1131 1 0.0 617.6374619759192 689.0020963703997 413.2189787537839 # Ar
1132 1132 1 0.0 72.2559932326318 75.83234320039797 555.6873319387541 # Ar
1133 1133 1 0.0 178.72983548499997 263.8530390937578 131.87197942148177 # Ar
1134 1134 1 0.0 676.9684457574276 793.8202098484219 77.577402127126 # Ar
1135 1135 1 0.0 111.302294826517 310.40967079239607 452.4413801547958 # Ar
1136 1136 1 0.0 556.6802316550361 55.17273122056368 363.59829380079907 # Ar
1137 1137 1 0.0 177.50324814567372 2.800425925298207 63.69271161328749 # Ar
1138 1138 1 0.0 390.7139272536526 817.7883726614762 420.5135867624106 # Ar
1139 1139 1 0.0 770.6660136416807 337.19147054704763 9.770564958055209 # Ar
1140 1140 1 0.0 702.258588826115 854.3220805586154 541.7297069736904 # Ar
1141 1141 1 0.0 912.2191151199412 869.1535782142103 856.2377425915687 # Ar
1142 1142 1 0.0 312.9644863320469 645.4005960837553 662.3328400664928 # Ar
1143 1143 1 0.0 905.2316434010784 577.5528214078581 110.08791514794022 # Ar
1144 1144 1 0.0 236.5593844546656 626.8523602792818 721.6673431305295 # Ar
1145 1145 1 0.0 659.6802010942216 871.5679252794586 589.862189163217 # Ar
1146 1146 1 0.0 191.48351487729832 136.5082099455602 584.8421214748798 # Ar
1147 1147 1 0.0 760.6175609425087 340.5406283613397 563.5844840328448 # Ar
1148 1148 1 0.0 199.06866314991157 74.42729299360946 712.7489228574169 # Ar
1149 1149 1 0.0 113.27549292679942 680.2598363657204 651.4479921935387 # Ar
1150 1150 1 0.0 552.2345196400905 283.7556262937306 918.7950937437115 # Ar
1151 1151 1 0.0 589.749331975014 779.9898399828205 109.22179962106722 # Ar
1152 1152 1 0.0 825.8201245083906 567.2807708570306 630.426715484101 # Ar
1153 1153 1 0.0 912.8044718272961 614.3534838818199 220.14243695226557 # Ar
1154 1154 1 0.0 699.022658007251 481.81036189496 849.9642889302007 # Ar
1155 1155 1 0.0 468.10827535024373 492.43686830117485 630.6920153559631 # Ar
1156 1156 1 0.0 3.79124041168453 148.26845068016058 403.19595559015295 # Ar
1157 1157 1 0.0 280.97161537733433 640.8826498199431 594.9903066914555 # Ar
1158 1158 1 0.0 448.5877846406654 426.6878140936142 7.638119602478369 # Ar
1159 1159 1 0.0 658.0269675890596 887.063594131027 379.45040575780916 # Ar
1160 1160 1 0.0 912.2252097490289 726.8387406290528 726.7582812567982 # Ar
1161 1161 1 0.0 131.28253536579336 725.1353123837217 732.4356066086397 # Ar
1162 1162 1 0.0 658.4760090132713 512.6961442572967 557.4499795209648 # Ar
1163 1163 1 0.0 762.0287623398568 613.1415972572881 423.7146052052697 # Ar
1164 1164 1 0.0 211.7890962405529 922.8212162148943 158.79759988747887 # Ar
1165 1165 1 0.0 785.5581627867147 52.011361367176825 46.16797115985476 # Ar
1166 1166 1 0.0 717.4706472534682 209.35824385487356 364.06988470528256 # Ar
1167 1167 1 0.0 570.0460470716615 410.8130386065938 434.67585362219444 # Ar
1168 1168 1 0.0 762.5116367202512 288.3076244257219 239.31465587627176 # Ar
1169 1169 1 0.0 105.69677240247341 378.87890065346477 530.0250276239543 # Ar
1170 1170 1 0.0 656.7258081535921 488.18398515568606 395.62426299279724 # Ar
1171 1171 1 0.0 606.9228119671935 213.6164413391055 266.737613892623 # Ar
1172 1172 1 0.0 726.4433739323928 504.21415789632573 212.0032177868974 # Ar
1173 1173 1 0.0 63.98564427748869 693.2536520930355 616.4545453722501 # Ar
1174 1174 1 0.0 608.235119224884 891.2590361175205 610.4517075312514 # Ar
1175 1175 1 0.0 734.5383763348591 526.0510730651862 570.1790776712542 # Ar
1176 1176 1 0.0 143.48883779914394 653.5921034504489 920.024865699255 # Ar
1177 1177 1 0.0 725.618336217781 109.45021427077594 649.7809875124909 # Ar
1178 1178 1 0.0 597.5072788202287 260.69480077475674 795.9139286162366 # Ar
1179 1179 1 0.0 751.9391448711647 244.968484698046 707.180206757734 # Ar
1180 1180 1 0.0 263.7577379712123 327.6633587077302 717.8203263274859 # Ar
1181 1181 1 0.0 817.7905914233672 224.74324955415292 363.623585481412 # Ar
1182 1182 1 0.0 373.2754613683114 442.84619056551816 529.3785538696295 # Ar
1183 1183 1 0.0 670.7665131580039 913.6716844867648 837.8632394801541 # Ar
1184 1184 1 0.0 38.08072776640029 886.5940946252044 891.6723171316492 # Ar
1185 1185 1 0.0 612.192019528781 845.1225491882883 493.7537040817906 # Ar
1186 1186 1 0.0 639.8561718052713 569.0818797411218 898.4182856966086 # Ar
1187 1187 1 0.0 874.7155030217926 187.3319851004428 246.6840157068986 # Ar
1188 1188 1 0.0 522.4498003179467 766.7479083958355 555.9143076765017 # Ar
1189 1189 1 0.0 125.44199765019889 892.0905314177568 646.7807459593156 # Ar
1190 1190 1 0.0 838.3857286651839 553.0536448402352 247.77349420858025 # Ar
1191 1191 1 0.0 549.7773662373296 101.81606833506508 768.8230529079536 # Ar
1192 1192 1 0.0 762.3392033122647 778.2060556456878 593.4459412054102 # Ar
1193 1193 1 0.0 662.5510156457401 495.1100690271075 202.8739089350489 # Ar
1194 1194 1 0.0 718.3295771895737 522.6990662215993 585.0311987710519 # Ar
1195 1195 1 0.0 185.21639868054544 609.3138163460115 363.3591704292988 # Ar
1196 1196 1 0.0 925.1469941227831 499.3635497765357 426.30234967908007 # Ar
1197 1197 1 0.0 836.02331909462 459.31179121313534 56.31213467777622 # Ar
1198 1198 1 0.0 748.8381199761533 226.99314827902396 357.4923186384896 # Ar
1199 1199 1 0.0 787.1817267498126 343.20148489290153 426.95787418510895 # Ar
1200 1200 1 0.0 649.7310131823656 793.088879814044 204.5011128113335 # Ar
1201 1201 1 0.0 710.040718405345 635.7754717111176 178.17702612085574 # Ar
1202 1202 1 0.0 54.802198463370075 64.708419034258 775.6566456694025 # Ar
1203 1203 1 0.0 398.22747788076884 889.0646912735543 68.50821513976454 # Ar
1204 1204 1 0.0 504.60573903855766 353.2859507227561 307.9589619057533 # Ar
1205 1205 1 0.0 880.823445288533 216.3375979417588 107.6382841410614 # Ar
1206 1206 1 0.0 782.4297193081167 640.9688929020577 592.4536995699347 # Ar
1207 1207 1 0.0 148.86689342031517 136.01768772189783 480.3018200793067 # Ar
1208 1208 1 0.0 340.074386343061 168.1617285231237 83.98609265793662 # Ar
1209 1209 1 0.0 173.01613922064226 690.4948898286192 42.287921431298166 # Ar
1210 1210 1 0.0 770.6049947186557 97.93237780665096 133.45967276535072 # Ar
1211 1211 1 0.0 400.539544560149 432.63699938267985 834.1618711167425 # Ar
1212 1212 1 0.0 596.4590106557871 338.87187617454737 505.12318716627357 # Ar
1213 1213 1 0.0 824.1705136396366 833.2678445524922 835.4156360644555 # Ar
1214 1214 1 0.0 889.0277725533784 370.1427559162383 253.4643051746517 # Ar
1215 1215 1 0.0 920.2109421166077 884.7966016925211 545.5235305239308 # Ar
1216 1216 1 0.0 180.82372757197354 270.4439655307992 596.2616043698264 # Ar
1217 1217 1 0.0 810.2668603839888 315.5630062454794 776.5862621444987 # Ar
1218 1218 1 0.0 241.07386170402924 831.6694458285751 149.28566355524586 # Ar
1219 1219 1 0.0 150.43895258963482 915.963270900922 113.54363212438173 # Ar
1220 1220 1 0.0 790.4986249275887 765.9802492517381 192.16037191874008 # Ar
1221 1221 1 0.0 148.32742380093893 670.2588099159105 492.65629197056563 # Ar
1222 1222 1 0.0 412.5950340248392 604.6986961146359 769.3451974583638 # Ar
1223 1223 1 0.0 388.07820871277545 666.2552550594356 142.0042556462864 # Ar
1224 1224 1 0.0 308.771179387136 353.21173112077554 731.8321763824779 # Ar
1225 1225 1 0.0 547.403004289547 8.677145454237957 808.9143378028432 # Ar
1226 1226 1 0.0 514.8698446503635 627.8029956409921 793.9494828850991 # Ar
1227 1227 1 0.0 1.3767067907397597 910.9662200709158 227.49266950239172 # Ar
1228 1228 1 0.0 387.6060494795321 627.8388736197635 874.5625640626619 # Ar
1229 1229 1 0.0 388.70041532272677 694.9153273526134 159.1582270677863 # Ar
1230 1230 1 0.0 84.93611608667752 221.05859418615705 477.0377941208198 # Ar
1231 1231 1 0.0 408.7537674376526 184.4654419559042 524.4315907416307 # Ar
1232 1232 1 0.0 799.2997025456569 844.8297537000352 831.0674620485667 # Ar
1233 1233 1 0.0 212.98985606961986 195.920904909449 602.4505914542857 # Ar
1234 1234 1 0.0 676.9753286648735 70.21482810873806 201.1283613837644 # Ar
1235 1235 1 0.0 877.3034365899581 791.304244442878 332.28062285587066 # Ar
1236 1236 1 0.0 13.895363320431128 460.020291204118 353.19444691906546 # Ar
1237 1237 1 0.0 754.8476872237954 814.4392318876971 733.82822443472 # Ar
1238 1238 1 0.0 420.5900695313459 344.60603288529234 601.239346445618 # Ar
1239 1239 1 0.0 289.6076822960717 626.2606255143345 421.49193384684907 # Ar
1240 1240 1 0.0 626.7372747882454 229.57179489634834 123.32956143381855 # Ar
1241 1241 1 0.0 848.5779001162341 596.9354829392755 804.1218928293596 # Ar
1242 1242 1 0.0 67.02755713419194 847.8819543206007 591.0240055016652 # Ar
1243 1243 1 0.0 133.56055669792363 179.51014124893265 238.54311946956088 # Ar
1244 1244 1 0.0 748.9502982863808 143.43309984500019 658.0920893730872 # Ar
1245 1245 1 0.0 769.1454872697255 771.9782458786445 130.09242572577756 # Ar
1246 1246 1 0.0 359.2426642597956 696.4171291598368 430.77137173765925 # Ar
1247 1247 1 0.0 122.25261942271989 361.33129931859315 506.02470015811383 # Ar
1248 1248 1 0.0 715.3345783364495 383.4049453423628 803.9252237744661 # Ar
1249 1249 1 0.0 159.08117199061954 568.1764899253106 695.4584872577165 # Ar
1250 1250 1 0.0 747.4965440047 752.569847490897 497.7857640675156 # Ar
1251 1251 1 0.0 812.1257146611032 4.8584621823589105 5.769685006231345 # Ar
1252 1252 1 0.0 739.9212608191577 865.7416563904196 329.7837216475792 # Ar
1253 1253 1 0.0 231.9397053388076 77.53101263969835 734.7308119643649 # Ar
1254 1254 1 0.0 900.1253070503653 841.8412127917838 413.1506425483653 # Ar
1255 1255 1 0.0 514.2238759609813 126.62542013867845 528.4901924571805 # Ar
1256 1256 1 0.0 475.8186292098215 694.586488207704 631.5573726740781 # Ar
1257 1257 1 0.0 514.3724746286834 46.53218347850314 203.8776990264977 # Ar
1258 1258 1 0.0 494.0716973346917 715.862564214166 399.95270816952626 # Ar
1259 1259 1 0.0 265.99317858698436 637.5182351067864 581.2425835833128 # Ar
1260 1260 1 0.0 234.76115505294663 85.11200592747485 374.0984305554601 # Ar
1261 1261 1 0.0 373.4435095277484 673.2486616184572 804.1175945332042 # Ar
1262 1262 1 0.0 737.5290179323607 70.20242756323826 537.8231204931059 # Ar
1263 1263 1 0.0 197.15237876637968 437.69849024066815 819.3890896964355 # Ar
1264 1264 1 0.0 565.5384879224482 311.3725269749999 5.355257284110097 # Ar
1265 1265 1 0.0 180.63044391802876 421.58524462622995 134.47404495519018 # Ar
1266 1266 1 0.0 3.525789862116756 510.5321856697113 754.2895410975101 # Ar
1267 1267 1 0.0 6.528458475997893 268.7920762646814 567.0225563095827 # Ar
1268 1268 1 0.0 330.06130546700336 107.98795688169743 294.80322088779843 # Ar
1269 1269 1 0.0 125.98770939426662 23.469073464720168 590.030070288721 # Ar
1270 1270 1 0.0 306.44723489687823 66.13290110425623 733.9988636129809 # Ar
1271 1271 1 0.0 834.78566661578 245.1639778943442 736.4268355199283 # Ar
1272 1272 1 0.0 569.9903425878199 928.5045475973857 397.71042234417666 # Ar
1273 1273 1 0.0 514.675182036493 317.96823512452255 881.7347104973849 # Ar
1274 1274 1 0.0 78.74617886794094 828.7972485509398 216.9263649391037 # Ar
1275 1275 1 0.0 237.845603335093 897.4276091737703 766.2322177021186 # Ar
1276 1276 1 0.0 73.75228370214278 724.7994922132709 692.9293788961139 # Ar
1277 1277 1 0.0 929.3610478639529 167.68452956920606 532.0774933144054 # Ar
1278 1278 1 0.0 885.7579838828739 367.70452840353283 24.565408089864256 # Ar
1279 1279 1 0.0 732.1174872600836 143.3409276576065 439.2748608845549 # Ar
1280 1280 1 0.0 914.2194346038765 490.0606329458996 169.4182414989799 # Ar
1281 1281 1 0.0 96.40737339992015 577.7150988974303 554.6822253598525 # Ar
1282 1282 1 0.0 330.5963960210025 400.74309350451193 158.93814231883388 # Ar
1283 1283 1 0.0 525.6266182721528 550.4934313152057 739.3406660535279 # Ar
1284 1284 1 0.0 590.7821380160484 20.41655562358588 433.1379434079175 # Ar
1285 1285 1 0.0 219.4529273742735 207.62108314757538 73.15496394940057 # Ar
1286 1286 1 0.0 810.0246714819942 40.79045659466999 487.32179591131967 # Ar
1287 1287 1 0.0 283.9879653228435 331.5287190462272 432.15277823181214 # Ar
1288 1288 1 0.0 621.112044058799 193.1776840130616 19.54239371415756 # Ar
1289 1289 1 0.0 580.9963445068274 903.1221076032499 370.73101270738636 # Ar
1290 1290 1 0.0 363.9329974649681 60.32086288055335 905.5047408923436 # Ar
1291 1291 1 0.0 187.95287210647078 443.0562134524636 402.9168634836465 # Ar
1292 1292 1 0.0 122.79420149867893 785.2291781407037 72.91006596108205 # Ar
1293 1293 1 0.0 920.1539238149708 340.3656662964089 389.0217445329837 # Ar
1294 1294 1 0.0 757.5554085786806 186.19252451245512 41.01336724246384 # Ar
1295 1295 1 0.0 666.706918017468 712.5068459686664 203.5255107210528 # Ar
1296 1296 1 0.0 799.6013843158848 860.1043250051283 358.25181754265935 # Ar
1297 1297 1 0.0 94.58963598508839 78.5110853612649 292.4580123898858 # Ar
1298 1298 1 0.0 557.4546637350625 439.940816425001 719.8135589643587 # Ar
1299 1299 1 0.0 53.274009094724384 755.150856505826 572.7929419012698 # Ar
1300 1300 1 0.0 548.1171171563788 877.61968317139 59.70607473340945 # Ar
1301 1301 1 0.0 275.0985976003098 616.390162698102 704.3630055411237 # Ar
1302 1302 1 0.0 447.1966654455423 534.4935659818652 884.9100173739852 # Ar
1303 1303 1 0.0 291.05203456351603 772.1299433209758 579.6426366773055 # Ar
1304 1304 1 0.0 183.53507979525818 862.4513472861311 755.3077253524233 # Ar
1305 1305 1 0.0 702.2884827330967 301.4912896011089 204.28580631511622 # Ar
1306 1306 1 0.0 844.3083894367916 209.8417059512023 297.35932251389323 # Ar
1307 1307 1 0.0 160.54462262041895 262.1481526187382 362.6386958423707 # Ar
1308 1308 1 0.0 114.17572878185855 629.7599732742409 29.18240092665249 # Ar
1309 1309 1 0.0 697.4628526576041 329.7181394826753 698.2894148998438 # Ar
1310 1310 1 0.0 642.3812070113925 121.56212458287169 250.3225733689231 # Ar
1311 1311 1 0.0 24.894838102992164 441.2935948195279 486.4378168495686 # Ar
1312 1312 1 0.0 924.0390550962675 768.1509591217862 409.825724641764 # Ar
1313 1313 1 0.0 907.6548726503476 673.3020030206527 882.7960572427382 # Ar
1314 1314 1 0.0 837.264028062167 491.23490232897274 434.7288658451952 # Ar
1315 1315 1 0.0 815.1973386719002 267.1373322623796 8.608120375085871 # Ar
1316 1316 1 0.0 62.862637013041976 62.959711686116336 13.383202350048196 # Ar
1317 1317 1 0.0 75.46757298295975 379.62103316729076 500.6953517939141 # Ar
1318 1318 1 0.0 189.10387483667023 73.53238073803962 336.22637818785415 # Ar
1319 1319 1 0.0 332.39900586194284 860.5896477479181 321.67823333239886 # Ar
1320 1320 1 0.0 366.15608516825716 390.89076669548774 908.2886714917619 # Ar
1321 1321 1 0.0 88.0103431443689 684.621624852589 121.30059816035113 # Ar
1322 1322 1 0.0 566.520945955043 889.4178931294717 887.6642929985233 # Ar
1323 1323 1 0.0 72.18098322294205 183.66420616276682 440.94141979162214 # Ar
1324 1324 1 0.0 793.3566341884879 430.04724605106355 392.874911142464 # Ar
1325 1325 1 0.0 99.19401085522688 877.8997701304111 658.3117802497705 # Ar
1326 1326 1 0.0 467.4681221692058 462.5413071769675 349.7426590937313 # Ar
1327 1327 1 0.0 786.9519946897518 508.5502620493424 438.058731442545 # Ar
1328 1328 1 0.0 523.6957638141185 819.1553265699816 574.1471019736608 # Ar
1329 1329 1 0.0 169.94556253148028 725.2330493615272 600.4609972838364 # Ar
1330 1330 1 0.0 195.44188643092983 569.7480297228445 482.94871488058857 # Ar
1331 1331 1 0.0 218.7710856371764 354.26813741856006 835.4983915227517 # Ar
1332 1332 1 0.0 37.221584266526534 240.0064988666223 717.1901278738849 # Ar
1333 1333 1 0.0 366.80603794877453 87.10920126578277 21.899749178059622 # Ar
1334 1334 1 0.0 694.7179996851835 581.8374483942329 78.27261590744068 # Ar
1335 1335 1 0.0 775.1127876554199 181.22275254437605 143.43439411266382 # Ar
1336 1336 1 0.0 569.5876592815473 12.529544837990192 742.321347251665 # Ar
1337 1337 1 0.0 934.8264214786298 819.3147233520696 764.15037938697 # Ar
1338 1338 1 0.0 252.83545134765126 817.4132305166746 73.63081526383604 # Ar
1339 1339 1 0.0 626.6454553479178 48.236598938526114 880.0060402850968 # Ar
1340 1340 1 0.0 383.1017525367837 153.93445219037716 710.9067999561752 # Ar
1341 1341 1 0.0 24.779157449699696 543.968985374047 113.088904406144 # Ar
1342 1342 1 0.0 470.5379652433672 509.2290203629561 886.3848629663447 # Ar
1343 1343 1 0.0 83.2718431709652 711.2964123180892 341.8683243052491 # Ar
1344 1344 1 0.0 350.75069564902014 81.00468836665216 483.6976534481657 # Ar
1345 1345 1 0.0 605.504516333998 775.015619821741 14.92509633344807 # Ar
1346 1346 1 0.0 436.90213855083744 638.028896037001 483.6859215726901 # Ar
1347 1347 1 0.0 190.3241595025705 182.19403493740617 274.8868142026792 # Ar
1348 1348 1 0.0 494.4585927167053 87.6311407298756 0.08849764160675035 # Ar
1349 1349 1 0.0 363.29827923015023 137.7102332524241 713.2191954750481 # Ar
1350 1350 1 0.0 145.9867482470199 167.99051665019846 98.03964077805661 # Ar
1351 1351 1 0.0 829.5755650439328 925.2536802012995 856.579447852215 # Ar
1352 1352 1 0.0 164.55119092553593 608.8145903872137 665.6787071130859 # Ar
1353 1353 1 0.0 727.9246579042932 270.7920834558497 188.44469297999117 # Ar
1354 1354 1 0.0 199.89044619507786 368.16079524526987 859.6752457076676 # Ar
1355 1355 1 0.0 473.3138466456376 558.4057964077188 562.9075730321018 # Ar
1356 1356 1 0.0 914.0358841689194 578.5133975730691 722.251196006972 # Ar
1357 1357 1 0.0 203.8065652845339 95.79646797954929 86.07173646007485 # Ar
1358 1358 1 0.0 188.7592802524595 556.3432677444747 427.37880434898426 # Ar
1359 1359 1 0.0 723.5004313444205 776.8972893812148 174.64892812137685 # Ar
1360 1360 1 0.0 708.4761928010643 825.4913349871676 54.89419505034545 # Ar
1361 1361 1 0.0 58.01796163781746 321.5260901464235 524.1077790874331 # Ar
1362 1362 1 0.0 837.5976036264356 615.6244340276385 756.2883094675707 # Ar
1363 1363 1 0.0 386.7225281171107 527.3908094301847 493.08782424294156 # Ar
1364 1364 1 0.0 594.2440483638965 869.5852575969699 513.5816584678472 # Ar
1365 1365 1 0.0 720.9265695119244 736.8964650199067 741.5317039026367 # Ar
1366 1366 1 0.0 443.0561486411862 337.34875968659765 911.3013556412607 # Ar
1367 1367 1 0.0 857.8825552274111 137.0826332555082 111.69233625087696 # Ar
1368 1368 1 0.0 855.7766291403148 236.48643136707358 14.759946194309 # Ar
1369 1369 1 0.0 718.6075182853532 109.17993985221467 370.82531499367917 # Ar
1370 1370 1 0.0 215.98939314866132 206.63255408804088 508.0920302376497 # Ar
1371 1371 1 0.0 889.9442527711745 571.5390707822205 312.9489072585644 # Ar
1372 1372 1 0.0 228.86972369859004 449.5671471890663 764.7231137983249 # Ar
1373 1373 1 0.0 588.9403981207879 139.5511701952058 314.67827334869077 # Ar
1374 1374 1 0.0 817.2947232539859 274.29511890479 546.7224459800551 # Ar
1375 1375 1 0.0 218.8799079842676 904.27523608413 905.9469369725476 # Ar
1376 1376 1 0.0 843.8132276195902 688.6670710234785 219.45335088154286 # Ar
1377 1377 1 0.0 788.6847993038309 809.1686268470346 172.44087067395066 # Ar
1378 1378 1 0.0 788.4810826306892 873.6354911559887 347.31567930539325 # Ar
1379 1379 1 0.0 290.1176982795365 133.45287893754966 927.4236814641853 # Ar
1380 1380 1 0.0 162.9780970644957 49.151253921139684 918.0487572076993 # Ar
1381 1381 1 0.0 656.9983715432267 835.8648047962283 442.92041649621734 # Ar
1382 1382 1 0.0 774.6167019537063 329.7365604934108 473.6455857730075 # Ar
1383 1383 1 0.0 659.9332171423066 436.21383955609605 670.3232242130782 # Ar
1384 1384 1 0.0 692.8931259937754 68.59103338890165 538.4176511542516 # Ar
1385 1385 1 0.0 391.7508371174065 479.11363644092694 414.5554909642283 # Ar
1386 1386 1 0.0 287.9614182763308 327.2212227125654 560.8429180411456 # Ar
1387 1387 1 0.0 45.117297048595795 240.7348465039237 358.50451289816004 # Ar
1388 1388 1 0.0 756.7905053366333 182.46305474599072 373.03442157865976 # Ar
1389 1389 1 0.0 588.9340209701892 712.7906779381501 850.0847289056356 # Ar
1390 1390 1 0.0 180.34892373504357 396.5563699369369 384.25186904046967 # Ar
1391 1391 1 0.0 607.9036715355727 479.04509214547477 721.2218962964573 # Ar
1392 1392 1 0.0 505.8146377461533 807.3122333455638 358.30348465075593 # Ar
1393 1393 1 0.0 851.7094224387841 675.1718712461492 924.1706545289393 # Ar
1394 1394 1 0.0 733.989309072713 605.5073682813671 71.8626105037582 # Ar
1395 1395 1 0.0 525.5536629393791 887.5884935266419 255.54026366071542 # Ar
1396 1396 1 0.0 46.22525319006709 152.2083203022147 290.13387054404313 # Ar
1397 1397 1 0.0 365.2801962980388 542.4866245340596 823.0926112376519 # Ar
1398 1398 1 0.0 296.05056636448506 494.47946578755125 223.14297776263476 # Ar
1399 1399 1 0.0 616.7636755474342 216.37741357048967 652.0728966869975 # Ar
1400 1400 1 0.0 451.7433213874047 712.3970567003685 889.8988065389867 # Ar
1401 1401 1 0.0 124.53352819130686 407.5077773436757 450.1373282468071 # Ar
1402 1402 1 0.0 356.8711997787799 219.47622094368737 741.3034169560128 # Ar
1403 1403 1 0.0 729.8448483311527 575.9398511777933 155.65118071008217 # Ar
1404 1404 1 0.0 784.146018746554 610.8345723704263 207.08003342620933 # Ar
1405 1405 1 0.0 208.86963425242112 877.2066293890232 101.32696450749951 # Ar
1406 1406 1 0.0 513.8669747678964 101.71172122463082 574.3687583564483 # Ar
1407 1407 1 0.0 618.6713912581698 386.63085292713447 274.10409672784175 # Ar
1408 1408 1 0.0 485.77799986618334 745.1246967780535 463.36701466043013 # Ar
1409 1409 1 0.0 914.4676676032486 129.83089729611154 348.22923784881175 # Ar
1410 1410 1 0.0 890.6806716620649 165.5545417646841 399.4032100280894 # Ar
1411 1411 1 0.0 401.7142334865809 100.26923535923694 60.740672919046204 # Ar
1412 1412 1 0.0 763.3489328079046 846.0696474985473 694.8147555405261 # Ar
1413 1413 1 0.0 508.1795409992711 144.60949995348136 773.776576337947 # Ar
1414 1414 1 0.0 62.64856460141199 638.9477912496385 519.278802582623 # Ar
1415 1415 1 0.0 284.14643681627444 396.1194727525765 30.15333859686603 # Ar
1416 1416 1 0.0 787.6159609621069 115.89912255055637 546.3361821521206 # Ar
1417 1417 1 0.0 123.64681432681967 797.0764102062615 132.40316346429498 # Ar
1418 1418 1 0.0 434.98212953908694 239.50171225535146 928.8722151958525 # Ar
1419 1419 1 0.0 260.75710542903084 488.4682427731985 28.21380233417496 # Ar
1420 1420 1 0.0 722.424629193017 673.6840457728797 252.7729110564557 # Ar
1421 1421 1 0.0 6.3061037526182835 857.248537354685 613.3393469658798 # Ar
1422 1422 1 0.0 160.97233940389575 194.65424829062133 45.166684370417315 # Ar
1423 1423 1 0.0 58.89577554579908 93.3332302846298 913.4455586314299 # Ar
1424 1424 1 0.0 594.7574695885095 445.7695608930259 380.5148218541676 # Ar
1425 1425 1 0.0 485.609548925426 409.0074081902216 95.60907613732822 # Ar
1426 1426 1 0.0 905.864694448032 255.06348031361716 205.87058280385352 # Ar
1427 1427 1 0.0 746.6848797630065 606.1920233157115 201.6896177662287 # Ar
1428 1428 1 0.0 771.2998349430479 897.1866116851696 519.5972257699004 # Ar
1429 1429 1 0.0 663.869520954413 562.2356045461252 3.7481320717724906 # Ar
1430 1430 1 0.0 540.0025045799734 498.38961369848096 487.7544282403205 # Ar
1431 1431 1 0.0 226.37663217743687 304.0175678470644 373.19451019025166 # Ar
1432 1432 1 0.0 863.6473479117313 501.9063060417352 855.1010556598831 # Ar
1433 1433 1 0.0 783.1189267930064 76.05490161209765 396.5616203225627 # Ar
1434 1434 1 0.0 816.4079193694708 295.5136976990517 932.3753179866511 # Ar
1435 1435 1 0.0 724.730543679941 672.2071834086313 554.2896262486038 # Ar
1436 1436 1 0.0 621.4199217819303 811.5738276472342 819.6382988241143 # Ar
1437 1437 1 0.0 69.54961274844518 303.86455992931303 327.98909235287226 # Ar
1438 1438 1 0.0 89.73658226023805 633.4624170289698 872.7936688280365 # Ar
1439 1439 1 0.0 812.3332284185042 491.064697392958 591.5487213684006 # Ar
1440 1440 1 0.0 787.9832965946531 580.3665471986965 459.6031175208571 # Ar
1441 1441 1 0.0 513.7225208364314 349.14503831508716 403.1323842449492 # Ar
1442 1442 1 0.0 138.5543420976141 727.2714542902482 605.8407299241142 # Ar
1443 1443 1 0.0 209.4664174079231 710.8881586653192 191.11975311517153 # Ar
1444 1444 1 0.0 762.9990601431585 864.8677717380074 148.42569221849212 # Ar
1445 1445 1 0.0 615.5679089202198 681.4667108362322 298.7693429737983 # Ar
1446 1446 1 0.0 905.1436660580314 226.97715010852323 11.887767799701344 # Ar
1447 1447 1 0.0 42.12267297620683 60.52566899950972 390.2252833377555 # Ar
1448 1448 1 0.0 557.0711891214357 574.1673896594584 836.4466523752973 # Ar
1449 1449 1 0.0 198.33297579632358 919.3912488040496 840.421535463323 # Ar
1450 1450 1 0.0 53.52259385302841 825.3131521968734 179.0801419643463 # Ar
1451 1451 1 0.0 413.39854093786334 674.9845479439164 360.85242036440263 # Ar
1452 1452 1 0.0 402.54869032551807 436.3116756974939 702.8320682488487 # Ar
1453 1453 1 0.0 740.1076402996989 15.80300819740577 671.3212960572635 # Ar
1454 1454 1 0.0 534.8300289755246 881.1298741001399 180.34934225797318 # Ar
1455 1455 1 0.0 824.0719594256593 62.79195130418378 570.2419258761449 # Ar
1456 1456 1 0.0 589.3306380768415 326.3695441944195 402.1671186207735 # Ar
1457 1457 1 0.0 780.2135180523296 661.6618335351076 239.16548113509387 # Ar
1458 1458 1 0.0 380.7815049906952 368.09306200758215 482.75583238335435 # Ar
1459 1459 1 0.0 202.26150823012074 14.747985850828485 262.6617806140967 # Ar
1460 1460 1 0.0 322.45325847635604 524.5354978848371 826.4631889769998 # Ar
1461 1461 1 0.0 733.1164454271432 17.234876790985517 772.7903987740644 # Ar
1462 1462 1 0.0 722.0951908016708 611.9051644163968 638.6654708482281 # Ar
1463 1463 1 0.0 460.2379123040523 27.512768257931025 640.8735551983209 # Ar
1464 1464 1 0.0 197.28951576601617 131.7369869274004 292.9566989678019 # Ar
1465 1465 1 0.0 782.5708829801166 249.54362209692846 403.49816242344525 # Ar
1466 1466 1 0.0 857.8923037353005 829.9499341720198 51.00631525850067 # Ar
1467 1467 1 0.0 517.3833914534649 545.4431274982171 670.7858289981376 # Ar
1468 1468 1 0.0 276.80361912746525 150.47133695297305 795.6804899368044 # Ar
1469 1469 1 0.0 592.8812418699564 354.2367312211498 398.8539199011213 # Ar
1470 1470 1 0.0 762.5556245157603 697.1167251788116 433.81422731123973 # Ar
1471 1471 1 0.0 29.241125656330137 61.188179736440084 431.33714913109054 # Ar
1472 1472 1 0.0 694.9537411410454 100.96031480043787 888.2652799044438 # Ar
1473 1473 1 0.0 102.83367615654522 221.67812080559088 354.441981994916 # Ar
1474 1474 1 0.0 923.8791628093862 913.139428935767 821.142874532545 # Ar
1475 1475 1 0.0 33.27819484623773 304.60967676948536 794.9523555317903 # Ar
1476 1476 1 0.0 256.8145096434584 667.9868641576846 499.91592582334033 # Ar
1477 1477 1 0.0 189.21484354567198 603.9573675326333 806.9497001613071 # Ar
1478 1478 1 0.0 105.25157152016833 774.4895909902793 114.53147087624292 # Ar
1479 1479 1 0.0 124.07287913780512 339.93571748645087 253.4290800885377 # Ar
1480 1480 1 0.0 263.6741539460545 698.6429346299618 139.09010856580747 # Ar
1481 1481 1 0.0 780.9282277880247 150.81746453566362 298.49949819387325 # Ar
1482 1482 1 0.0 52.619792591698676 676.4789597500504 643.2346406498963 # Ar
1483 1483 1 0.0 593.8937120473662 424.1128295223956 573.521269773807 # Ar
1484 1484 1 0.0 390.6519900142348 366.9030866878542 467.9526549681047 # Ar
1485 1485 1 0.0 603.5207217687505 703.6075847825468 326.22579631871747 # Ar
1486 1486 1 0.0 921.4691626782057 631.2500327259254 873.6657170606014 # Ar
1487 1487 1 0.0 1.15577737356831 615.6589148712746 597.8369590000536 # Ar
1488 1488 1 0.0 299.24793790937713 353.3295969557756 584.1338494755823 # Ar
1489 1489 1 0.0 696.3801153989232 782.992917542795 71.73621020043652 # Ar
1490 1490 1 0.0 522.5655489865862 550.6986784300934 218.33983476552748 # Ar
1491 1491 1 0.0 21.643258094340244 900.7966244803449 344.3397280387445 # Ar
1492 1492 1 0.0 149.67213431781272 439.5984447687724 565.5181656167877 # Ar
1493 1493 1 0.0 383.54643209199713 46.268081838870415 927.323034822178 # Ar
1494 1494 1 0.0 887.8116480711345 700.475927947433 556.0461299424821 # Ar
1495 1495 1 0.0 833.1918146888363 192.7557610528146 826.2299051326409 # Ar
1496 1496 1 0.0 566.2888307671666 588.4285326875289 905.8161601503635 # Ar
1497 1497 1 0.0 782.5617342435329 442.0920487162223 150.88504878142808 # Ar
1498 1498 1 0.0 683.8850934001146 122.26715641590071 345.09379678025897 # Ar
1499 1499 1 0.0 418.81336379512845 525.2761666646693 895.4814611009494 # Ar
1500 1500 1 0.0 228.80472981301895 360.6181073515958 513.9678624917755 # Ar
1501 1501 1 0.0 663.9114609949889 931.7721031995621 592.1208772734972 # Ar
1502 1502 1 0.0 720.1500390950001 696.9662182153764 822.3860617453838 # Ar
1503 1503 1 0.0 642.0798877298993 69.0433842969605 548.4244503519452 # Ar
1504 1504 1 0.0 799.5038986440633 70.53765104291884 297.3137700450576 # Ar
1505 1505 1 0.0 140.5845030732125 745.8694905777649 158.03360309547764 # Ar
1506 1506 1 0.0 184.87649284758706 435.29378093407615 441.79467976632014 # Ar
1507 1507 1 0.0 115.69652020762878 532.4356605629703 643.006804877146 # Ar
1508 1508 1 0.0 381.03988904760115 389.2916152264029 195.8849986260369 # Ar
1509 1509 1 0.0 323.615216210967 686.968572121628 429.301421668766 # Ar
1510 1510 1 0.0 248.86771882185406 316.5959238111118 54.684354897436975 # Ar
1511 1511 1 0.0 11.272386140072529 798.9641618328443 792.8799973763813 # Ar
1512 1512 1 0.0 361.93804102568896 850.5439438207588 353.48627333702007 # Ar
1513 1513 1 0.0 731.4855602989599 798.9475546147416 759.5041434654883 # Ar
1514 1514 1 0.0 386.49429269985984 799.3210651303567 90.64415055435828 # Ar
1515 1515 1 0.0 532.6466071097204 667.2620478653777 667.9270095418753 # Ar
1516 1516 1 0.0 348.27612081161 15.569326202610453 287.6190077884148 # Ar
1517 1517 1 0.0 454.2640351293378 483.3417247286585 222.932194570612 # Ar
1518 1518 1 0.0 250.81047614287075 661.906211974597 468.91678210549634 # Ar
1519 1519 1 0.0 548.2748566945784 651.934142281473 528.6582086738424 # Ar
1520 1520 1 0.0 739.8616249699021 908.8997350959604 508.42323646805363 # Ar
1521 1521 1 0.0 506.35324989177934 83.39737080046326 530.4293592456469 # Ar
1522 1522 1 0.0 787.0089720769809 143.19596695527505 264.08867665663706 # Ar
1523 1523 1 0.0 832.2066798102123 886.8639164434418 481.61041503900867 # Ar
1524 1524 1 0.0 159.22139125240747 585.0508912583041 424.6437423348155 # Ar
1525 1525 1 0.0 444.42764500503085 666.92108193186 577.5610437581325 # Ar
1526 1526 1 0.0 828.9139941545473 599.1742899514453 560.1279631146041 # Ar
1527 1527 1 0.0 635.8233535327252 495.9434201449641 149.41742378192862 # Ar
1528 1528 1 0.0 217.64386006615675 869.0421671580207 594.7077439345097 # Ar
1529 1529 1 0.0 475.03104444017373 384.46199972157837 45.63750382394355 # Ar
1530 1530 1 0.0 419.24098393498133 910.1489697068583 333.82032085862085 # Ar
1531 1531 1 0.0 108.4583738639442 892.9170294197871 903.5272857159613 # Ar
1532 1532 1 0.0 123.63649451370475 240.02920527103018 69.71064291677982 # Ar
1533 1533 1 0.0 705.2442037592843 303.36789488438046 895.9021143360388 # Ar
1534 1534 1 0.0 629.2997846842181 734.9147847709279 529.2328305395096 # Ar
1535 1535 1 0.0 729.7025780370432 130.47035489075623 343.9357898489783 # Ar
1536 1536 1 0.0 390.49296596900393 325.81317385424705 82.52732376793666 # Ar
1537 1537 1 0.0 105.17311109591284 253.85945301189724 918.5697408971673 # Ar
1538 1538 1 0.0 746.3844740861747 867.7412578061302 395.16612892549324 # Ar
1539 1539 1 0.0 96.41040961946267 738.3265754113384 256.7671407789568 # Ar
1540 1540 1 0.0 86.11831344841114 693.6755031992873 201.27242594767918 # Ar
1541 1541 1 0.0 125.82033082610904 638.1299809800289 832.1968611141832 # Ar
1542 1542 1 0.0 26.93208791255529 396.20494365148556 38.92320362349452 # Ar
1543 1543 1 0.0 538.0456583144766 612.6669677551326 361.49850742870154 # Ar
1544 1544 1 0.0 282.16131700912115 815.7997231396901 51.82194492216543 # Ar
1545 1545 1 0.0 698.912986667528 774.5687986947094 278.96270695712747 # Ar
1546 1546 1 0.0 600.0494680212292 196.91539459242134 528.466001158298 # Ar
1547 1547 1 0.0 424.1830099223254 47.8333137373222 190.39095456070723 # Ar
1548 1548 1 0.0 643.8609699705356 634.3490168482394 290.94963965703073 # Ar
1549 1549 1 0.0 407.63395081401984 501.2422509557461 723.4318141205175 # Ar
1550 1550 1 0.0 162.45034326109803 147.9297838769473 448.29530995218227 # Ar
1551 1551 1 0.0 434.8596445410646 58.72262728633953 233.32493134097652 # Ar
1552 1552 1 0.0 478.5592348333551 153.2900081138509 403.3114131536284 # Ar
1553 1553 1 0.0 196.2412144311597 173.64902260986042 536.9174262053367 # Ar
1554 1554 1 0.0 382.2912512243342 850.0956121699049 436.53188148663514 # Ar
1555 1555 1 0.0 78.36399060274977 762.1980742212271 503.379724912092 # Ar
1556 1556 1 0.0 359.1716099974936 98.63578338849364 570.3544349787686 # Ar
1557 1557 1 0.0 862.3204407117669 553.6841298679501 340.96107540557625 # Ar
1558 1558 1 0.0 536.7610880977701 147.48880186761042 350.12442982071434 # Ar
1559 1559 1 0.0 557.3690334927826 697.1187822804321 373.436469275359 # Ar
1560 1560 1 0.0 815.3976214784124 162.38122329878377 526.7107852870264 # Ar
1561 1561 1 0.0 819.6620598731693 233.36176245050643 457.4776797023149 # Ar
1562 1562 1 0.0 422.7409615999152 377.460259637419 244.57639243850502 # Ar
1563 1563 1 0.0 128.16294689623658 236.61370592121548 261.0496907153362 # Ar
1564 1564 1 0.0 260.6042226200998 281.46899751426656 439.1173247274023 # Ar
1565 1565 1 0.0 614.6533789127582 155.54789147478826 322.96430737696335 # Ar
1566 1566 1 0.0 377.78997433770405 453.6225136690881 200.99354076884342 # Ar
1567 1567 1 0.0 770.489890490366 513.4758000533031 408.4567073251376 # Ar
1568 1568 1 0.0 352.4235615430316 321.81112027303647 535.4646887262066 # Ar
1569 1569 1 0.0 389.48012264780044 234.95486000071503 697.4424852701184 # Ar
1570 1570 1 0.0 817.5693777305321 225.87989868270603 668.1793507057123 # Ar
1571 1571 1 0.0 419.29283904835836 681.7891801929377 624.4274636722361 # Ar
1572 1572 1 0.0 582.8560893376902 413.5459735971233 370.1769961525385 # Ar
1573 1573 1 0.0 743.0106452090242 380.4813457475506 488.3386944514182 # Ar
1574 1574 1 0.0 550.586359772157 7.714407321878716 551.0689559291732 # Ar
1575 1575 1 0.0 37.76526414621105 744.5851506570824 652.5937479059907 # Ar
1576 1576 1 0.0 375.2801852500475 522.1139354684133 161.8585625049427 # Ar
1577 1577 1 0.0 192.2342198192293 279.7093835802159 624.299337645107 # Ar
1578 1578 1 0.0 728.6557109618853 801.2175215224931 592.2412981458416 # Ar
1579 1579 1 0.0 826.499643429959 708.7575141130603 931.7923758726105 # Ar
1580 1580 1 0.0 173.6238524644756 322.27212388782755 155.68959087106663 # Ar
1581 1581 1 0.0 335.2370929332707 571.2079879644548 535.9965967361397 # Ar
1582 1582 1 0.0 174.66472548162128 571.5658300788585 930.0192305857591 # Ar
1583 1583 1 0.0 923.4035640540785 916.5545657031239 715.7072419653641 # Ar
1584 1584 1 0.0 782.0926970629563 256.99842683128315 218.5486385820994 # Ar
1585 1585 1 0.0 148.6986596911018 20.071938908427647 871.9676482218555 # Ar
1586 1586 1 0.0 426.68512684265085 694.3443651369321 74.77060819154562 # Ar
1587 1587 1 0.0 140.13328081415372 45.3322150707174 31.33170599132791 # Ar
1588 1588 1 0.0 259.53665576851745 773.3972683892424 374.90591648042897 # Ar
1589 1589 1 0.0 876.3203010860151 922.6825565201428 371.800427089126 # Ar
1590 1590 1 0.0 745.991492754817 801.1022399908719 282.85699031541606 # Ar
1591 1591 1 0.0 697.2419381033365 680.5576248641644 676.8237321446292 # Ar
1592 1592 1 0.0 615.2351075131718 777.2075487077767 445.31608968285656 # Ar
1593 1593 1 0.0 800.5366539299283 120.61869762887633 397.54924548828654 # Ar
1594 1594 1 0.0 559.7726823499447 11.505011033017686 242.7932340507354 # Ar
1595 1595 1 0.0 101.00931243126549 523.1592508348476 270.41697701584917 # Ar
1596 1596 1 0.0 379.9740144691196 537.3477891558455 445.86136872251814 # Ar
1597 1597 1 0.0 79.28576081022423 556.9748793242408 112.68553290387283 # Ar
1598 1598 1 0.0 656.1541785454506 618.4981135865545 489.17165257920453 # Ar
1599 1599 1 0.0 495.9019183339561 887.0902973653624 853.2450097092177 # Ar
1600 1600 1 0.0 249.44535544499146 454.0550320412637 87.41322321535118 # Ar
1601 1601 1 0.0 512.2026113261184 496.15786710655823 473.71857987589493 # Ar
1602 1602 1 0.0 595.2170291713118 86.8577772879961 850.4570904701529 # Ar
1603 1603 1 0.0 232.48654357094907 164.50559991489604 650.6811133396461 # Ar
1604 1604 1 0.0 276.08763273166977 596.0863907544702 138.76536562940632 # Ar
1605 1605 1 0.0 264.4373574006546 244.61040884195103 906.2845415492011 # Ar
1606 1606 1 0.0 434.61161331379265 208.95780401528117 878.8153995324022 # Ar
1607 1607 1 0.0 144.50346214040192 361.3605844122334 772.6663023741141 # Ar
1608 1608 1 0.0 638.3839328866978 592.8385319014429 411.9239140390851 # Ar
1609 1609 1 0.0 598.410884713452 408.37124055527875 425.58208641103124 # Ar
1610 1610 1 0.0 733.8630072797639 57.85843232552318 279.36494017610056 # Ar
1611 1611 1 0.0 585.2783544304087 389.8497354846761 867.5245138136987 # Ar
1612 1612 1 0.0 923.2163824661953 622.6770216737864 118.31292308624565 # Ar
1613 1613 1 0.0 127.21550121418062 26.97820330896417 454.28750891890803 # Ar
1614 1614 1 0.0 446.33569117768127 125.27825616145705 738.9659325538341 # Ar
1615 1615 1 0.0 352.5364845757928 835.270983628593 633.9438534575343 # Ar
1616 1616 1 0.0 10.314958048744131 98.43659771958524 727.9927329053271 # Ar
1617 1617 1 0.0 858.1060258548625 376.9540142049108 274.84476145979096 # Ar
1618 1618 1 0.0 443.38590669322065 120.69319413482361 560.2333561601552 # Ar
1619 1619 1 0.0 218.30283026860414 153.8972377622247 133.86370499704955 # Ar
1620 1620 1 0.0 477.10915637835217 164.86046889751702 200.47031312743576 # Ar
1621 1621 1 0.0 51.76578642606895 672.9362526052531 418.89604044383753 # Ar
1622 1622 1 0.0 14.943181745460643 425.60184581919236 319.2387153459579 # Ar
1623 1623 1 0.0 932.4580307274638 775.446990926101 381.66927347059675 # Ar
1624 1624 1 0.0 784.6261738236655 860.2365098701232 896.2397502637771 # Ar
1625 1625 1 0.0 302.4451493906358 816.5672703639419 836.8703847763194 # Ar
1626 1626 1 0.0 765.64594168362 608.9818369490805 753.6456613367216 # Ar
1627 1627 1 0.0 605.6772156870794 839.0229850932076 233.9260417315977 # Ar
1628 1628 1 0.0 593.4222824793364 375.5350569203519 447.522258761319 # Ar
1629 1629 1 0.0 311.56272400623794 402.1437903110775 508.58074967929326 # Ar
1630 1630 1 0.0 232.02794558611984 35.435713473975596 110.16055952142277 # Ar
1631 1631 1 0.0 711.4901798799389 469.151919593205 839.7375089449644 # Ar
1632 1632 1 0.0 541.6655727772938 100.22161977875422 705.9884735176727 # Ar
1633 1633 1 0.0 110.86820708430409 836.9700914517164 761.5740152476958 # Ar
1634 1634 1 0.0 933.4241286005523 609.0316223664822 398.05902401999714 # Ar
1635 1635 1 0.0 618.3355744284886 585.5452432979713 95.75932856742831 # Ar
1636 1636 1 0.0 649.5657028996379 205.92454234273677 772.0239846610356 # Ar
1637 1637 1 0.0 684.8642647293455 902.819735381157 800.0699748258627 # Ar
1638 1638 1 0.0 46.11531403547925 125.37255187846195 181.76229478677297 # Ar
1639 1639 1 0.0 136.10960189623904 27.434858003979414 278.91746171627744 # Ar
1640 1640 1 0.0 414.5202551710686 166.3042894875683 193.8435205709013 # Ar
1641 1641 1 0.0 141.5750707482293 695.7326869420783 339.4849452320221 # Ar
1642 1642 1 0.0 606.9956395396399 593.8461589093955 389.0772935731173 # Ar
1643 1643 1 0.0 6.6679605470690175 312.4423450523485 868.7989016216625 # Ar
1644 1644 1 0.0 191.38131699883695 224.0490540865311 491.9733778848439 # Ar
1645 1645 1 0.0 464.4930117561974 701.8854175735038 665.3060176176293 # Ar
1646 1646 1 0.0 594.3464145074977 776.5491696597809 867.27792510449 # Ar
1647 1647 1 0.0 612.2491222587092 853.9767762255078 581.9157891957304 # Ar
1648 1648 1 0.0 633.3848078998252 54.64269530706116 594.7158016025157 # Ar
1649 1649 1 0.0 745.6428311842778 435.7038838095491 469.06784606860515 # Ar
1650 1650 1 0.0 63.899498152795324 716.4065586252493 745.2116644037795 # Ar
1651 1651 1 0.0 899.1704898431967 625.7033415925275 251.38980000574807 # Ar
1652 1652 1 0.0 396.34767651180334 29.82294275222534 875.3980518824051 # Ar
1653 1653 1 0.0 914.5760091085772 403.67916988607107 324.53158365829177 # Ar
1654 1654 1 0.0 608.5721914167273 616.2534133877252 928.9252553711386 # Ar
1655 1655 1 0.0 554.7397277484844 382.2443809012589 361.0008650677899 # Ar
1656 1656 1 0.0 688.7759778154657 340.73340300147964 302.72894069396784 # Ar
1657 1657 1 0.0 740.0775417934668 237.95669443871893 908.8916764583315 # Ar
1658 1658 1 0.0 616.8988146967694 543.7509905725315 629.0743735495832 # Ar
1659 1659 1 0.0 841.0482291410481 486.423545635367 291.6981677315281 # Ar
1660 1660 1 0.0 718.276796319485 531.0969111662866 657.9791296857695 # Ar
1661 1661 1 0.0 866.2150509847962 741.1501389370707 224.236458800311 # Ar
1662 1662 1 0.0 772.9419002834871 403.5309530051431 718.7930334855894 # Ar
1663 1663 1 0.0 16.804710105145283 902.7197532363576 237.69885824665798 # Ar
1664 1664 1 0.0 862.2289463272596 399.1163181609912 298.490040601982 # Ar
1665 1665 1 0.0 512.4561685105988 345.4093314988492 87.11990198627984 # Ar
1666 1666 1 0.0 689.1263501476617 617.1658443985685 783.9615405508531 # Ar
1667 1667 1 0.0 604.2475796572166 326.45388566867854 8.746305145445787 # Ar
1668 1668 1 0.0 309.2380361147039 245.73537203482354 371.626641644813 # Ar
1669 1669 1 0.0 847.1558409038425 634.0494760199238 484.70803158508613 # Ar
1670 1670 1 0.0 15.384298144908547 210.31578060221017 642.6855915103228 # Ar
1671 1671 1 0.0 85.13439800725573 613.3424754148986 861.7829607847144 # Ar
1672 1672 1 0.0 618.1566157001574 175.829799914918 164.09750218371659 # Ar
1673 1673 1 0.0 691.4785831790804 149.47109498771184 905.8929606255622 # Ar
1674 1674 1 0.0 793.1997366572854 918.1470296244676 200.5623043463512 # Ar
1675 1675 1 0.0 809.9638686976917 201.74506992138504 213.64527267618212 # Ar
1676 1676 1 0.0 470.30096980551394 896.3505688734108 191.26165438546025 # Ar
1677 1677 1 0.0 386.5056654325983 203.64981078730833 206.0392810363631 # Ar
1678 1678 1 0.0 905.3614348448837 392.4043998429541 339.8805821899582 # Ar
1679 1679 1 0.0 655.8944582134868 258.87624220675826 337.54419127128597 # Ar
1680 1680 1 0.0 275.53419895827255 934.8360035731644 543.1593684112605 # Ar
1681 1681 1 0.0 473.959906791508 223.47340075706975 330.4243461494612 # Ar
1682 1682 1 0.0 931.4934303941579 793.8515166366013 760.2714577407954 # Ar
1683 1683 1 0.0 907.0076280986914 131.10278467937005 346.2778513085142 # Ar
1684 1684 1 0.0 510.9707082909899 308.29801425998517 724.5910031744921 # Ar
1685 1685 1 0.0 517.5801739971635 291.23558344960315 877.3795646840019 # Ar
1686 1686 1 0.0 737.6291526589828 345.45938708891396 330.51425322862065 # Ar
1687 1687 1 0.0 582.4392522571541 919.5380804979267 627.4639022084936 # Ar
1688 1688 1 0.0 562.0611050693773 603.9723487723682 590.713003497165 # Ar
1689 1689 1 0.0 559.371473181153 18.825595384258502 768.1225813960125 # Ar
1690 1690 1 0.0 321.50556062871675 209.75260910320682 801.4798365692351 # Ar
1691 1691 1 0.0 379.70973740862996 470.97460641130414 307.8629716219028 # Ar
1692 1692 1 0.0 190.70040779087924 841.4737707989973 652.4593605074338 # Ar
1693 1693 1 0.0 127.77271819368798 152.94676615739158 701.793831611627 # Ar
1694 1694 1 0.0 312.58682335781646 447.8364160462991 591.5811030213999 # Ar
1695 1695 1 0.0 206.68752716125735 58.68085020328924 71.59117627851771 # Ar
1696 1696 1 0.0 758.7078755933351 154.13506370784495 127.45578669816666 # Ar
1697 1697 1 0.0 478.69391792273836 26.032915214440926 786.5444184107255 # Ar
1698 1698 1 0.0 367.14234016338577 149.98175276418132 207.95337908108326 # Ar
1699 1699 1 0.0 826.17799533201 338.6945884701631 918.059330480356 # Ar
1700 1700 1 0.0 916.758974597934 627.9804046923289 131.33002684106734 # Ar
1701 1701 1 0.0 605.696494379533 178.5583897829377 64.38008414233092 # Ar
1702 1702 1 0.0 742.7535546653235 510.3423362838209 223.08336042159124 # Ar
1703 1703 1 0.0 253.09470857795304 459.8432972650069 816.8581071608755 # Ar
1704 1704 1 0.0 609.1830880483948 244.88925676684943 934.4448275014721 # Ar
1705 1705 1 0.0 798.3086062212324 517.9436026752136 352.22586021860985 # Ar
1706 1706 1 0.0 103.71373938114186 279.5085603136937 192.10986633942878 # Ar
1707 1707 1 0.0 598.9295291338161 916.5415416178841 1.8157739833941355 # Ar
1708 1708 1 0.0 562.2022472846282 297.2980156689282 53.94092431808077 # Ar
1709 1709 1 0.0 166.68656341475454 583.9986089640399 619.3315692825055 # Ar
1710 1710 1 0.0 721.9998704389457 359.15907595188344 638.2696443282347 # Ar
1711 1711 1 0.0 74.49401779630524 901.4773252417336 838.9856608729932 # Ar
1712 1712 1 0.0 798.579985654845 659.9829893475787 810.3282219559776 # Ar
1713 1713 1 0.0 888.6554507399263 777.7665512625485 310.5815658808379 # Ar
1714 1714 1 0.0 614.3723731028122 183.01442722869663 456.41416643935264 # Ar
1715 1715 1 0.0 514.9485871546182 924.618346138383 420.2702696662842 # Ar
1716 1716 1 0.0 344.0846294376262 147.43017506978285 338.27638908063165 # Ar
1717 1717 1 0.0 301.7903039900831 258.40700313592237 333.22339255959594 # Ar
1718 1718 1 0.0 856.2387982732291 497.3451386966636 277.6177150390067 # Ar
1719 1719 1 0.0 444.5733769395677 876.0591258628364 98.32932359053864 # Ar
1720 1720 1 0.0 292.4878008729908 702.3690977590824 796.3010648460006 # Ar
1721 1721 1 0.0 384.8411070579631 207.64005735656653 561.5318614192529 # Ar
1722 1722 1 0.0 506.8115160492498 314.68121095691544 621.0695187586641 # Ar
1723 1723 1 0.0 912.1436506303113 600.7106238089304 458.4450046275498 # Ar
1724 1724 1 0.0 211.7500652268955 693.6426571498515 655.7087329464772 # Ar
1725 1725 1 0.0 168.7956922863432 812.4440155868994 662.7363729156392 # Ar
1726 1726 1 0.0 561.8079973319069 912.7993819590619 619.0020122402001 # Ar
1727 1727 1 0.0 186.29352143104944 319.5587427499591 392.70954275501765 # Ar
1728 1728 1 0.0 293.6983788788678 13.106556498633129 679.024096421446 # Ar
1729 1729 1 0.0 593.4708457641219 381.5486670790458 845.4552239141053 # Ar
1730 1730 1 0.0 710.2121179923032 763.6145644135775 165.47711811706557 # Ar
1731 1731 1 0.0 176.69440165677656 555.8050649734839 513.3905441999192 # Ar
1732 1732 1 0.0 683.8759516959417 813.3183984103171 903.948654867499 # Ar
1733 1733 1 0.0 321.3583025358054 338.70837990302385 862.8011337336796 # Ar
1734 1734 1 0.0 571.5143741832278 566.0164186128367 666.4906870206308 # Ar
1735 1735 1 0.0 469.4401487589417 232.5969588143322 167.7620764437251 # Ar
1736 1736 1 0.0 94.2033150602842 908.7990468870881 895.618062268555 # Ar
1737 1737 1 0.0 510.36040013337345 891.6100256119763 404.48738526002387 # Ar
1738 1738 1 0.0 28.698352387502695 362.6564263126202 769.2888557407946 # Ar
1739 1739 1 0.0 458.5996344810425 817.5875577863372 727.9077917102328 # Ar
1740 1740 1 0.0 920.5334085688661 408.30506852263653 252.83199136026582 # Ar
1741 1741 1 0.0 662.0917062453285 102.99480954678546 152.29346204176917 # Ar
1742 1742 1 0.0 524.902338281197 97.10652155049529 823.4264825080385 # Ar
1743 1743 1 0.0 849.5042465593425 13.41843253955069 189.31109171285382 # Ar
1744 1744 1 0.0 243.10902653301372 776.4514156219915 277.83772645333346 # Ar
1745 1745 1 0.0 911.6350017354299 136.70892368218824 501.4854867547704 # Ar
1746 1746 1 0.0 260.14536310188385 605.3488243559617 293.259922852043 # Ar
1747 1747 1 0.0 220.845953259561 232.27892231552715 561.5712798501688 # Ar
1748 1748 1 0.0 64.32411590044045 688.8382453168834 694.015904935374 # Ar
1749 1749 1 0.0 894.1262991385794 37.86043186330348 0.7723292624357515 # Ar
1750 1750 1 0.0 462.6803604309059 37.25274128282935 469.78486318617416 # Ar
1751 1751 1 0.0 566.1271377237263 829.9568506097864 280.7158021809308 # Ar
1752 1752 1 0.0 323.1430407857803 380.984659789894 536.8304568133516 # Ar
1753 1753 1 0.0 273.450725050276 292.63997732914476 814.0640800553506 # Ar
1754 1754 1 0.0 930.2879922259125 835.3044739172014 637.1981365249273 # Ar
1755 1755 1 0.0 196.60852069205578 662.6694192119422 417.51693637537517 # Ar
1756 1756 1 0.0 636.5541043839686 628.009446078048 197.22628537678602 # Ar
1757 1757 1 0.0 197.964640874305 40.07349860644644 639.9173430294613 # Ar
1758 1758 1 0.0 584.7845845851159 511.47452325199083 409.36807567274144 # Ar
1759 1759 1 0.0 96.30847876360643 554.4059266056867 256.8691193302363 # Ar
1760 1760 1 0.0 926.8739535689734 387.32963233126134 408.25415145006826 # Ar
1761 1761 1 0.0 640.3194247652325 803.6789288409187 558.8855283982124 # Ar
1762 1762 1 0.0 127.82188311943145 562.1371018355626 702.3249324155153 # Ar
1763 1763 1 0.0 857.5755043037278 119.44599617528522 697.0499794838015 # Ar
1764 1764 1 0.0 376.1913866445138 289.9534176702582 17.485044956284003 # Ar
1765 1765 1 0.0 19.314896095854632 31.406243784555507 824.9968246770983 # Ar
1766 1766 1 0.0 659.2919370450528 232.99850136415466 280.9788275291796 # Ar
1767 1767 1 0.0 408.4255225149014 597.9763508997785 139.1972285302702 # Ar
1768 1768 1 0.0 901.122608424487 68.09851706849336 437.0086109621042 # Ar
1769 1769 1 0.0 134.5289131386918 835.3900765762427 336.9400930534539 # Ar
1770 1770 1 0.0 540.0856739479381 318.96388114079684 235.93727597300025 # Ar
1771 1771 1 0.0 86.25574627709105 337.1178119369134 647.5716115101918 # Ar
1772 1772 1 0.0 543.3852320001087 554.1157143683107 430.9131722510371 # Ar
1773 1773 1 0.0 780.1436415468243 467.87329777795486 882.7925294826434 # Ar
1774 1774 1 0.0 612.394844486858 254.33531961694922 888.9450703072639 # Ar
1775 1775 1 0.0 888.6210045964935 701.0310865113227 12.612126202466444 # Ar
1776 1776 1 0.0 728.5565534701553 428.04146081775383 458.3133597941177 # Ar
1777 1777 1 0.0 573.3732378517672 252.32931033609123 152.4097797932211 # Ar
1778 1778 1 0.0 424.4796685075568 209.66399452406384 822.0885824881132 # Ar
1779 1779 1 0.0 571.6082515927126 218.58534174845505 132.53992358303273 # Ar
1780 1780 1 0.0 559.316846358139 578.1848114995568 113.81779960730303 # Ar
1781 1781 1 0.0 903.2440383560325 614.928713040585 39.4801597172981 # Ar
1782 1782 1 0.0 137.30924610951362 577.2923365872348 896.1625049822977 # Ar
1783 1783 1 0.0 100.90536237046598 105.74491166713042 873.2730204451224 # Ar
1784 1784 1 0.0 134.79970066877198 873.2297063410422 570.6084620791796 # Ar
1785 1785 1 0.0 428.5460501481834 253.08992619375346 414.6022489666562 # Ar
1786 1786 1 0.0 492.1691042880975 610.2494565834268 712.64479597276 # Ar
1787 1787 1 0.0 861.9835585264781 825.9876109561594 90.22496347170456 # Ar
1788 1788 1 0.0 919.5468937568306 267.6924674089854 418.26894514081243 # Ar
1789 1789 1 0.0 158.80045849049444 47.888029488532716 691.0146617677273 # Ar
1790 1790 1 0.0 329.34755496493773 902.4393113100003 590.6934835624007 # Ar
1791 1791 1 0.0 811.7739924640122 132.61457829059708 360.4159283751455 # Ar
1792 1792 1 0.0 4.299617478948962 901.2402217861863 402.5225450333326 # Ar
1793 1793 1 0.0 587.5950747177138 76.23137901317092 690.752839819789 # Ar
1794 1794 1 0.0 59.02571078672536 265.86547683992296 288.2214315816216 # Ar
1795 1795 1 0.0 726.8751649806484 800.8416991613128 396.935741753003 # Ar
1796 1796 1 0.0 842.3941502125883 378.69426851343064 560.7338149815096 # Ar
1797 1797 1 0.0 67.44838969863375 313.93688103018866 518.734387022436 # Ar
1798 1798 1 0.0 430.26185579052037 276.90237557573994 66.09886841367613 # Ar
1799 1799 1 0.0 406.2637789666007 668.1544116290577 833.5684870709525 # Ar
1800 1800 1 0.0 855.6923941794718 774.7086653560673 785.8481051692136 # Ar
1801 1801 1 0.0 421.44018245020334 20.248588748201378 450.780084023008 # Ar
1802 1802 1 0.0 199.4671474894463 500.3029939711127 643.9662640365151 # Ar
1803 1803 1 0.0 322.3889028760643 96.52805993002671 843.2694598280136 # Ar
1804 1804 1 0.0 889.8583921773678 184.5013407843975 134.57791299196072 # Ar
1805 1805 1 0.0 468.9226684989327 727.2834919638394 381.20240761812477 # Ar
1806 1806 1 0.0 124.45607771464468 687.8040883708094 673.4239106105347 # Ar
1807 1807 1 0.0 623.9677826446176 215.32370630970664 471.7240038247304 # Ar
1808 1808 1 0.0 437.5556975728923 395.8737193998681 269.9760839008178 # Ar
1809 1809 1 0.0 918.892193767623 812.9855046764957 263.57622234501423 # Ar
1810 1810 1 0.0 699.458572480351 611.5496687803434 853.3434134797106 # Ar
1811 1811 1 0.0 502.9232300269636 612.9304212775203 462.277519697174 # Ar
1812 1812 1 0.0 454.151775731985 828.8149237441787 643.3650497992454 # Ar
1813 1813 1 0.0 68.71886286117186 310.42400328534717 381.9447763062269 # Ar
1814 1814 1 0.0 222.07777153892923 555.9715093277623 374.55241711319115 # Ar
1815 1815 1 0.0 622.4184674136935 83.74957249352647 864.1809736169379 # Ar
1816 1816 1 0.0 593.6660213749649 326.7867166137718 790.8232357891775 # Ar
1817 1817 1 0.0 808.6522467102102 850.6124804755701 120.16171152462066 # Ar
1818 1818 1 0.0 404.37275704810475 923.5248225559587 507.38159208605845 # Ar
1819 1819 1 0.0 99.07704829323123 929.9204981198868 804.1936929173412 # Ar
1820 1820 1 0.0 406.17928297294947 31.071363872023326 604.4753874129049 # Ar
1821 1821 1 0.0 793.4206085208795 420.5818678793183 63.60018244219403 # Ar
1822 1822 1 0.0 802.8842975523428 5.104976163633429 801.9351141438958 # Ar
1823 1823 1 0.0 348.88659376718465 122.70956313168956 145.17880829928825 # Ar
1824 1824 1 0.0 139.3586415231349 132.76848925990905 488.79881187137954 # Ar
1825 1825 1 0.0 171.31411672017884 85.25978545951132 611.4190336824824 # Ar
1826 1826 1 0.0 348.5055910066105 781.0740432440604 520.501632178374 # Ar
1827 1827 1 0.0 229.00175759433955 914.717296054018 261.24167998741234 # Ar
1828 1828 1 0.0 415.49699225827686 501.66625147854955 570.0425518151704 # Ar
1829 1829 1 0.0 526.1284702959288 65.52181516400375 332.252235284394 # Ar
1830 1830 1 0.0 228.62498430731227 876.5344157013972 217.56650565941248 # Ar
1831 1831 1 0.0 684.1915868703131 215.25782938089415 259.1560839785607 # Ar
1832 1832 1 0.0 280.6936936368702 900.8940435497605 896.6016580561603 # Ar
1833 1833 1 0.0 59.899940600727106 541.8247372456278 613.790654645402 # Ar
1834 1834 1 0.0 695.2043885411513 748.067051007898 727.7321944508029 # Ar
1835 1835 1 0.0 174.9598562607529 141.38792689717118 259.02128795722024 # Ar
1836 1836 1 0.0 255.29702805590637 14.256854614290445 878.82695480733 # Ar
1837 1837 1 0.0 330.415219266177 636.2330214123714 278.857009019217 # Ar
1838 1838 1 0.0 95.50931451654343 707.8665204010211 621.8714899139844 # Ar
1839 1839 1 0.0 487.543176566798 52.514337919479864 301.22614986478027 # Ar
1840 1840 1 0.0 607.0762377091519 925.4135027646427 316.41857338887587 # Ar
1841 1841 1 0.0 118.0828325613525 367.3319947871341 787.8575546392246 # Ar
1842 1842 1 0.0 436.0641446267778 145.25673343488418 334.374104140218 # Ar
1843 1843 1 0.0 495.9722216330381 357.46391846466247 879.9164311893348 # Ar
1844 1844 1 0.0 617.4532441424673 781.6605703403123 85.52283837326914 # Ar
1845 1845 1 0.0 320.19076177562664 93.85608737922504 511.9530040327058 # Ar
1846 1846 1 0.0 309.5732804366947 876.68610459579 358.9379987465061 # Ar
1847 1847 1 0.0 858.0657618612099 610.9372102730821 131.29663223042556 # Ar
1848 1848 1 0.0 537.4841591311977 181.75346854578885 6.432043663739999 # Ar
1849 1849 1 0.0 467.50315741814046 299.8173157023571 679.38447738651 # Ar
1850 1850 1 0.0 227.90620488288232 446.0212810738138 93.0776657701366 # Ar
1851 1851 1 0.0 170.81764099802444 400.2329684202616 565.949613290056 # Ar
1852 1852 1 0.0 344.07365619536046 750.1152606717554 705.6716015814205 # Ar
1853 1853 1 0.0 107.43547423353324 434.5909353532175 923.5858122878318 # Ar
1854 1854 1 0.0 747.5791743242179 276.13117331026 212.44697121213093 # Ar
1855 1855 1 0.0 168.02567136887708 215.49117339640375 817.2435634572445 # Ar
1856 1856 1 0.0 333.5193081708074 356.1284846297971 153.37174773833232 # Ar
1857 1857 1 0.0 928.3586083345971 42.185237102913504 5.251390738526318 # Ar
1858 1858 1 0.0 513.3215309848846 455.3726789283393 495.9331620805192 # Ar
1859 1859 1 0.0 418.6633967274977 338.60150333169565 873.443031632419 # Ar
1860 1860 1 0.0 439.1949316495826 864.4553773869254 221.27542003198525 # Ar
1861 1861 1 0.0 261.13216163241526 81.38912760537528 159.57280783753973 # Ar
1862 1862 1 0.0 481.2584726802113 711.0140197989097 328.99175976742475 # Ar
1863 1863 1 0.0 323.84484728982164 289.9712594091308 115.00735934168621 # Ar
1864 1864 1 0.0 834.1544738217032 910.7648441478273 174.27442353399937 # Ar
1865 1865 1 0.0 582.5661509019067 618.1027694122995 297.7432208441127 # Ar
1866 1866 1 0.0 651.9098371879511 651.1635748538243 216.02279666748004 # Ar
1867 1867 1 0.0 359.7856540613683 626.2966030028537 355.7244970317909 # Ar
1868 1868 1 0.0 682.2740891332289 498.7398677313838 750.5958822581708 # Ar
1869 1869 1 0.0 753.9995608218661 480.74146762140674 43.281809310591775 # Ar
1870 1870 1 0.0 669.1016266841447 60.16005508862378 557.3730145178705 # Ar
1871 1871 1 0.0 499.0105566071282 441.1596469156792 116.60361116743212 # Ar
1872 1872 1 0.0 207.76796929794955 604.946591054334 58.793566911827256 # Ar
1873 1873 1 0.0 282.2108415733947 746.7204776155887 100.53823357537235 # Ar
1874 1874 1 0.0 539.8166785074761 37.581943579673506 658.2967856271913 # Ar
1875 1875 1 0.0 367.30122298961464 125.01657361479522 931.9018869093054 # Ar
1876 1876 1 0.0 246.36295802290616 5.900845210139189 795.502022524038 # Ar
1877 1877 1 0.0 543.6845252087307 667.8310517364962 741.2211978177447 # Ar
1878 1878 1 0.0 579.451880524618 512.918915380063 452.08150960067553 # Ar
1879 1879 1 0.0 200.6136873552792 204.8633895235395 501.6183438507216 # Ar
1880 1880 1 0.0 534.1042550362755 513.4624812594421 244.26180641489253 # Ar
1881 1881 1 0.0 208.59790979435274 352.33403671509774 445.2692737715695 # Ar
1882 1882 1 0.0 237.11617736840267 607.1224581718667 787.6122829398628 # Ar
1883 1883 1 0.0 538.7207238165753 901.9979808067347 682.3794933928817 # Ar
1884 1884 1 0.0 359.8238694216707 337.255363840805 120.31280045260635 # Ar
1885 1885 1 0.0 335.68126795138687 577.066941305035 218.88435624562254 # Ar
1886 1886 1 0.0 181.05871609871514 659.1211962202814 577.3273024260247 # Ar
1887 1887 1 0.0 575.6118144190377 608.1102097345836 38.65371840798608 # Ar
1888 1888 1 0.0 108.22511443273287 917.5379625702848 623.3207954519027 # Ar
1889 1889 1 0.0 373.0474987196952 683.8499927607692 360.30144219764566 # Ar
1890 1890 1 0.0 531.1022008205163 607.7106107275877 46.98511762408417 # Ar
1891 1891 1 0.0 72.02423048227325 209.8714761374494 209.83129100552623 # Ar
1892 1892 1 0.0 655.2981247484947 24.90513610897384 627.0099110756802 # Ar
1893 1893 1 0.0 713.571480273956 55.34890919672328 566.5906831851994 # Ar
1894 1894 1 0.0 276.5351189093592 734.3840169408697 642.5254760562776 # Ar
1895 1895 1 0.0 543.6852184391048 581.6080964368666 640.5270316250122 # Ar
1896 1896 1 0.0 375.49879130937126 424.1680656881121 383.8033820599428 # Ar
1897 1897 1 0.0 478.05461267133103 622.0983870850878 827.409209599103 # Ar
1898 1898 1 0.0 822.6594147378445 484.2279953477406 496.0126614679465 # Ar
1899 1899 1 0.0 336.0786588957253 566.3103277777692 241.5220151096456 # Ar
1900 1900 1 0.0 759.5608596410095 663.9828196579048 381.5178073225207 # Ar
1901 1901 1 0.0 890.3328344118679 202.42693293284955 15.882961263812504 # Ar
1902 1902 1 0.0 741.7821859646652 105.87632875474714 387.3365190386183 # Ar
1903 1903 1 0.0 260.49997064023677 389.3263954437298 233.9411814845968 # Ar
1904 1904 1 0.0 732.0654132871656 782.8335616512261 505.73334712880904 # Ar
1905 1905 1 0.0 656.3736500060166 619.9489907071766 135.97741377676348 # Ar
1906 1906 1 0.0 729.4299768497168 633.3005264491869 446.66706315277236 # Ar
1907 1907 1 0.0 592.5638503889007 708.6843339307488 120.49254816993644 # Ar
1908 1908 1 0.0 654.1431570130133 701.1126299454128 687.3676357892099 # Ar
1909 1909 1 0.0 427.9641950034914 731.0076563934063 196.0251967740851 # Ar
1910 1910 1 0.0 760.5254983042985 871.8444858354801 325.5857982626657 # Ar
1911 1911 1 0.0 818.1412566722397 602.3169255607947 628.711896602004 # Ar
1912 1912 1 0.0 905.0355842280134 180.42929544647262 531.1910228293776 # Ar
1913 1913 1 0.0 347.0342567119468 204.39951694138625 921.5761795850741 # Ar
1914 1914 1 0.0 208.4491424753323 526.0925134804411 422.50790635342713 # Ar
1915 1915 1 0.0 77.7713869965407 69.78775131295403 40.85361877452052 # Ar
1916 1916 1 0.0 455.482980335024 693.7645649520621 879.1140232534806 # Ar
1917 1917 1 0.0 120.43093508774561 160.9709503768603 245.74179803007624 # Ar
1918 1918 1 0.0 699.1567175722719 241.6163234412529 726.5935803750366 # Ar
1919 1919 1 0.0 774.3810555649532 296.58366684446935 422.2814515455228 # Ar
1920 1920 1 0.0 518.3237476860752 47.4430464179205 87.72099078608215 # Ar
1921 1921 1 0.0 775.4869376205259 184.88002982027447 737.4835586592499 # Ar
1922 1922 1 0.0 318.55660784479954 307.67873123440074 407.9345040487599 # Ar
1923 1923 1 0.0 782.072509860079 341.8281148279255 746.7798431032043 # Ar
1924 1924 1 0.0 863.1470674813288 61.7506561577915 405.31833542983304 # Ar
1925 1925 1 0.0 736.2126309107573 885.5519825031025 326.7524722490852 # Ar
1926 1926 1 0.0 356.13660272646337 610.4422008715997 715.6131640704461 # Ar
1927 1927 1 0.0 756.1876207209492 789.816460673058 813.5773995636064 # Ar
1928 1928 1 0.0 828.2672320281404 65.72669347595539 915.3615535035211 # Ar
1929 1929 1 0.0 724.7826373411809 821.1068167809149 586.6863951195851 # Ar
1930 1930 1 0.0 743.562466671967 65.81955228428106 85.89947580789017 # Ar
1931 1931 1 0.0 310.777993081837 655.891407342342 492.64336995717616 # Ar
1932 1932 1 0.0 857.0386204242126 760.0516464816602 882.234421664683 # Ar
1933 1933 1 0.0 679.0810157112469 390.7969745021038 47.63176942231317 # Ar
1934 1934 1 0.0 84.07062312217307 748.9957489293956 386.1489519078125 # Ar
1935 1935 1 0.0 28.33121711485749 599.0782759673496 745.0016433723948 # Ar
1936 1936 1 0.0 80.79941058421923 702.5517648918064 178.1941683636757 # Ar
1937 1937 1 0.0 542.3437152988532 654.1968946913827 596.3653720876099 # Ar
1938 1938 1 0.0 134.38910015752128 534.8871684105495 828.2840750010217 # Ar
1939 1939 1 0.0 597.5011216142267 334.9324069533608 77.34484724178289 # Ar
1940 1940 1 0.0 721.0546272608203 645.4358059963328 755.606093469248 # Ar
1941 1941 1 0.0 593.708919104042 341.71788588317486 224.7442001109015 # Ar
1942 1942 1 0.0 631.7655225438393 870.9847259435666 113.6017058751661 # Ar
1943 1943 1 0.0 768.2793812892492 648.128658748939 145.5579270612734 # Ar
1944 1944 1 0.0 779.004573405237 870.3518071249118 4.397987178264938 # Ar
1945 1945 1 0.0 837.4996402679016 837.6818378708452 604.6038151834266 # Ar
1946 1946 1 0.0 266.93898311881287 571.521341907772 912.8856321737492 # Ar
1947 1947 1 0.0 388.14267180376135 694.1754134688729 80.11555685440675 # Ar
1948 1948 1 0.0 107.10589055191728 926.9026849566495 248.86669142943603 # Ar
1949 1949 1 0.0 732.4618597668297 219.1312892995756 200.9788837937535 # Ar
1950 1950 1 0.0 678.9740563618531 584.5518843987163 40.82803720375709 # Ar
1951 1951 1 0.0 278.22468435566736 210.79417751698944 558.4328169563801 # Ar
1952 1952 1 0.0 332.1341165077871 734.1843188390719 578.4113073765124 # Ar
1953 1953 1 0.0 461.95210252519473 271.8322358313997 786.5689637334202 # Ar
1954 1954 1 0.0 576.1323310375758 878.7623235275702 132.2155262026181 # Ar
1955 1955 1 0.0 756.1975358512087 566.0564427795094 664.2597193381139 # Ar
1956 1956 1 0.0 559.3599499029079 900.9441166828508 40.74295596437406 # Ar
1957 1957 1 0.0 706.6522018232944 272.1503460786015 921.5528634712196 # Ar
1958 1958 1 0.0 246.44083018026998 788.5257848581929 424.5543554463063 # Ar
1959 1959 1 0.0 515.7123646124237 307.44454751723305 700.763847668414 # Ar
1960 1960 1 0.0 415.31211708178887 437.6304595061643 67.56342398397294 # Ar
1961 1961 1 0.0 58.64264219214341 174.9872008906039 700.7799196200108 # Ar
1962 1962 1 0.0 826.4589951458314 363.637070112385 111.57315038665995 # Ar
1963 1963 1 0.0 632.2863270632935 62.98937942638681 797.0909724461269 # Ar
1964 1964 1 0.0 60.09495424414077 676.0348649500953 290.07410504666717 # Ar
1965 1965 1 0.0 630.9534661704296 902.8906168198721 21.405658355070535 # Ar
1966 1966 1 0.0 210.8955968938892 740.2533201738698 607.077348382433 # Ar
1967 1967 1 0.0 68.94517388454396 878.5692771590528 547.2570170994976 # Ar
1968 1968 1 0.0 137.14968007512854 474.0465710628016 412.8993965097846 # Ar
1969 1969 1 0.0 625.5194459692444 330.50661996130464 258.1961737365342 # Ar
1970 1970 1 0.0 248.15393824638645 85.32844544454484 890.0455001426137 # Ar
1971 1971 1 0.0 883.3080319681915 280.52168604060546 381.86620258167096 # Ar
1972 1972 1 0.0 114.09151297679081 687.9146558317859 67.30471575092035 # Ar
1973 1973 1 0.0 527.8737273401122 439.6933267326663 245.79427930183587 # Ar
1974 1974 1 0.0 357.96317324249117 67.63295729472281 583.0092107028895 # Ar
1975 1975 1 0.0 144.79208351682067 902.2207972123791 204.67386998320933 # Ar
1976 1976 1 0.0 775.8949368957306 29.33221603480056 475.2499352726125 # Ar
1977 1977 1 0.0 816.575250671848 49.9767907483924 693.9177566440761 # Ar
1978 1978 1 0.0 835.579907074993 53.632187010094015 103.22815260765572 # Ar
1979 1979 1 0.0 1.4282067025969931 430.9637963400211 171.33417105465432 # Ar
1980 1980 1 0.0 208.689831988155 245.90017885527575 408.635192884777 # Ar
1981 1981 1 0.0 127.41228087138666 784.5200949236379 155.11369945726028 # Ar
1982 1982 1 0.0 716.6058102692963 312.49392287724055 325.0754172448589 # Ar
1983 1983 1 0.0 582.2485773651829 156.81438343356052 665.1568406326184 # Ar
1984 1984 1 0.0 425.79796069846526 763.4097416507075 316.52480287169703 # Ar
1985 1985 1 0.0 264.854279615179 79.7820048244323 223.18974313928624 # Ar
1986 1986 1 0.0 931.5789423151901 28.89505944911032 444.1190209562335 # Ar
1987 1987 1 0.0 342.1083223001976 877.6036828726473 735.3833774487629 # Ar
1988 1988 1 0.0 279.2432793150897 103.42383758358788 181.7728385932371 # Ar
1989 1989 1 0.0 211.82735001842343 342.98694974223895 568.1958192782548 # Ar
1990 1990 1 0.0 777.6123789715934 112.94751096001599 23.811205331246665 # Ar
1991 1991 1 0.0 445.30332515228304 792.6021328667142 67.95906187143382 # Ar
1992 1992 1 0.0 544.9220321810411 373.50382246215065 285.2365973618507 # Ar
1993 1993 1 0.0 59.38784752592838 170.4608698260293 816.5507967238717 # Ar
1994 1994 1 0.0 60.226704653071785 469.9179650188124 823.1014569859269 # Ar
1995 1995 1 0.0 606.9440168271612 583.1949261529871 614.9654513402467 # Ar
1996 1996 1 0.0 333.64857494388696 933.4981571825972 765.525592080026 # Ar
1997 1997 1 0.0 259.15897898709267 323.1120449785352 283.73846245136843 # Ar
1998 1998 1 0.0 862.8560360137027 428.78224772834056 107.75441002602261 # Ar
1999 1999 1 0.0 710.841804391849 238.7144229377931 907.3956246742734 # Ar
2000 2000 1 0.0 914.1562645068313 173.64566429747447 504.7985171924851 # Ar
