LAMMPS data file -- atom_style full -- generated by chemfiles
2000 atoms
0 bonds
0 angles
0 dihedrals
0 impropers
1 atom types
0 bond types
0 angle types
0 dihedral types
0 improper types
0.00000000 935.059629 xlo xhi
0.00000000 935.059629 ylo yhi
0.00000000 935.059629 zlo zhi

# Pair Coeffs
# 1 Xe

Masses

1 131.293 # Xe

Atoms # full

1 1 1 0.0 254.2931857613823 279.0701858933837 930.6417165766045 # Xe
2 2 1 0.0 148.36286783186594 55.73627037956482 183.88617903592183 # Xe
3 3 1 0.0 437.01332114395115 364.20019446681295 176.75394524053198 # Xe
4 4 1 0.0 485.03117531483645 454.96775144729725 333.5318597364142 # Xe
5 5 1 0.0 585.7641149946186 556.0268024221238 218.0886615132424 # Xe
6 6 1 0.0 577.1042922770039 514.2509471275533 541.2570647050724 # Xe
7 7 1 0.0 266.940455445669 255.7685275782565 682.7466848047319 # Xe
8 8 1 0.0 277.28425207495013 118.5542867647218 769.3559259140275 # Xe
9 9 1 0.0 328.45515376911385 195.57765641755623 92.79209816318632 # Xe
10 10 1 0.0 41.59636562314723 88.16796535353777 162.75079342551564 # Xe
11 11 1 0.0 83.95307821130818 285.274124284075 119.94490534122959 # Xe
12 12 1 0.0 55.5054757381843 389.73471423068304 791.5183696075308 # Xe
13 13 1 0.0 41.63360675957518 214.29966295192762 926.406054690943 # Xe
14 14 1 0.0 532.1605790794848 781.8732458701892 432.9952762221158 # Xe
15 15 1 0.0 896.4817255240542 593.8074591348673 709.0240950217722 # Xe
16 16 1 0.0 166.32329963053232 732.6164870192528 767.3205684203477 # Xe
17 17 1 0.0 871.8065852230361 618.1821921363342 639.4856384732274 # Xe
18 18 1 0.0 1.9235349909005877 837.597586362551 308.3896546020837 # Xe
19 19 1 0.0 140.59304770372316 691.0904687660567 642.286521401442 # Xe
20 20 1 0.0 415.3482153355869 12.704175935010289 188.86923370922622 # Xe
21 21 1 0.0 743.8780736962914 619.7538814569677 661.9056449954344 # Xe
22 22 1 0.0 418.74222809527015 788.0391311182445 685.4834412367726 # Xe
23 23 1 0.0 571.7154611445314 633.199150559027 913.471714509727 # Xe
24 24 1 0.0 397.3326448185882 207.17048706030798 83.64914353771888 # Xe
25 25 1 0.0 244.83926099394216 347.396401397747 87.9961774138903 # Xe
26 26 1 0.0 426.5131228085954 636.7806306714357 533.5763653337402 # Xe
27 27 1 0.0 259.85289820395025 169.57555836032003 606.7256565953405 # Xe
28 28 1 0.0 881.2786037280642 845.3036217695732 327.11970637892364 # Xe
29 29 1 0.0 700.41366439377 379.3825532003635 427.9032886164633 # Xe
30 30 1 0.0 856.3609524221113 714.3423983789313 264.47885371755376 # Xe
31 31 1 0.0 878.7686574917749 772.3618859701221 828.475658166828 # Xe
32 32 1 0.0 689.697753247882 397.136915734269 354.5299399472328 # Xe
33 33 1 0.0 673.5693466990795 430.86408635939455 297.96964894104394 # Xe
34 34 1 0.0 16.889815515888273 130.0298359580742 80.95862381588742 # Xe
35 35 1 0.0 625.0728204593732 580.8232528108075 382.1438162006487 # Xe
36 36 1 0.0 194.12634485904667 359.34663096271663 355.18173055724816 # Xe
37 37 1 0.0 684.6586391939574 373.211273833598 558.9032828992337 # Xe
38 38 1 0.0 499.51186783714485 278.8747843073709 588.246571528634 # Xe
39 39 1 0.0 803.7819118618308 384.36654203399644 100.19715992512997 # Xe
40 40 1 0.0 259.4698037740799 519.6100181274071 642.7005437157363 # Xe
41 41 1 0.0 538.8852761244906 727.3233325767233 803.0573478964152 # Xe
42 42 1 0.0 701.0014977445547 386.7965527541686 248.07398691055025 # Xe
43 43 1 0.0 224.57804866718962 544.6755756602222 801.991681804967 # Xe
44 44 1 0.0 811.2975116595795 838.4872082997379 389.2315788878714 # Xe
45 45 1 0.0 218.76533141587097 869.5122209199836 244.43169330999544 # Xe
46 46 1 0.0 568.2183824399992 442.64374698514564 813.0913571335328 # Xe
47 47 1 0.0 164.77454794389797 583.6607963294068 536.0030460985764 # Xe
48 48 1 0.0 650.1451202347042 813.1169743810789 839.1926569353537 # Xe
49 49 1 0.0 620.5130141248258 698.0866037033207 508.1285698391059 # Xe
50 50 1 0.0 201.37146172283826 422.4659681385937 78.94284654417295 # Xe
51 51 1 0.0 415.98863407834705 919.0494299612005 657.6023090703366 # Xe
52 52 1 0.0 720.6888789403911 384.19576024757833 591.9058199893005 # Xe
53 53 1 0.0 597.4318718231857 323.013161784656 39.23439892223242 # Xe
54 54 1 0.0 299.5493886322718 569.1475892288993 98.02220311673751 # Xe
55 55 1 0.0 127.24992411563575 58.62044178626588 717.6495592449779 # Xe
56 56 1 0.0 785.4796403572774 879.9245825671892 825.7438114569305 # Xe
57 57 1 0.0 152.96175683791787 610.7809048775326 97.65606260410114 # Xe
58 58 1 0.0 828.8679070095461 45.230077354236435 185.4130057894482 # Xe
59 59 1 0.0 263.1032215068199 7.797215284570388 381.9996874058371 # Xe
60 60 1 0.0 890.962147173675 874.9948183544719 542.7879824266829 # Xe
61 61 1 0.0 471.4343045635269 786.2797682766123 185.63551976899325 # Xe
62 62 1 0.0 231.30745142704657 283.97306974422423 861.3924865272983 # Xe
63 63 1 0.0 825.3751343308107 664.6359370913466 561.2062848765811 # Xe
64 64 1 0.0 588.297779347162 746.903263953836 734.2697406506577 # Xe
65 65 1 0.0 68.81033999819314 580.8521466459352 915.6168923943608 # Xe
66 66 1 0.0 567.1945883437177 484.0217750992132 702.1501369951077 # Xe
67 67 1 0.0 746.470769459717 631.5191852338266 178.23767862182459 # Xe
68 68 1 0.0 559.1515812978038 427.8216843248916 421.32865435854734 # Xe
69 69 1 0.0 604.4380135195643 896.4849896432712 43.487416194426444 # Xe
70 70 1 0.0 112.82090354901052 37.07444521833701 760.2051127700333 # Xe
71 71 1 0.0 63.72194329460155 492.2470820685533 493.52210704653913 # Xe
72 72 1 0.0 452.1683025759813 616.1431678838824 4.282509968346796 # Xe
73 73 1 0.0 597.5367158567353 331.1772196618412 207.8380014247423 # Xe
74 74 1 0.0 369.71160747926507 113.41653270934758 874.6526262482474 # Xe
75 75 1 0.0 502.44205526663615 128.25360904898187 94.73003964420862 # Xe
76 76 1 0.0 29.958800376969975 185.09190378740462 352.88095635567225 # Xe
77 77 1 0.0 735.1877879421851 59.54319996912217 62.40958540582132 # Xe
78 78 1 0.0 733.8431606220786 878.059866902634 845.7964396336345 # Xe
79 79 1 0.0 51.706448983041334 799.3367575844368 539.5202689273578 # Xe
80 80 1 0.0 535.1530302292696 714.6544152647612 176.37372870281578 # Xe
81 81 1 0.0 317.335715222819 380.60865668665497 589.2806599500911 # Xe
82 82 1 0.0 633.5123443661507 163.28398638482935 887.870793565968 # Xe
83 83 1 0.0 425.7930885298836 303.11463037332487 915.979522857976 # Xe
84 84 1 0.0 891.3305817100575 437.4008052792229 318.9580425915527 # Xe
85 85 1 0.0 820.0731393240865 553.8306619168304 166.65107600079867 # Xe
86 86 1 0.0 791.8896798199002 261.3780188652147 512.6827162559513 # Xe
87 87 1 0.0 715.4534696354821 13.274684709973066 244.41681707830406 # Xe
88 88 1 0.0 516.0870094265466 393.6643182745111 19.31041219844979 # Xe
89 89 1 0.0 806.9507493026855 38.16730676331453 751.557598215298 # Xe
90 90 1 0.0 460.54778989872744 807.2154541362403 756.479855066943 # Xe
91 91 1 0.0 6.267932129269335 379.57966785698284 218.44458062253656 # Xe
92 92 1 0.0 661.318205830008 189.71245710463862 593.8852698636003 # Xe
93 93 1 0.0 396.85536648281357 3.8094815573212872 241.82892908032713 # Xe
94 94 1 0.0 615.6165853159067 554.1991094100778 196.86536519737342 # Xe
95 95 1 0.0 427.24979374634034 7.888030360922577 833.7414375615014 # Xe
96 96 1 0.0 340.5686386267574 136.86389531515124 55.10468289716271 # Xe
97 97 1 0.0 567.6227942864276 383.74375074961216 710.9392753007197 # Xe
98 98 1 0.0 413.0474574451495 562.075117313822 465.69607583280737 # Xe
99 99 1 0.0 417.0955427715976 118.75355052537785 456.19131649363135 # Xe
100 100 1 0.0 738.8263488459419 559.3390446871932 856.541932107829 # Xe
101 101 1 0.0 94.2266146113059 307.0384190521234 221.97946283816106 # Xe
102 102 1 0.0 849.7184087059715 14.076232543128256 7.477626767220907 # Xe
103 103 1 0.0 934.4217234945231 715.0375985452253 88.45050771142628 # Xe
104 104 1 0.0 496.95186211254054 83.95842782345777 129.89804968903982 # Xe
105 105 1 0.0 530.9760592808046 73.82546687749243 144.06692056887462 # Xe
106 106 1 0.0 288.8227429966004 874.9920623024727 196.25337297375464 # Xe
107 107 1 0.0 559.7945864289463 203.43154572797715 457.76865404787554 # Xe
108 108 1 0.0 647.9577558141776 581.5133248845792 312.9916207548239 # Xe
109 109 1 0.0 322.87263679347586 249.45411697237242 879.5081038927525 # Xe
110 110 1 0.0 282.8581503302528 554.5335049615994 327.7696978568191 # Xe
111 111 1 0.0 744.4100343462859 244.55378554210802 628.7636050518524 # Xe
112 112 1 0.0 155.09732654933484 437.9507477709528 751.785804059974 # Xe
113 113 1 0.0 615.686479311751 74.06125298258743 606.1206980337171 # Xe
114 114 1 0.0 387.8865128529845 241.90494937913678 157.76551473818276 # Xe
115 115 1 0.0 687.5362427229651 335.0079597112612 319.5334743919078 # Xe
116 116 1 0.0 800.9165551583337 33.25024813288929 464.91212048500483 # Xe
117 117 1 0.0 787.7982617540664 147.0958822524495 475.97750883158795 # Xe
118 118 1 0.0 359.0906624126998 19.407524797291085 531.1436966972527 # Xe
119 119 1 0.0 382.67610372132583 59.17351363350497 757.8309941355282 # Xe
120 120 1 0.0 274.97896503379195 412.50045461976396 461.9337157537579 # Xe
121 121 1 0.0 249.75864343488283 395.7402509309287 93.82652832786438 # Xe
122 122 1 0.0 689.1285025410097 383.58605923769585 0.06685712074668924 # Xe
123 123 1 0.0 232.62183724458563 896.1918288234341 829.1622795520923 # Xe
124 124 1 0.0 191.67733126658408 218.3187741940895 101.24056809256835 # Xe
125 125 1 0.0 856.9382737609164 132.06418796105146 931.111307733588 # Xe
126 126 1 0.0 558.9175048439679 417.80181842936616 495.51250740073345 # Xe
127 127 1 0.0 744.2212516620244 131.6311245174328 354.9635001719247 # Xe
128 128 1 0.0 50.08655877284244 824.6159078513089 192.16379333664258 # Xe
129 129 1 0.0 327.8671701238146 116.7622370978829 235.23326063693824 # Xe
130 130 1 0.0 282.71315635847975 841.521877037155 617.9592964057442 # Xe
131 131 1 0.0 486.460099898025 532.2645377632766 346.3377292834793 # Xe
132 132 1 0.0 456.60724897303237 11.224710959460372 625.2774584795962 # Xe
133 133 1 0.0 676.523586072841 713.7360924996691 177.6268891298004 # Xe
134 134 1 0.0 740.1327008627055 396.66421298723424 711.5236269989595 # Xe
135 135 1 0.0 706.4785757477133 149.88426102437467 163.69747431666843 # Xe
136 136 1 0.0 743.1843351073687 783.1863907160175 808.3750137712022 # Xe
137 137 1 0.0 299.13743818076387 11.83056164566257 825.6017649313039 # Xe
138 138 1 0.0 757.0775427880061 883.7429527762139 513.2228219941913 # Xe
139 139 1 0.0 138.89520769753238 433.34019540827427 306.5921670772262 # Xe
140 140 1 0.0 696.9092304599309 719.0672446451148 763.6818079678278 # Xe
141 141 1 0.0 536.4905079498579 86.29690375910661 49.81975576722545 # Xe
142 142 1 0.0 716.6673742835145 727.0444486807331 467.77488096800175 # Xe
143 143 1 0.0 406.69318756003094 127.8924441224182 516.0095487087096 # Xe
144 144 1 0.0 729.832387424062 863.9138002357583 245.67291399905508 # Xe
145 145 1 0.0 454.12653661392307 238.62824005529467 521.7209674028729 # Xe
146 146 1 0.0 818.5498708263815 727.6264979174798 910.1664031294747 # Xe
147 147 1 0.0 325.60523273902504 867.2281645221744 208.1068952202344 # Xe
148 148 1 0.0 573.6362845054241 650.651282984541 94.34434425716076 # Xe
149 149 1 0.0 915.8012193598393 852.7553024124394 172.79201295261817 # Xe
150 150 1 0.0 468.67210574569197 805.1378044361334 724.1414481640219 # Xe
151 151 1 0.0 455.3492813214101 137.91807564990583 378.25292470149634 # Xe
152 152 1 0.0 715.218498495933 581.9878823316151 647.7280753006198 # Xe
153 153 1 0.0 16.14060323900439 368.56815476924544 760.3472886547381 # Xe
154 154 1 0.0 443.7663029615828 405.991630558006 27.68082259533916 # Xe
155 155 1 0.0 446.0737826588971 765.4724287332618 203.0878741653557 # Xe
156 156 1 0.0 475.012633236483 364.5780282725163 813.6784777487196 # Xe
157 157 1 0.0 494.6771555200059 794.3066843013034 872.9075084076902 # Xe
158 158 1 0.0 387.35778497553576 309.6177084571052 203.68581032511247 # Xe
159 159 1 0.0 722.8654596039395 393.2562268287804 463.9310663112755 # Xe
160 160 1 0.0 818.1187443869956 490.50432527553113 557.9639202529304 # Xe
161 161 1 0.0 549.2079400982728 2.9236005965420975 892.2637568190057 # Xe
162 162 1 0.0 373.369595005253 925.1442246607281 346.08279303766716 # Xe
163 163 1 0.0 815.0865755472585 286.23856517477157 736.28848334613 # Xe
164 164 1 0.0 784.6524066464835 104.88728689463409 934.064962106574 # Xe
165 165 1 0.0 708.1123600728932 602.374226233203 698.3973848515983 # Xe
166 166 1 0.0 291.4924156760463 3.7267314752947818 705.0925529488703 # Xe
167 167 1 0.0 567.9356853407811 122.29237467822082 151.06852628658365 # Xe
168 168 1 0.0 678.8635814819274 470.71994166279563 467.2045646614229 # Xe
169 169 1 0.0 497.6336338823558 102.41180034730067 918.9605223789214 # Xe
170 170 1 0.0 852.5234654423758 49.964115764362184 823.5396215281106 # Xe
171 171 1 0.0 366.9344777617068 707.6746659807767 418.0829890609661 # Xe
172 172 1 0.0 718.3133025255037 562.8216804386996 324.77227326709885 # Xe
173 173 1 0.0 721.8468875062846 449.74741426889096 192.13380430928277 # Xe
174 174 1 0.0 782.5120326609907 12.173194696034674 356.63601392034934 # Xe
175 175 1 0.0 41.74274449856727 220.69838168895254 658.3723626240259 # Xe
176 176 1 0.0 909.4827888716296 510.4962420301552 672.638663536504 # Xe
177 177 1 0.0 388.80614280132477 238.6849977165522 357.31529207542843 # Xe
178 178 1 0.0 131.84506241601133 901.8764653211532 107.82422963623513 # Xe
179 179 1 0.0 344.51929886663265 492.2100987306114 156.34625776557394 # Xe
180 180 1 0.0 35.137709927900396 908.6937143328275 462.20042681106173 # Xe
181 181 1 0.0 209.6520846072237 60.897674073888766 82.16704627794911 # Xe
182 182 1 0.0 78.76511753802609 775.3576519572647 70.91739958143593 # Xe
183 183 1 0.0 174.8827649067108 906.0464857866423 42.151874320673386 # Xe
184 184 1 0.0 870.8868153989691 852.1658222438515 223.9076822006055 # Xe
185 185 1 0.0 533.1653611636256 159.02344640140106 262.30220042116434 # Xe
186 186 1 0.0 239.14835182916963 248.0782488306307 189.523713740232 # Xe
187 187 1 0.0 209.444808781527 743.1283843583643 464.27614208196803 # Xe
188 188 1 0.0 668.388890932917 245.92209929181385 787.9777696047526 # Xe
189 189 1 0.0 711.3090212461126 824.9394144306083 483.59034907166034 # Xe
190 190 1 0.0 463.2762793602361 545.6255249249461 489.2719529918918 # Xe
191 191 1 0.0 424.97239426386636 646.2339446094039 198.63464274570575 # Xe
192 192 1 0.0 266.59557583646995 898.1869503058551 740.1498504391267 # Xe
193 193 1 0.0 392.24213233753693 746.0527952860847 433.69347275558084 # Xe
194 194 1 0.0 354.2218820004995 602.1131996782701 431.2838415254029 # Xe
195 195 1 0.0 766.017394374851 237.0179424320013 504.7808602187953 # Xe
196 196 1 0.0 734.0378466031533 823.9013717496385 89.20446740779427 # Xe
197 197 1 0.0 129.07749419183156 755.1550002794255 763.3771431781983 # Xe
198 198 1 0.0 644.6267999704618 149.0159266929561 762.4890549196416 # Xe
199 199 1 0.0 891.8895389757607 716.3248991061201 839.3769814530516 # Xe
200 200 1 0.0 455.5902314895184 700.6351662079429 479.34808866797357 # Xe
201 201 1 0.0 430.4348944357313 184.8263541431653 259.83500048687006 # Xe
202 202 1 0.0 579.9908365019513 436.9206348402432 834.5137811633567 # Xe
203 203 1 0.0 37.05221502492457 8.77860182684114 854.9124892533129 # Xe
204 204 1 0.0 526.4721587822416 564.8710823821174 554.2680086212928 # Xe
205 205 1 0.0 931.9250726105403 821.8352627311007 628.6513074395882 # Xe
206 206 1 0.0 127.22197201247815 392.2615382899516 695.6885103690182 # Xe
207 207 1 0.0 177.4429256346117 3.9474302182032392 923.8177300201503 # Xe
208 208 1 0.0 658.3592451663422 200.8614241554529 32.37824296548749 # Xe
209 209 1 0.0 273.2777103915122 891.482592175253 849.0680609284833 # Xe
210 210 1 0.0 516.3096517018957 392.8487914637335 205.5128265857938 # Xe
211 211 1 0.0 229.96091056208644 202.05772213661632 316.5822664007972 # Xe
212 212 1 0.0 337.9391818319504 462.4377481285786 549.6772816600754 # Xe
213 213 1 0.0 582.3416429755466 867.1518122414345 226.01239981601395 # Xe
214 214 1 0.0 930.5149135322212 20.440875935673496 104.39463529423958 # Xe
215 215 1 0.0 363.901741142048 77.64605522124049 821.2372971715351 # Xe
216 216 1 0.0 73.98341954478524 21.390753027562226 161.08819182226802 # Xe
217 217 1 0.0 789.089607820508 710.8321291363004 286.83543499810645 # Xe
218 218 1 0.0 528.434654092597 484.980023616022 875.5683879250723 # Xe
219 219 1 0.0 461.4545360655666 517.5630551350547 728.0318252313625 # Xe
220 220 1 0.0 749.2298628405985 17.46667913501751 361.7724550466594 # Xe
221 221 1 0.0 754.9463390792936 896.9933897781409 862.4817599335611 # Xe
222 222 1 0.0 110.49087404088364 432.85181384853416 845.2676477160721 # Xe
223 223 1 0.0 328.9944812632492 663.551245791664 876.4999959238817 # Xe
224 224 1 0.0 777.7677817664746 549.9347059644543 364.6502775789493 # Xe
225 225 1 0.0 535.5525781319552 596.8289937803723 282.31960749803113 # Xe
226 226 1 0.0 68.06383108848792 813.4088316775039 577.0113157054375 # Xe
227 227 1 0.0 491.5507406447948 721.7362563069731 391.5027831855698 # Xe
228 228 1 0.0 787.7123136012516 331.33632160928437 920.7041851073162 # Xe
229 229 1 0.0 775.5049378543804 117.23811966039169 143.31158339119742 # Xe
230 230 1 0.0 895.5726730190943 143.41617492257012 520.5714572811892 # Xe
231 231 1 0.0 493.77292724312423 238.413953530317 883.8372182877198 # Xe
232 232 1 0.0 368.0767045624707 359.69272785161087 417.8812782835951 # Xe
233 233 1 0.0 72.33522427391686 455.95874939124235 346.3160639234812 # Xe
234 234 1 0.0 736.9140085234692 928.6659586212495 810.2345433352144 # Xe
235 235 1 0.0 572.8833053735825 932.28096790321 871.7473108791042 # Xe
236 236 1 0.0 669.1699593050321 529.4969134885409 489.01885842019954 # Xe
237 237 1 0.0 858.9250340729959 367.34933792019876 203.69219633845438 # Xe
238 238 1 0.0 821.2639173095968 149.94097745277526 653.5591402550089 # Xe
239 239 1 0.0 524.4510275306523 76.21749809434107 566.4183525731056 # Xe
240 240 1 0.0 15.425344573787571 732.8663639814782 890.8573667298419 # Xe
241 241 1 0.0 17.240817947818996 828.721971015665 932.397878418406 # Xe
242 242 1 0.0 857.5607705073176 337.37628370712576 392.6802776345543 # Xe
243 243 1 0.0 232.56831864367737 168.16420962545396 442.5436384655921 # Xe
244 244 1 0.0 60.88466342622415 483.53461694130385 515.2054744967821 # Xe
245 245 1 0.0 58.51007664347537 235.7064003861874 38.101373390603996 # Xe
246 246 1 0.0 304.8319425327318 521.2233237031261 827.7538313712517 # Xe
247 247 1 0.0 304.1998439530448 840.8190321846521 2.822902965223364 # Xe
248 248 1 0.0 623.1832510550572 867.8198202185237 439.5116361915816 # Xe
249 249 1 0.0 411.33934277211387 151.60632023271657 275.72568858323035 # Xe
250 250 1 0.0 446.7844318195625 215.39187781344023 677.4225217795653 # Xe
251 251 1 0.0 330.26955666943877 29.051477078168894 235.33746511352143 # Xe
252 252 1 0.0 347.35637607281683 252.16528692324164 219.71544593486948 # Xe
253 253 1 0.0 166.12367567573392 267.7567644706515 638.3456703796686 # Xe
254 254 1 0.0 726.2230754576977 896.064557004253 846.9373444549535 # Xe
255 255 1 0.0 305.04915410345455 860.3317737688506 290.1327344244982 # Xe
256 256 1 0.0 672.6987634105368 215.302626378053 531.4966356416387 # Xe
257 257 1 0.0 267.55699640006685 505.48690666152544 315.67073192066243 # Xe
258 258 1 0.0 682.1445405226524 234.83293364559566 76.4361593079268 # Xe
259 259 1 0.0 583.280411344703 422.43149275750164 368.8993024688936 # Xe
260 260 1 0.0 100.31406649308222 597.8145687938865 368.06106948835867 # Xe
261 261 1 0.0 636.513702062236 487.8483215318619 659.1050305635116 # Xe
262 262 1 0.0 708.257586871264 333.1396381521439 906.8231854705253 # Xe
263 263 1 0.0 23.82149971163492 251.77443922726567 325.21300401743997 # Xe
264 264 1 0.0 461.55499276037506 125.10564357287805 876.5659211656084 # Xe
265 265 1 0.0 819.6313701722947 561.375419243157 710.3201612258358 # Xe
266 266 1 0.0 780.2934499202762 891.746801588722 452.6525515404047 # Xe
267 267 1 0.0 645.3425327367939 586.21202347302 646.377248067185 # Xe
268 268 1 0.0 848.8517075573299 676.4006662720886 482.58285894564324 # Xe
269 269 1 0.0 860.7976974491306 617.5172808303947 28.317774472017554 # Xe
270 270 1 0.0 310.81861219422706 40.94124566851085 448.58886222746264 # Xe
271 271 1 0.0 561.3288893414106 703.7940623671877 149.8459065951403 # Xe
272 272 1 0.0 739.3190106916752 707.9490581045279 160.89973978451025 # Xe
273 273 1 0.0 909.0309617758203 230.07428446115895 107.42890499943144 # Xe
274 274 1 0.0 769.0992130429116 45.58800023788815 738.5560389273093 # Xe
275 275 1 0.0 211.38102657199312 757.5532232549141 121.45265426380786 # Xe
276 276 1 0.0 178.4422012232238 280.6365994578557 856.7617067048063 # Xe
277 277 1 0.0 404.02407880273756 264.75893196338194 810.1194196872718 # Xe
278 278 1 0.0 406.4580714691806 803.7384534503522 66.65517290953939 # Xe
279 279 1 0.0 904.4941594527832 815.1457757533398 673.9191708182958 # Xe
280 280 1 0.0 495.956238430376 568.9503922203457 126.20001820636098 # Xe
281 281 1 0.0 481.86895833421016 681.2722050064506 268.73035346160043 # Xe
282 282 1 0.0 123.21648346982407 125.41009757584429 91.03247142719671 # Xe
283 283 1 0.0 172.88061086132691 223.86584655672846 165.4401431714096 # Xe
284 284 1 0.0 256.2381046506661 867.1947115070193 686.5878332224233 # Xe
285 285 1 0.0 376.63173551906806 437.99379043074634 431.5054544121176 # Xe
286 286 1 0.0 870.6281040653105 812.6827306727124 850.0615823968585 # Xe
287 287 1 0.0 588.776723210858 833.4385901631795 792.2882665286786 # Xe
288 288 1 0.0 699.4428156397149 103.09304039234145 251.34378349796125 # Xe
289 289 1 0.0 7.455531322271931 278.93220589922043 720.6724621999648 # Xe
290 290 1 0.0 452.89087404519034 321.42564541701523 0.8110645714908931 # Xe
291 291 1 0.0 876.4202396218752 404.75798628346257 372.5348707087634 # Xe
292 292 1 0.0 848.6895820621171 443.68328552191826 218.5029556223975 # Xe
293 293 1 0.0 301.2110838165599 773.9676440586509 132.53399026368584 # Xe
294 294 1 0.0 913.4697869075704 254.44919197771793 789.2537587194004 # Xe
295 295 1 0.0 664.9248548725426 587.5668932607 803.0100797333178 # Xe
296 296 1 0.0 245.9868819542554 75.35807171104481 103.06266400385242 # Xe
297 297 1 0.0 120.81318702431142 519.754603703947 537.068515978857 # Xe
298 298 1 0.0 450.1640785039513 922.2257172215742 547.017779400173 # Xe
299 299 1 0.0 283.1241387861837 375.26056192695336 131.37359307380322 # Xe
300 300 1 0.0 336.51121797609085 700.6202087540305 76.45185071670319 # Xe
301 301 1 0.0 906.1207286828532 388.54725141007174 435.93292209742333 # Xe
302 302 1 0.0 681.4597288277234 404.13504909250247 923.017382063681 # Xe
303 303 1 0.0 609.4494441250786 917.9655414892669 229.6353800348571 # Xe
304 304 1 0.0 373.7946924755444 815.2313064841665 229.8354234314243 # Xe
305 305 1 0.0 557.8986104380497 837.8003898332059 615.2691604418567 # Xe
306 306 1 0.0 234.8689124230758 480.8709814828562 409.90878756571897 # Xe
307 307 1 0.0 121.80287457816982 327.18904113759015 156.5549752940297 # Xe
308 308 1 0.0 407.8794741174058 439.42464988154524 43.795663721166214 # Xe
309 309 1 0.0 353.43498713634483 137.28316565801825 25.1288802669328 # Xe
310 310 1 0.0 617.1082208468323 11.884494225321308 236.4312052439577 # Xe
311 311 1 0.0 820.1324009865492 259.32197450667917 541.8463228816637 # Xe
312 312 1 0.0 171.6949571659198 441.7260140513939 295.73008117581725 # Xe
313 313 1 0.0 184.69551219928502 465.2760479180838 919.1785058073957 # Xe
314 314 1 0.0 557.8817771925421 602.2000740942103 385.3058596903168 # Xe
315 315 1 0.0 122.5788468341499 19.60413480969095 925.8478497103822 # Xe
316 316 1 0.0 210.19605181026645 269.69340639914793 396.3297505349312 # Xe
317 317 1 0.0 586.4125685000542 757.7536592989505 5.383644294779452 # Xe
318 318 1 0.0 679.6339096104391 360.5388217009328 82.99656928124463 # Xe
319 319 1 0.0 768.3970473247969 16.436624620839847 644.6219978515793 # Xe
320 320 1 0.0 863.4934457931083 190.63174871912298 708.1255465316955 # Xe
321 321 1 0.0 801.2559802074625 477.2577441422856 292.15748772817153 # Xe
322 322 1 0.0 219.9740665305269 13.886942479370893 673.0307029972256 # Xe
323 323 1 0.0 255.98278669936715 93.09458944283342 635.0100520204974 # Xe
324 324 1 0.0 257.96964656603444 842.1810445199585 770.6540619364333 # Xe
325 325 1 0.0 307.2732150698311 870.9258562481174 128.15251215504398 # Xe
326 326 1 0.0 574.2874954009247 674.7980792432613 681.471003407042 # Xe
327 327 1 0.0 746.5395539659759 538.5034206299075 149.63310096141808 # Xe
328 328 1 0.0 274.9403481309537 417.838352179278 160.2371188956955 # Xe
329 329 1 0.0 820.4684320468238 275.0803024331283 680.733147693527 # Xe
330 330 1 0.0 76.44566730058685 752.9457796476498 314.55437788627205 # Xe
331 331 1 0.0 91.69990647337313 230.05908303312856 898.7554162413044 # Xe
332 332 1 0.0 510.1193141089779 178.28070526471862 887.3176635823362 # Xe
333 333 1 0.0 255.42261469698772 743.8129370363916 638.007766093754 # Xe
334 334 1 0.0 786.0295706451194 411.5317899807535 322.12876501967077 # Xe
335 335 1 0.0 863.9583048673766 624.8292293804237 297.8576699569496 # Xe
336 336 1 0.0 220.63814356905016 299.4530071332347 853.0892636632507 # Xe
337 337 1 0.0 352.8847231946597 705.3988856137524 55.980324337443605 # Xe
338 338 1 0.0 736.4973197894171 500.27410170619993 407.0868646972271 # Xe
339 339 1 0.0 852.2214744282268 870.3444732334981 613.0210271981701 # Xe
340 340 1 0.0 598.142228851138 161.8471428960576 94.70225821986948 # Xe
341 341 1 0.0 726.5888728193092 392.4912477472105 751.9250960344878 # Xe
342 342 1 0.0 344.78511425173855 716.3239550456444 928.6598649806878 # Xe
343 343 1 0.0 148.22625926147714 283.80303756938815 730.652634406049 # Xe
344 344 1 0.0 561.2309250002044 833.9636540193117 416.83427319843116 # Xe
345 345 1 0.0 181.4057099520055 587.9688826592885 230.76143693535823 # Xe
346 346 1 0.0 294.912500272971 317.07218906768315 240.8083082718629 # Xe
347 347 1 0.0 120.401643847002 554.6232118978924 552.0562527375586 # Xe
348 348 1 0.0 279.98437238032733 174.5587064007537 813.0399005958235 # Xe
349 349 1 0.0 408.1191420445551 526.8117920395936 75.56640374811589 # Xe
350 350 1 0.0 82.29431169991823 339.1681632144853 322.4814093653859 # Xe
351 351 1 0.0 596.2929080696048 260.81225373715927 89.58847350764451 # Xe
352 352 1 0.0 407.39991728662 62.70870174164129 772.8925974083705 # Xe
353 353 1 0.0 120.12745983117213 398.2410144594344 695.2032386938959 # Xe
354 354 1 0.0 865.6666894028868 391.2393292644275 429.2556721178217 # Xe
355 355 1 0.0 718.3800300219827 916.6038954648294 500.8226702484969 # Xe
356 356 1 0.0 833.8991712702914 134.7676954499572 578.1149959367933 # Xe
357 357 1 0.0 481.4257951172548 116.57627715076282 95.98589641337465 # Xe
358 358 1 0.0 511.4368338400751 188.55711047225574 317.7649907230499 # Xe
359 359 1 0.0 133.98090978176918 734.4714576125817 851.2932991853788 # Xe
360 360 1 0.0 405.48591605999496 761.8632169391796 181.5585674307883 # Xe
361 361 1 0.0 673.5190503070328 365.26961241844424 206.8966402456774 # Xe
362 362 1 0.0 243.7544099481651 845.5739813049744 210.25310555438105 # Xe
363 363 1 0.0 139.39747291395057 296.3628508994846 36.790550581340675 # Xe
364 364 1 0.0 178.05636038158178 859.3688628550112 297.88069228064177 # Xe
365 365 1 0.0 821.8861316282029 858.4595881928967 422.76848901903963 # Xe
366 366 1 0.0 720.0115017397461 429.8542898857574 874.663671415034 # Xe
367 367 1 0.0 338.08314755579056 627.7659188322752 543.8090658382945 # Xe
368 368 1 0.0 756.9231235477904 740.5204048155996 898.8537687822661 # Xe
369 369 1 0.0 566.0498068359559 136.95457184452778 129.54943574493498 # Xe
370 370 1 0.0 234.20259980156243 794.3190699065572 161.05961450670694 # Xe
371 371 1 0.0 466.19309485758436 520.8036093673469 468.4315038478573 # Xe
372 372 1 0.0 203.85576790010742 145.46998017000206 265.77906335551603 # Xe
373 373 1 0.0 669.3658876316331 120.78611565143629 491.3099920027294 # Xe
374 374 1 0.0 61.78256728409038 586.0038665743 349.46512171371813 # Xe
375 375 1 0.0 280.3036075803886 826.485370356852 869.1197654507531 # Xe
376 376 1 0.0 442.27771235786224 194.44079649297805 350.61800065517866 # Xe
377 377 1 0.0 65.18119952090852 436.0916964024581 931.0657917714758 # Xe
378 378 1 0.0 907.7224805140739 874.8363644051824 390.6589633843073 # Xe
379 379 1 0.0 468.55954548316527 158.9945324810605 479.33697678146456 # Xe
380 380 1 0.0 638.5191356689303 607.6153999731149 224.99019565682823 # Xe
381 381 1 0.0 848.6024977607308 714.4089159870741 164.15088071096065 # Xe
382 382 1 0.0 832.8817435331482 133.35612136927767 792.6679104348326 # Xe
383 383 1 0.0 131.92215106390364 922.2899946111996 531.2000211089643 # Xe
384 384 1 0.0 247.42163017569274 350.9100195626491 909.9877691408142 # Xe
385 385 1 0.0 426.35270331993365 632.398821231811 281.87005490637625 # Xe
386 386 1 0.0 694.536939971161 801.4401550758191 241.54024687099928 # Xe
387 387 1 0.0 58.68872275049904 894.1004199908127 259.3311386201645 # Xe
388 388 1 0.0 929.8778723074814 333.5958811259518 352.6328435366306 # Xe
389 389 1 0.0 327.5479183804772 712.5244276186656 744.1320061668501 # Xe
390 390 1 0.0 428.5345153114722 820.4650937652937 209.70806241749298 # Xe
391 391 1 0.0 93.94193092118739 368.93704406286093 894.1128628330066 # Xe
392 392 1 0.0 327.1294354802867 379.494032682417 178.98020498116037 # Xe
393 393 1 0.0 462.27667812154954 177.38946456176726 209.97613317537866 # Xe
394 394 1 0.0 110.21298021694642 607.2870547861265 207.54374134797968 # Xe
395 395 1 0.0 858.6034528218205 275.19358853503064 423.33162119153167 # Xe
396 396 1 0.0 862.1902750959438 448.5412554882546 398.53847317443444 # Xe
397 397 1 0.0 612.2164698216903 393.55428559498034 717.6553892764412 # Xe
398 398 1 0.0 374.99408811909365 728.1318929241761 481.87265703077895 # Xe
399 399 1 0.0 737.5173981850223 548.1495406426075 706.0067118437601 # Xe
400 400 1 0.0 717.9474205617059 476.54562263567993 413.16979306711676 # Xe
401 401 1 0.0 121.62463441122595 220.40292551777588 705.6538853488069 # Xe
402 402 1 0.0 3.6333017545455197 615.2044593380491 158.94766871639303 # Xe
403 403 1 0.0 238.83882087335593 352.0616354610614 419.52926089803196 # Xe
404 404 1 0.0 701.5560681819131 603.6129579396777 684.5432561558553 # Xe
405 405 1 0.0 645.0782098808394 45.02709910571648 910.5059349547172 # Xe
406 406 1 0.0 17.051950727901804 137.33806952634268 7.673701287975888 # Xe
407 407 1 0.0 747.3646528337912 795.8940812124736 374.9711181158749 # Xe
408 408 1 0.0 277.1558031791495 360.71462965716427 667.3632519620161 # Xe
409 409 1 0.0 873.7679745424167 241.39774035296506 723.6148479844941 # Xe
410 410 1 0.0 523.2377994976564 750.3648434934576 742.0133143897052 # Xe
411 411 1 0.0 136.18147202053856 79.42543888495372 866.2636520645774 # Xe
412 412 1 0.0 414.8655558342308 465.87973751444883 520.4624344614912 # Xe
413 413 1 0.0 388.3152618389162 870.8622841356748 600.0569528935987 # Xe
414 414 1 0.0 490.31352803705937 730.512362636783 559.8663978936282 # Xe
415 415 1 0.0 480.17788653848163 132.9832367272737 319.53791957839434 # Xe
416 416 1 0.0 33.58757916658217 170.06211187924598 38.23328449501005 # Xe
417 417 1 0.0 446.64645048716017 52.61122429975854 337.49650032553006 # Xe
418 418 1 0.0 26.22230212051579 738.8522115520946 642.6248404357794 # Xe
419 419 1 0.0 540.9395388757349 172.23395943335774 12.294646551401655 # Xe
420 420 1 0.0 63.95638433849216 10.440723915750342 537.5532527069279 # Xe
421 421 1 0.0 135.2824622698133 611.0773905591952 243.84476537513697 # Xe
422 422 1 0.0 567.3409286184495 373.9509570695059 484.1187091920613 # Xe
423 423 1 0.0 571.3357050263141 197.6641058717622 294.82029475582425 # Xe
424 424 1 0.0 623.2458836574456 666.4438530407095 513.1825357673646 # Xe
425 425 1 0.0 480.7117157748116 665.0691199728926 713.7649582958595 # Xe
426 426 1 0.0 907.5522471117706 901.8241604546276 104.16297702499477 # Xe
427 427 1 0.0 134.75331240601975 201.76138896741273 925.4923386946117 # Xe
428 428 1 0.0 127.04231210005557 577.9152619024774 758.642607136967 # Xe
429 429 1 0.0 317.344521753176 130.540028383607 241.34477490113946 # Xe
430 430 1 0.0 249.1472992217314 49.47489392541813 431.5396559845967 # Xe
431 431 1 0.0 306.2414477658779 573.5765852118532 614.9435363399012 # Xe
432 432 1 0.0 134.69774106449788 619.9099326199901 624.4243975899768 # Xe
433 433 1 0.0 861.8006520833536 852.5282858070435 454.43113873123895 # Xe
434 434 1 0.0 708.1033686888276 80.3319568634299 640.3844976237151 # Xe
435 435 1 0.0 636.9073182314374 701.6956515889809 432.36475312006513 # Xe
436 436 1 0.0 780.6582420543008 16.165973221034218 78.01644919453771 # Xe
437 437 1 0.0 489.8812401023273 649.7897301118018 23.961957546520495 # Xe
438 438 1 0.0 374.78349505097475 907.9476768897972 915.7683971737296 # Xe
439 439 1 0.0 436.96046589179497 54.42041377230746 741.3244002846608 # Xe
440 440 1 0.0 456.5471282657856 855.7124543559679 714.1289812760416 # Xe
441 441 1 0.0 860.1474500779613 562.0541623079594 71.02119530972149 # Xe
442 442 1 0.0 215.2502965773767 633.2209419262432 150.86620427234152 # Xe
443 443 1 0.0 62.952686632308826 134.1346912078652 159.46827355990172 # Xe
444 444 1 0.0 925.4557488199928 883.2481447324074 922.4634241037924 # Xe
445 445 1 0.0 887.1447079805391 446.48202416994246 330.4356768642922 # Xe
446 446 1 0.0 202.06692502672857 337.43215685309036 927.4541174376042 # Xe
447 447 1 0.0 96.58998027416175 328.805819748885 790.6903004585268 # Xe
448 448 1 0.0 121.89923095453223 331.84161379704085 770.3643496874886 # Xe
449 449 1 0.0 461.91618111834083 544.6084111106533 357.8651706495167 # Xe
450 450 1 0.0 625.4703885371047 456.82284381111526 286.32430120807174 # Xe
451 451 1 0.0 769.6236412556893 448.0572880464067 573.3662390926606 # Xe
452 452 1 0.0 172.30476882854282 640.8251473186724 892.0979884396193 # Xe
453 453 1 0.0 711.0999907315247 572.6706806129549 504.2658014385643 # Xe
454 454 1 0.0 622.8119800593495 318.5487810970826 827.5349610731739 # Xe
455 455 1 0.0 434.78786209155385 396.9365890130812 382.26986601907385 # Xe
456 456 1 0.0 136.20168015513215 931.5918353287715 519.7364129727481 # Xe
457 457 1 0.0 38.17988759672947 809.8155568997591 915.1001317488102 # Xe
458 458 1 0.0 465.8789197053592 127.88393400231563 85.77818146486602 # Xe
459 459 1 0.0 78.48609562049931 376.8577630326983 34.4698181542928 # Xe
460 460 1 0.0 818.5338691068355 857.6748395257374 806.2778200955388 # Xe
461 461 1 0.0 73.77198556557143 55.12855754149114 98.21278408267847 # Xe
462 462 1 0.0 460.456083017623 582.217658834504 544.6003578309904 # Xe
463 463 1 0.0 524.1652252186499 757.5654001126558 247.91606257429197 # Xe
464 464 1 0.0 828.0688857856891 38.658709636234974 150.7945549675843 # Xe
465 465 1 0.0 526.2722884199136 157.95968977665763 805.3851205371358 # Xe
466 466 1 0.0 461.3948204776007 870.6988728368817 139.9089917158461 # Xe
467 467 1 0.0 325.1539394822064 716.5924855023917 130.88350717994018 # Xe
468 468 1 0.0 245.5290578172295 327.53380335241263 693.4225960214898 # Xe
469 469 1 0.0 110.5411257395073 501.90632853572674 717.5669021785434 # Xe
470 470 1 0.0 331.34990628491454 227.91959323166384 214.8586806404123 # Xe
471 471 1 0.0 282.8914276443805 890.360395038027 196.54557142469218 # Xe
472 472 1 0.0 774.4614189266949 273.2346722117839 111.68374187802823 # Xe
473 473 1 0.0 491.7823988721546 28.74521528051952 295.8782425950896 # Xe
474 474 1 0.0 34.061550651146135 436.00340624157815 915.6667265101606 # Xe
475 475 1 0.0 539.8270829132925 73.44119913669083 861.3198053558019 # Xe
476 476 1 0.0 461.8915144730649 695.1011898845754 297.58571604442886 # Xe
477 477 1 0.0 601.6246561465774 457.56895699491093 5.447630700811065 # Xe
478 478 1 0.0 591.6408972151634 811.7281114184349 121.13490648362072 # Xe
479 479 1 0.0 683.7626654946747 466.98542848139414 809.0857170411606 # Xe
480 480 1 0.0 489.95379710315837 8.2801284903098 190.57508350995812 # Xe
481 481 1 0.0 894.3104024137633 158.10212504204867 606.0903606719272 # Xe
482 482 1 0.0 693.2371379140945 282.78789046222 500.0599808874359 # Xe
483 483 1 0.0 512.2907561227403 560.3880632845929 180.0468923728259 # Xe
484 484 1 0.0 417.3146473491615 88.53487420050648 614.2161611287872 # Xe
485 485 1 0.0 622.0546555820108 430.5397497665726 506.26110691856087 # Xe
486 486 1 0.0 911.5054806881647 769.1880791373243 604.0023305791722 # Xe
487 487 1 0.0 117.67545813527279 566.880660048646 73.31371679314326 # Xe
488 488 1 0.0 255.56686538150484 767.0189707993003 481.438907827094 # Xe
489 489 1 0.0 878.1124443318043 778.0285481889387 271.1591090866902 # Xe
490 490 1 0.0 790.7079009630886 263.03951932215654 345.970851902805 # Xe
491 491 1 0.0 829.8915757623125 809.8833684168142 858.2291831266533 # Xe
492 492 1 0.0 810.789091726283 377.5022833477417 374.92879267963133 # Xe
493 493 1 0.0 505.2540788693488 361.77657519289187 630.5993202938209 # Xe
494 494 1 0.0 101.5029009964651 344.0447863928759 723.2799973688718 # Xe
495 495 1 0.0 770.7391994313932 639.2847988420306 770.1400030564238 # Xe
496 496 1 0.0 507.8938197667202 340.3876130382667 456.48933403220843 # Xe
497 497 1 0.0 727.8120744274465 217.17107825104438 326.5564455015264 # Xe
498 498 1 0.0 353.8994491023535 515.8135564533353 240.72058641905912 # Xe
499 499 1 0.0 688.435606014127 311.1418685278661 303.82777252249645 # Xe
500 500 1 0.0 627.6373371486843 184.77403679581096 74.7677306740433 # Xe
501 501 1 0.0 569.5207127437723 225.16205893498258 328.0200629739642 # Xe
502 502 1 0.0 742.3860267564518 130.8635866763752 427.2926827258672 # Xe
503 503 1 0.0 693.8470078348806 194.40268186219612 688.3333158942396 # Xe
504 504 1 0.0 493.15186679451676 557.886418382311 894.8678992173758 # Xe
505 505 1 0.0 402.7414900049905 289.2368220307694 887.7652904410761 # Xe
506 506 1 0.0 741.7906709549676 527.4038372915065 626.5204769731814 # Xe
507 507 1 0.0 651.2326249305546 682.7636263174596 332.23725102935373 # Xe
508 508 1 0.0 514.137433119427 679.6759684637565 270.44397312211163 # Xe
509 509 1 0.0 248.06061966926882 181.43697426907937 83.74840550364532 # Xe
510 510 1 0.0 778.1138988242203 266.67616507027793 372.3802927903855 # Xe
511 511 1 0.0 323.97819967776746 194.65646014309888 655.6864143157453 # Xe
512 512 1 0.0 379.52795292693526 187.6915928034563 302.95506186281733 # Xe
513 513 1 0.0 874.3918475522638 251.9325550237695 303.5303503658969 # Xe
514 514 1 0.0 82.67824663350109 932.5004879300362 110.18013965035954 # Xe
515 515 1 0.0 643.7221214190649 597.9305067385554 162.21266543249865 # Xe
516 516 1 0.0 817.0763108018666 666.2382895248122 575.3071720190384 # Xe
517 517 1 0.0 3.8401922714819494 768.2938766498402 336.41481155466374 # Xe
518 518 1 0.0 372.69437915241116 241.38736493911097 905.425866882804 # Xe
519 519 1 0.0 441.7103239529188 653.3498988884304 22.228314008057104 # Xe
520 520 1 0.0 642.920295742948 912.7913065082874 249.56669435213684 # Xe
521 521 1 0.0 892.9112154590499 552.6979967506644 840.4423728955568 # Xe
522 522 1 0.0 399.43246484111944 836.1316193828928 760.0526717031455 # Xe
523 523 1 0.0 404.1687204788407 757.532635169752 707.3935958115857 # Xe
524 524 1 0.0 754.6652104062646 584.7847553489823 574.12134424921 # Xe
525 525 1 0.0 323.78972034637127 203.0849838557902 49.009371818369274 # Xe
526 526 1 0.0 186.52165426448522 256.5161844472022 746.6604209645755 # Xe
527 527 1 0.0 438.16624691831515 800.3910687698543 365.9163345501985 # Xe
528 528 1 0.0 829.0694804301255 835.4485475124967 457.47573337613824 # Xe
529 529 1 0.0 177.01124056081642 816.0734836348292 93.85363015055087 # Xe
530 530 1 0.0 513.3899886865202 827.5511741883512 256.7238945224292 # Xe
531 531 1 0.0 130.5688480722675 875.9866984374129 540.2769399120501 # Xe
532 532 1 0.0 209.4703699790052 571.7688098964906 731.8719233625583 # Xe
533 533 1 0.0 309.8270579366921 763.4726132476678 345.3193756594219 # Xe
534 534 1 0.0 363.70475939920783 563.241313391261 886.0074952378511 # Xe
535 535 1 0.0 313.85782712325005 314.3034100313524 831.2051371560285 # Xe
536 536 1 0.0 642.0304336781985 24.059544963723695 19.20207216898719 # Xe
537 537 1 0.0 924.0000795141401 5.5091601203628064 42.71969050258093 # Xe
538 538 1 0.0 894.6836924078814 744.41464844962 825.7203388413018 # Xe
539 539 1 0.0 179.0188910032134 571.619150347011 778.7256604746875 # Xe
540 540 1 0.0 472.8090120456231 509.8035258610502 671.912253376146 # Xe
541 541 1 0.0 687.5095928928217 496.2709042482071 432.85470023787843 # Xe
542 542 1 0.0 876.0521385535131 54.65694002762805 489.58002527563866 # Xe
543 543 1 0.0 117.98746166146564 262.86904928875657 356.64989166032063 # Xe
544 544 1 0.0 674.5758228363682 192.51291155165447 790.3089507186255 # Xe
545 545 1 0.0 832.7550903234402 414.05335665188574 147.25144775948863 # Xe
546 546 1 0.0 832.5886264487965 225.09084297341926 872.0996217588414 # Xe
547 547 1 0.0 775.4936568222151 456.7278578276785 268.1709582821287 # Xe
548 548 1 0.0 39.70122892174203 122.392665388506 252.70283351966327 # Xe
549 549 1 0.0 83.21164679485993 895.8137244390067 914.0534381047223 # Xe
550 550 1 0.0 844.0884071216607 733.8757280364096 294.34929742873254 # Xe
551 551 1 0.0 254.13257268930258 481.63223354131696 609.0801155777352 # Xe
552 552 1 0.0 549.3628384501003 200.05301086941532 339.4780034647549 # Xe
553 553 1 0.0 895.4614901898739 345.5803675597344 228.86264076242512 # Xe
554 554 1 0.0 149.56113078727657 717.772151091036 406.8830748908419 # Xe
555 555 1 0.0 298.3633017953081 645.5505891442477 62.23465169811549 # Xe
556 556 1 0.0 5.430219550011246 894.8909979641344 557.8116724944678 # Xe
557 557 1 0.0 396.3617910232507 308.2275086465609 13.96164227869593 # Xe
558 558 1 0.0 149.39756775396174 35.785945542912486 20.163551588812915 # Xe
559 559 1 0.0 534.4330934021332 709.533790334716 110.67105947356407 # Xe
560 560 1 0.0 175.90357532640917 916.9700242877739 658.5562494476179 # Xe
561 561 1 0.0 856.9319868889651 200.7373590208481 54.636495026839356 # Xe
562 562 1 0.0 576.1656964936252 485.95437988277916 604.278767851533 # Xe
563 563 1 0.0 53.125501659340074 398.6297499998661 895.9412113831336 # Xe
564 564 1 0.0 933.5052825326466 574.7920407885962 331.27349600263324 # Xe
565 565 1 0.0 139.77234545303733 55.20385966664059 468.66248815315043 # Xe
566 566 1 0.0 494.69076905637024 125.67719321372667 252.0838088143006 # Xe
567 567 1 0.0 65.7577817964096 833.2403136158019 169.91731530241492 # Xe
568 568 1 0.0 569.110892994728 355.0911380373719 78.84439455620762 # Xe
569 569 1 0.0 20.444085677533803 272.0558683580533 151.78996794685747 # Xe
570 570 1 0.0 256.91300493522397 455.31307481673446 488.02830028638 # Xe
571 571 1 0.0 758.9213645732071 444.7823048830946 263.375396640496 # Xe
572 572 1 0.0 119.15039707080095 258.07160864613854 654.6636866892553 # Xe
573 573 1 0.0 127.72552011132345 159.58576306434207 521.7393016971362 # Xe
574 574 1 0.0 245.91658477842256 501.46380790216534 150.6626316034621 # Xe
575 575 1 0.0 643.7614351493264 778.158948375656 726.0803627066375 # Xe
576 576 1 0.0 421.39877708618076 170.18414098945627 698.2245482725851 # Xe
577 577 1 0.0 365.2754451457779 127.45445055560455 443.21017728309295 # Xe
578 578 1 0.0 391.9398465091776 380.5697332509349 895.2458004941126 # Xe
579 579 1 0.0 308.92890680901104 331.78417371167035 216.09112037160222 # Xe
580 580 1 0.0 645.0352264338837 575.7689327057108 185.4671609529587 # Xe
581 581 1 0.0 800.823338819678 305.66162491877145 649.7320825742803 # Xe
582 582 1 0.0 155.86905945296016 666.9821194969367 147.38507893767942 # Xe
583 583 1 0.0 758.3078825817198 409.33429684622405 325.9352655812809 # Xe
584 584 1 0.0 827.28224808274 447.0243077025148 534.6535854355297 # Xe
585 585 1 0.0 703.0381232284016 838.9940375918874 592.0063877166174 # Xe
586 586 1 0.0 912.0954896451758 667.0534782247354 48.38049558074459 # Xe
587 587 1 0.0 648.3312288782353 120.60604235374781 464.921022703449 # Xe
588 588 1 0.0 65.15430855971323 514.5067844424805 859.161649990452 # Xe
589 589 1 0.0 660.5050179709062 148.70147331948675 471.5849979536226 # Xe
590 590 1 0.0 664.9159453283081 563.1316772258639 64.40528618019016 # Xe
591 591 1 0.0 257.97114510393294 489.3977618266807 59.07127748718882 # Xe
592 592 1 0.0 120.41396421012449 21.45961305000306 850.7137455608831 # Xe
593 593 1 0.0 385.1524753831948 167.0064259469585 116.17166624687935 # Xe
594 594 1 0.0 262.3935229848096 229.48958819951793 203.1446309048274 # Xe
595 595 1 0.0 786.7265963580156 593.0390137664983 592.6180778351732 # Xe
596 596 1 0.0 785.1219542871877 46.978614197254394 101.49151552205396 # Xe
597 597 1 0.0 153.60163065428327 267.7245632903438 512.2944886019687 # Xe
598 598 1 0.0 217.50091076686198 378.5787977721851 12.190353192449098 # Xe
599 599 1 0.0 102.1167109183538 244.60886818507473 485.95301700568865 # Xe
600 600 1 0.0 1.4270511448801662 444.6739335148153 464.1291528878852 # Xe
601 601 1 0.0 633.1004288557748 726.545015357535 368.8562953167535 # Xe
602 602 1 0.0 266.07974683773847 268.6948894219448 429.30931505220894 # Xe
603 603 1 0.0 723.1074370373453 500.91107801238553 309.7160758929782 # Xe
604 604 1 0.0 33.24613887633682 676.7449310812345 364.39708588390914 # Xe
605 605 1 0.0 741.7122408037 471.6872281044877 412.3775313509151 # Xe
606 606 1 0.0 823.5299478349062 575.5199467523538 136.74348340455043 # Xe
607 607 1 0.0 514.4953652335238 855.443724672269 374.0876395499217 # Xe
608 608 1 0.0 366.55264141311244 116.19620723003042 153.65963312413982 # Xe
609 609 1 0.0 247.42349970673845 470.0454270236413 497.2529990778366 # Xe
610 610 1 0.0 4.484627798004743 274.67639119291687 363.0551673776966 # Xe
611 611 1 0.0 386.31568447258525 883.6945566005105 618.217406980494 # Xe
612 612 1 0.0 139.78829406508905 240.49933315062194 331.6227774902986 # Xe
613 613 1 0.0 537.5209301641991 251.99960733852123 711.638330060311 # Xe
614 614 1 0.0 91.59156716942456 876.8970275264611 717.9586553066476 # Xe
615 615 1 0.0 393.83225586602214 445.4492149255475 291.8920344836025 # Xe
616 616 1 0.0 483.3376117067341 725.5724820927771 206.98675238024322 # Xe
617 617 1 0.0 337.4268938562436 271.16765583982095 747.3561713939554 # Xe
618 618 1 0.0 794.6914245671851 360.39580776057534 903.0419546676233 # Xe
619 619 1 0.0 465.7482142167479 379.7783510356912 659.9057503702417 # Xe
620 620 1 0.0 6.5673268002474625 206.63105278848406 630.0299474466842 # Xe
621 621 1 0.0 356.69464729526544 183.92686436328842 917.0035508780916 # Xe
622 622 1 0.0 399.2251816694877 622.043304944164 605.7315462301262 # Xe
623 623 1 0.0 234.30321261728525 242.37640118101766 278.32790648478027 # Xe
624 624 1 0.0 297.92291201327043 845.1470531322708 655.0662352339592 # Xe
625 625 1 0.0 679.832775300174 772.0876891635946 823.9479322567752 # Xe
626 626 1 0.0 327.5325133995021 369.55236565287964 460.73635925010643 # Xe
627 627 1 0.0 479.4639643383896 683.877900261964 244.3756812307435 # Xe
628 628 1 0.0 270.18164175865206 890.8929502741726 595.3566029043473 # Xe
629 629 1 0.0 305.3248477217992 188.9696830354915 306.55231892860496 # Xe
630 630 1 0.0 398.74058140748383 730.6070173907154 717.9086306329474 # Xe
631 631 1 0.0 102.06631030823046 514.3697033564907 373.08311690075703 # Xe
632 632 1 0.0 655.1411778523433 355.8143826044726 893.0100538184357 # Xe
633 633 1 0.0 601.270131370846 62.06296146414392 386.2229552085906 # Xe
634 634 1 0.0 610.4824422485149 146.9814996442252 339.58682582651693 # Xe
635 635 1 0.0 96.39977694687737 600.0970673474617 901.2322478127128 # Xe
636 636 1 0.0 384.53623224066416 469.3826719590832 919.38432394805 # Xe
637 637 1 0.0 611.4647121663671 679.6236585104808 857.361799089125 # Xe
638 638 1 0.0 619.5427375294355 174.3457510111454 745.738622001414 # Xe
639 639 1 0.0 536.3720328317457 21.334983702391444 230.6129559241858 # Xe
640 640 1 0.0 1.7574958605794995 355.5733382987111 317.7387401676179 # Xe
641 641 1 0.0 806.87858877307 746.0510967266337 363.64942879648237 # Xe
642 642 1 0.0 540.2112508816645 847.5891387296494 588.8950682975405 # Xe
643 643 1 0.0 646.3450526506681 367.2742106000062 903.9352248682144 # Xe
644 644 1 0.0 674.9647461715922 431.7316115823141 523.2379966875623 # Xe
645 645 1 0.0 786.0678347544648 190.76964388718986 473.0641424991145 # Xe
646 646 1 0.0 447.31110013240766 93.86453849021194 0.17206746874966578 # Xe
647 647 1 0.0 501.4629268340505 177.32680047593513 430.1795685082288 # Xe
648 648 1 0.0 143.20945622749372 695.51332897527 772.5625143760258 # Xe
649 649 1 0.0 247.62033704866 762.0234514425389 147.27141446264278 # Xe
650 650 1 0.0 580.2943638802818 837.709999787235 538.568121308416 # Xe
651 651 1 0.0 732.9820187058522 826.3883948385399 554.4108997470196 # Xe
652 652 1 0.0 705.1767997668134 242.06384549560923 535.9715337154965 # Xe
653 653 1 0.0 336.1060851985307 412.44829623414466 508.5917541595687 # Xe
654 654 1 0.0 575.0977826723043 121.11318964881323 113.81462108165972 # Xe
655 655 1 0.0 238.35905744567643 145.5713282106546 615.3204118724395 # Xe
656 656 1 0.0 646.5041339674493 396.62712422949465 586.5240056203966 # Xe
657 657 1 0.0 53.2238465492992 892.3734574570897 290.34077058560143 # Xe
658 658 1 0.0 237.9217071838279 10.073094844746068 316.1381037883414 # Xe
659 659 1 0.0 903.6530236252017 675.5197332471537 920.2413431206443 # Xe
660 660 1 0.0 6.155033657718703 460.73526565356207 152.04619879550714 # Xe
661 661 1 0.0 434.93066789810814 213.8833658407013 914.6996124567925 # Xe
662 662 1 0.0 689.27506574039 83.91910880298367 28.976032554133578 # Xe
663 663 1 0.0 103.3518793212431 68.59947279403666 181.2958558674134 # Xe
664 664 1 0.0 407.7926969928563 351.66868629961624 150.84541446226015 # Xe
665 665 1 0.0 862.3629706672415 54.642719964459175 616.5630167384138 # Xe
666 666 1 0.0 553.877312856235 591.2682633979845 241.73531889722787 # Xe
667 667 1 0.0 560.5911695704825 446.9744080014668 284.3195146118668 # Xe
668 668 1 0.0 818.8720447365561 858.0373447076524 31.338696159932105 # Xe
669 669 1 0.0 167.977910723866 144.24347405138445 570.2113026458067 # Xe
670 670 1 0.0 9.184988399844343 674.9976630556789 514.3913820292862 # Xe
671 671 1 0.0 111.60663692001661 633.7638792308279 568.2524285131722 # Xe
672 672 1 0.0 430.6548491690543 100.77286670720439 832.5982469399522 # Xe
673 673 1 0.0 301.4935230775918 14.02224433922098 359.78284873985706 # Xe
674 674 1 0.0 714.849830716332 839.263745976039 817.1488139874282 # Xe
675 675 1 0.0 887.4889004479834 668.3391903837883 370.8639878675736 # Xe
676 676 1 0.0 644.2941024020378 194.42436386817482 567.3815094694319 # Xe
677 677 1 0.0 841.0896900060126 313.58937882321777 52.737797092401735 # Xe
678 678 1 0.0 595.5987821349461 410.7973174470234 659.7304986789219 # Xe
679 679 1 0.0 473.1514632909453 146.59018217715447 854.243287488739 # Xe
680 680 1 0.0 839.9044528690938 737.7703065513446 525.4170165489619 # Xe
681 681 1 0.0 46.968334682469376 916.2211217542125 749.904521935808 # Xe
682 682 1 0.0 487.50909583415284 561.3951102682765 883.1557181981111 # Xe
683 683 1 0.0 349.7212977172751 358.6545744155434 185.1210237743512 # Xe
684 684 1 0.0 836.0393027398936 224.55670462601975 295.5276169888873 # Xe
685 685 1 0.0 183.23967209948583 43.06673493402964 636.45805242488 # Xe
686 686 1 0.0 342.8604683689471 488.0513642173759 563.3711777626304 # Xe
687 687 1 0.0 145.9422089262582 236.91951455263433 649.0047879989829 # Xe
688 688 1 0.0 640.6280007505991 330.42836670230844 792.7036763281843 # Xe
689 689 1 0.0 596.9479407556979 422.88586311648663 480.1432278044305 # Xe
690 690 1 0.0 739.6534623462741 471.6869616468339 440.00215503542614 # Xe
691 691 1 0.0 901.0312742099958 850.0089633038435 27.42148365237855 # Xe
692 692 1 0.0 105.33606246088114 633.539609322031 370.785740334808 # Xe
693 693 1 0.0 666.0796858735554 816.2997327426585 648.1928429224736 # Xe
694 694 1 0.0 298.6121866706508 417.35066662699245 682.1170180592081 # Xe
695 695 1 0.0 91.82072261911202 125.13784627011178 574.6302271612925 # Xe
696 696 1 0.0 706.0441510078531 825.1620218210669 852.0642047078568 # Xe
697 697 1 0.0 609.8526861158654 759.4613081095027 543.7017894647249 # Xe
698 698 1 0.0 135.84269678131832 793.5704841398876 198.11590134247788 # Xe
699 699 1 0.0 535.9385646685033 425.8822546190586 44.02326857114543 # Xe
700 700 1 0.0 529.4786853259903 679.2550004036368 278.41351949525773 # Xe
701 701 1 0.0 192.4645004120486 491.787801083875 81.17202295887242 # Xe
702 702 1 0.0 79.96501529745595 873.473495210696 48.333803073081135 # Xe
703 703 1 0.0 785.2741243571104 225.35280255261796 781.8145848857157 # Xe
704 704 1 0.0 32.40568552503454 570.5299312794301 432.1464982449404 # Xe
705 705 1 0.0 794.8367747109803 516.7209894277535 608.2607017691047 # Xe
706 706 1 0.0 358.32373725403073 834.2178445908686 891.0552581878095 # Xe
707 707 1 0.0 465.043798013458 893.7131379796357 102.6107429359348 # Xe
708 708 1 0.0 890.1949697948302 339.74607634959114 39.01451391783574 # Xe
709 709 1 0.0 716.9601945484428 681.0354083785332 555.5676744470184 # Xe
710 710 1 0.0 863.8459493281184 194.42810454927644 462.7533586965641 # Xe
711 711 1 0.0 623.8750016118727 827.0223677909762 416.3198288678022 # Xe
712 712 1 0.0 264.27366535950637 196.09985584502584 63.865752295651774 # Xe
713 713 1 0.0 277.0918234413396 491.10202419449934 109.52183776732562 # Xe
714 714 1 0.0 838.34841604804 582.3859880158197 475.88927031898476 # Xe
715 715 1 0.0 805.3356241488551 644.5699298241201 788.0143582741127 # Xe
716 716 1 0.0 614.4599610052417 196.57821348383487 438.3955884895761 # Xe
717 717 1 0.0 602.4041155340201 178.28278618119904 916.1812525060852 # Xe
718 718 1 0.0 583.2401763968398 93.37409270882948 547.8123134736871 # Xe
719 719 1 0.0 905.6656476284952 630.9554395609667 507.13154978665625 # Xe
720 720 1 0.0 638.5396553852914 294.8575720414331 189.65333584171438 # Xe
721 721 1 0.0 332.96382392226434 201.52628381734732 912.4652190932625 # Xe
722 722 1 0.0 56.16920651514369 484.1474437672126 612.7648576319299 # Xe
723 723 1 0.0 589.884083835095 544.520976220179 614.2628376609688 # Xe
724 724 1 0.0 730.228202211393 84.98634578883059 921.2183677152088 # Xe
725 725 1 0.0 74.90371028036763 762.0382956129016 131.8790139131594 # Xe
726 726 1 0.0 521.9378197007192 588.1100071920761 878.6181292968571 # Xe
727 727 1 0.0 347.7523561702196 382.10241595874015 191.35831180787542 # Xe
728 728 1 0.0 305.220854588643 747.0197287952407 780.8892963761211 # Xe
729 729 1 0.0 231.4382281123738 620.0257846623631 704.358141560589 # Xe
730 730 1 0.0 395.1574009350046 229.78266705087609 430.77850320527585 # Xe
731 731 1 0.0 587.0226004342546 281.56529465737043 193.54138421781815 # Xe
732 732 1 0.0 199.50555877694774 23.728257829184624 747.2100938120384 # Xe
733 733 1 0.0 455.6109394488652 258.91078607354456 113.7144733351562 # Xe
734 734 1 0.0 155.10981316107996 635.8700963032843 283.23915256424465 # Xe
735 735 1 0.0 659.3186054560663 751.5851615017777 643.2184014018205 # Xe
736 736 1 0.0 848.2088903872706 360.83630679650815 438.7537188957704 # Xe
737 737 1 0.0 721.2784926221074 444.4277962673437 795.1630936960685 # Xe
738 738 1 0.0 542.8785778031537 184.1200330809126 591.7432763379197 # Xe
739 739 1 0.0 378.8809487254357 393.99960941411615 500.8494562008126 # Xe
740 740 1 0.0 504.7411022703155 523.7999491778181 389.36998298771044 # Xe
741 741 1 0.0 711.3430274787198 852.1009140246457 17.297337457349677 # Xe
742 742 1 0.0 862.4084644718663 666.9700910763105 720.5541961468607 # Xe
743 743 1 0.0 141.61518735245724 245.5099010112684 193.81242869700645 # Xe
744 744 1 0.0 369.2255172245553 859.231788505557 205.18290445903324 # Xe
745 745 1 0.0 177.0464161105901 496.48279599587244 14.589561735582752 # Xe
746 746 1 0.0 80.29627436907825 523.7216033974122 54.30728817656669 # Xe
747 747 1 0.0 211.0267954926121 478.6305502380084 532.4185427098898 # Xe
748 748 1 0.0 869.6473363365347 367.3121822308014 708.8664110401262 # Xe
749 749 1 0.0 914.2242897125591 847.5952126028524 379.05805177243843 # Xe
750 750 1 0.0 103.16310839508056 110.76559420575482 151.50012173100157 # Xe
751 751 1 0.0 896.5899922509622 465.76901322735847 24.018006070451275 # Xe
752 752 1 0.0 881.3119629542105 576.0432873907862 80.27676466746202 # Xe
753 753 1 0.0 621.6325484985034 8.507538540523583 422.92816930341183 # Xe
754 754 1 0.0 97.54743159777638 542.1347584790801 694.8171796875466 # Xe
755 755 1 0.0 99.82284240650392 129.85047106833602 309.8962038155403 # Xe
756 756 1 0.0 662.4670951613523 268.8034079772822 131.52372765807223 # Xe
757 757 1 0.0 696.0395185837057 749.6637519268407 568.8355872193343 # Xe
758 758 1 0.0 705.1099545423733 93.84077224386769 872.760538557609 # Xe
759 759 1 0.0 464.35461725141755 764.6003392829869 234.90395646441536 # Xe
760 760 1 0.0 265.8224108041822 695.6759103785248 177.4316355001314 # Xe
761 761 1 0.0 566.7042848843288 870.89371645348 524.3450231652985 # Xe
762 762 1 0.0 650.9108329701843 735.7565782396632 733.2642556917585 # Xe
763 763 1 0.0 347.44538115131166 177.70576245806686 228.32280123681858 # Xe
764 764 1 0.0 597.5635195119164 418.21988717404264 180.32998509216756 # Xe
765 765 1 0.0 281.68182355328327 410.3271443535572 912.4701453150191 # Xe
766 766 1 0.0 208.4318072625976 40.483480619822934 619.8296631456641 # Xe
767 767 1 0.0 270.6856867608139 885.8388652033238 889.3186700703767 # Xe
768 768 1 0.0 643.6949447079819 191.14009997912495 281.5577238992049 # Xe
769 769 1 0.0 308.47289952893925 186.10806317443755 325.9449733702337 # Xe
770 770 1 0.0 428.0292256813389 836.422168057999 846.7238036984174 # Xe
771 771 1 0.0 867.2484594775613 565.713708813736 796.3651378138007 # Xe
772 772 1 0.0 399.0267590989692 355.6443210793373 322.63855262122564 # Xe
773 773 1 0.0 640.7171638564935 640.6025836846572 887.5351465874712 # Xe
774 774 1 0.0 805.3842817497671 300.37888813097527 258.7911403283556 # Xe
775 775 1 0.0 244.3615730620278 339.021236432721 21.737567889670185 # Xe
776 776 1 0.0 211.12741854231678 866.5227400816731 674.9535253567603 # Xe
777 777 1 0.0 685.2764922031483 646.6189560409464 550.3464325859962 # Xe
778 778 1 0.0 120.22161682406511 332.17983648217586 642.0052351390298 # Xe
779 779 1 0.0 803.272957824081 278.3353335224218 374.7568819368358 # Xe
780 780 1 0.0 708.7269028945351 391.1631472389757 487.5050709017152 # Xe
781 781 1 0.0 181.66929650728247 258.4845723451239 840.0253525844154 # Xe
782 782 1 0.0 232.82605740953466 651.7050663572671 654.0947882436892 # Xe
783 783 1 0.0 443.6740109086824 528.8261835659607 205.81150016570308 # Xe
784 784 1 0.0 277.90752497225407 532.8797250696315 931.6054370166031 # Xe
785 785 1 0.0 105.50477058806449 827.5980534553055 319.18633713553754 # Xe
786 786 1 0.0 573.3599812327618 484.3081664387548 873.4332768524457 # Xe
787 787 1 0.0 907.4991722634177 80.0684494686608 96.42524073394902 # Xe
788 788 1 0.0 292.53690310212994 675.2006594227323 338.20620300956836 # Xe
789 789 1 0.0 554.9744755299705 536.3315788626818 556.6013139468167 # Xe
790 790 1 0.0 279.4414333182128 86.15207592552342 132.56495788953168 # Xe
791 791 1 0.0 105.00279317475862 524.1449566771126 365.49040212842516 # Xe
792 792 1 0.0 27.49481182462222 646.4180459095539 306.0909437316841 # Xe
793 793 1 0.0 321.9354004775974 896.09089900796 711.4803777147015 # Xe
794 794 1 0.0 123.20817257888787 777.4055879709935 90.74418916120082 # Xe
795 795 1 0.0 763.8005913920736 681.8062025688115 66.39178008198125 # Xe
796 796 1 0.0 98.18613714072528 212.39321888831572 779.9923609924277 # Xe
797 797 1 0.0 748.4691095094903 362.09066956599816 778.2254696008072 # Xe
798 798 1 0.0 121.1678047784166 312.45938698640254 534.6087994315055 # Xe
799 799 1 0.0 633.2746595693038 254.7256315980459 92.40882262716039 # Xe
800 800 1 0.0 649.8487013843899 100.53909106750339 401.3631790118843 # Xe
801 801 1 0.0 25.466453640551318 412.22191595871647 513.2037967598181 # Xe
802 802 1 0.0 601.5680294845191 392.34143728732903 580.0895979251627 # Xe
803 803 1 0.0 722.6897023215006 65.5217280268106 574.5937943387572 # Xe
804 804 1 0.0 583.6559999849752 815.710472109279 783.7912137904538 # Xe
805 805 1 0.0 389.15942332347026 23.67860818414994 781.6685204389862 # Xe
806 806 1 0.0 410.6375326100831 420.8369382509849 211.97106234189513 # Xe
807 807 1 0.0 607.4379687251112 886.566122089459 888.4136148133598 # Xe
808 808 1 0.0 924.3823116513291 915.5187104088263 468.76487553622945 # Xe
809 809 1 0.0 168.41198299009457 770.3490509876272 520.8845750186322 # Xe
810 810 1 0.0 615.4027812816479 523.0162805936004 384.28717283216923 # Xe
811 811 1 0.0 684.5446992504698 629.160136550725 765.743052950185 # Xe
812 812 1 0.0 104.62660404969355 392.86607571365136 714.3991772267066 # Xe
813 813 1 0.0 227.47775730054988 636.5535982585842 252.30597580346196 # Xe
814 814 1 0.0 490.44470292038443 612.6569315077469 534.0406220355217 # Xe
815 815 1 0.0 704.8886374518098 441.5555867328563 430.0103180197995 # Xe
816 816 1 0.0 380.03273997237125 47.669628403780706 860.9456605149355 # Xe
817 817 1 0.0 461.67432861582176 536.9279159607231 810.351282389819 # Xe
818 818 1 0.0 641.6494699388807 409.43955608056586 20.053505808011163 # Xe
819 819 1 0.0 11.889525624540878 571.7989885915827 585.3669586363219 # Xe
820 820 1 0.0 265.5628577141738 694.1693454671896 685.5212698822436 # Xe
821 821 1 0.0 575.070284259655 372.37210851583046 908.1645777257097 # Xe
822 822 1 0.0 764.9748701819215 575.1348823744522 749.98897838007 # Xe
823 823 1 0.0 408.29284753993056 868.6788793733375 809.8351837218017 # Xe
824 824 1 0.0 211.63684775299305 680.9868702087049 116.01353723130276 # Xe
825 825 1 0.0 232.97553319322105 807.4908543740673 843.487614392625 # Xe
826 826 1 0.0 305.868178332164 331.20259379282373 600.5856295881214 # Xe
827 827 1 0.0 264.35080826846774 760.6690113528917 878.6143940071756 # Xe
828 828 1 0.0 154.00173910195716 888.5832070788408 330.7219593816169 # Xe
829 829 1 0.0 929.0035486602724 431.3248791649467 916.3726400753728 # Xe
830 830 1 0.0 896.9768429198352 781.9088168646197 934.0826741276603 # Xe
831 831 1 0.0 400.6785922244343 563.6016961381281 177.06002795664128 # Xe
832 832 1 0.0 822.5781870316632 341.1100231585667 694.8535082565261 # Xe
833 833 1 0.0 625.0385168811529 486.499917711887 47.29277941832158 # Xe
834 834 1 0.0 18.499362178311603 33.00282008862874 507.01047915374596 # Xe
835 835 1 0.0 52.01124968097979 223.5526353363685 923.6659504983292 # Xe
836 836 1 0.0 508.31351376517927 267.49752011274006 563.6121259284264 # Xe
837 837 1 0.0 328.1818678337464 366.1493931417743 271.5524034009464 # Xe
838 838 1 0.0 81.97575885241919 514.3137309384675 319.76029426119305 # Xe
839 839 1 0.0 29.52833757962897 413.72294794529074 685.7521459714558 # Xe
840 840 1 0.0 388.92029914457856 694.3495998012108 840.02787755214 # Xe
841 841 1 0.0 267.2335444562782 384.93976917293446 661.4129191275333 # Xe
842 842 1 0.0 91.39405158288693 760.22286983748 73.26529731739403 # Xe
843 843 1 0.0 159.544034485588 689.8146517593832 367.6379897365069 # Xe
844 844 1 0.0 375.5906385594117 94.55152633496044 178.24246784937975 # Xe
845 845 1 0.0 456.95052502858863 611.3478493529526 495.25181718344544 # Xe
846 846 1 0.0 440.4010387860831 51.218374010377666 691.873000154684 # Xe
847 847 1 0.0 909.1332161852845 534.8120709517574 252.96268718229965 # Xe
848 848 1 0.0 625.2805850304254 213.0020581749603 526.8520879477816 # Xe
849 849 1 0.0 476.1419208982744 72.3322363868734 776.6491903195547 # Xe
850 850 1 0.0 27.512146059982125 503.13043058029143 284.65214202878474 # Xe
851 851 1 0.0 847.3669749661336 53.816701724360996 654.8413451995204 # Xe
852 852 1 0.0 681.4092398522645 691.3869720386849 194.240928754061 # Xe
853 853 1 0.0 676.7625580079322 107.0935985728046 309.9898130967541 # Xe
854 854 1 0.0 876.6666358991148 488.87861895632466 614.1925852429812 # Xe
855 855 1 0.0 571.220024738545 919.3571040273928 303.4457583289601 # Xe
856 856 1 0.0 12.139453754299394 635.1201863020484 86.2048837337352 # Xe
857 857 1 0.0 263.35320231330485 556.0436859115887 400.7664974238564 # Xe
858 858 1 0.0 383.59338026459545 9.953046649984653 637.3654653424005 # Xe
859 859 1 0.0 613.0512836332343 782.2718994399933 725.6670701080559 # Xe
860 860 1 0.0 480.86068528569405 360.14244697699183 440.819893734655 # Xe
861 861 1 0.0 851.8425652317213 537.0092299521962 378.13748878033215 # Xe
862 862 1 0.0 801.1882549955576 729.8800640145229 662.5989120040482 # Xe
863 863 1 0.0 120.78090462484259 349.24759595347973 324.0202574362852 # Xe
864 864 1 0.0 836.2165031665695 930.9609866250988 574.5143534435712 # Xe
865 865 1 0.0 862.261014044954 526.4097815733061 171.7048496582554 # Xe
866 866 1 0.0 763.3630210834076 888.1047409884654 683.5202766387428 # Xe
867 867 1 0.0 733.544585722177 782.325314226272 70.52744723844951 # Xe
868 868 1 0.0 182.7895556047512 219.27275136376414 745.8906606214226 # Xe
869 869 1 0.0 492.83571533229605 920.6131729949547 443.2013451052199 # Xe
870 870 1 0.0 364.12592120284 758.1882992521938 81.06849939884573 # Xe
871 871 1 0.0 388.3084218043032 393.6988628158073 566.120650537134 # Xe
872 872 1 0.0 636.8397566685314 572.6769199993089 95.72754553681168 # Xe
873 873 1 0.0 310.14266088735434 135.94566819307158 345.5141641426054 # Xe
874 874 1 0.0 722.18415105199 584.6844673851218 932.0126457044785 # Xe
875 875 1 0.0 178.27495651587128 182.02191769694616 457.496061645519 # Xe
876 876 1 0.0 175.30867774534642 650.5143797559981 198.28407992356753 # Xe
877 877 1 0.0 136.1825807938291 333.45725980110353 348.5428038565132 # Xe
878 878 1 0.0 622.6920761549918 93.90313932989338 466.79848419548455 # Xe
879 879 1 0.0 169.7591250983244 8.082347253989223 161.8829000265749 # Xe
880 880 1 0.0 715.1863515522123 564.3141496811552 535.0020768131739 # Xe
881 881 1 0.0 383.98604340713206 211.9674230523296 520.370880640542 # Xe
882 882 1 0.0 38.592409153156915 700.8783650490634 411.1727195789856 # Xe
883 883 1 0.0 764.9861347777122 883.9854288518733 543.1607684224253 # Xe
884 884 1 0.0 879.9620409168979 766.3900775410268 761.923706760204 # Xe
885 885 1 0.0 544.8457483355239 395.7895746122599 476.0846340140834 # Xe
886 886 1 0.0 835.3539077744551 875.9213735713975 43.900604441834076 # Xe
887 887 1 0.0 690.6989224665082 265.41981283935104 125.70603877491976 # Xe
888 888 1 0.0 355.623538717569 31.190524949733863 42.95283960800247 # Xe
889 889 1 0.0 155.02689413013957 767.454186774117 458.6329728786538 # Xe
890 890 1 0.0 645.4632298212929 105.84455746834618 256.5515287208374 # Xe
891 891 1 0.0 921.6795746091166 848.7362656047419 675.0747828922731 # Xe
892 892 1 0.0 470.35599473529544 7.815671230838239 533.8474430507307 # Xe
893 893 1 0.0 783.2735292818581 675.7464131461753 151.724176997161 # Xe
894 894 1 0.0 881.1407688847759 279.44060907322887 599.897058600217 # Xe
895 895 1 0.0 927.3226034950923 65.10461538299239 908.3191372103399 # Xe
896 896 1 0.0 786.9361578114723 455.39744816833695 100.48856495028964 # Xe
897 897 1 0.0 49.707886244485685 863.0101967871028 809.4087419093454 # Xe
898 898 1 0.0 400.267411890175 649.9541906118633 809.0397543046504 # Xe
899 899 1 0.0 853.9257228713534 869.6438818611678 482.776454693834 # Xe
900 900 1 0.0 713.6103866445569 405.7930172394178 850.4795158366541 # Xe
901 901 1 0.0 243.86258153012432 166.7990675621394 319.8917734597681 # Xe
902 902 1 0.0 565.0235828270345 260.5609028269187 405.3953590316381 # Xe
903 903 1 0.0 662.3756602302159 121.96905991618145 907.7485282079203 # Xe
904 904 1 0.0 308.9712701191284 820.0427055873279 622.8584083788238 # Xe
905 905 1 0.0 660.9939809203476 563.4628083833013 17.48288132123116 # Xe
906 906 1 0.0 114.66710057668895 561.2820271348851 785.4400021400586 # Xe
907 907 1 0.0 652.1732100491546 848.9292236506437 540.4785869171767 # Xe
908 908 1 0.0 501.18244368518657 743.7099157782125 75.62012845530883 # Xe
909 909 1 0.0 215.24394679957325 597.26767200053 692.6628963427936 # Xe
910 910 1 0.0 671.7037177647426 378.92794087009077 422.9450756825025 # Xe
911 911 1 0.0 921.0854845530822 773.8893561946035 156.25514806382728 # Xe
912 912 1 0.0 2.8201297838828907 54.157408828619005 162.02472181254697 # Xe
913 913 1 0.0 41.09969397724147 410.78487204396976 398.84251977475975 # Xe
914 914 1 0.0 399.4939525894122 154.36204775039735 128.6338521191442 # Xe
915 915 1 0.0 913.7277964447226 402.5812299707942 493.3393815710806 # Xe
916 916 1 0.0 212.72232603132963 114.30106139337965 757.5956213392192 # Xe
917 917 1 0.0 194.5336774795189 143.267249267031 178.16204979781472 # Xe
918 918 1 0.0 858.0853618602938 554.2253749667178 599.2124961210446 # Xe
919 919 1 0.0 418.10099116386243 526.2112714801093 703.4222540027102 # Xe
920 920 1 0.0 900.4141837184999 871.5096800048807 450.93969438311785 # Xe
921 921 1 0.0 288.2036026309748 677.1704535807106 327.11179621232526 # Xe
922 922 1 0.0 432.65458937057304 584.0317009097043 493.3526290814666 # Xe
923 923 1 0.0 724.3679925071629 131.2420205443379 61.0213197668431 # Xe
924 924 1 0.0 807.3421385973801 905.5433966485638 293.5928735981552 # Xe
925 925 1 0.0 73.04508798534698 335.1687232004098 357.2304691373644 # Xe
926 926 1 0.0 365.9108459780641 135.14508421034535 28.45865500987694 # Xe
927 927 1 0.0 224.23338278558919 269.77642055673704 382.8360541706065 # Xe
928 928 1 0.0 474.2698683438912 420.8823233466885 350.235000835777 # Xe
929 929 1 0.0 59.68538217421587 519.0907422405276 554.3508083171914 # Xe
930 930 1 0.0 758.4403361091543 442.7152504136409 280.31610308213413 # Xe
931 931 1 0.0 751.4272699286998 74.88942055493867 792.2205713017951 # Xe
932 932 1 0.0 730.6563968660835 792.062688376015 856.4372993378918 # Xe
933 933 1 0.0 563.3011628062933 770.0842479308831 193.39071187122028 # Xe
934 934 1 0.0 505.3819489548825 461.18689148751633 439.72557467900765 # Xe
935 935 1 0.0 834.9257391842394 722.5441296845072 440.83293885048283 # Xe
936 936 1 0.0 473.32573559257673 186.51818832612577 687.7358261965921 # Xe
937 937 1 0.0 237.41542125333234 785.4492820365206 36.70147514057161 # Xe
938 938 1 0.0 503.84265794559025 539.9701433532745 783.480570796826 # Xe
939 939 1 0.0 9.30589245527707 239.1970224378222 240.82558978065248 # Xe
940 940 1 0.0 625.7105643710032 534.5261268764681 553.2479823284267 # Xe
941 941 1 0.0 296.72455529677575 549.5917354303399 873.2546307010944 # Xe
942 942 1 0.0 208.73552993540986 779.7447941339158 736.1460622054751 # Xe
943 943 1 0.0 436.1367328898141 561.7421459105432 763.6388924099882 # Xe
944 944 1 0.0 424.8374593156783 148.53797103639988 642.6365913637518 # Xe
945 945 1 0.0 576.5202936914804 102.51057700642353 697.721129397115 # Xe
946 946 1 0.0 415.2682772708347 601.7867129516663 280.76913215337464 # Xe
947 947 1 0.0 503.095233325081 818.7829128297195 368.50269471290693 # Xe
948 948 1 0.0 662.2902415807072 455.8748815339983 607.8944051557353 # Xe
949 949 1 0.0 394.7269023327796 704.1743141975215 781.3070625589962 # Xe
950 950 1 0.0 330.4398294956246 751.2506838382214 298.9088687013223 # Xe
951 951 1 0.0 356.9663319748803 594.625760941892 36.14236127890185 # Xe
952 952 1 0.0 89.43492563124447 534.5881059265008 161.74122326685904 # Xe
953 953 1 0.0 100.08762952444272 704.9290240743005 882.2653707196718 # Xe
954 954 1 0.0 785.9283981892353 53.56447109538275 708.0867841868676 # Xe
955 955 1 0.0 165.87414575197988 103.54356245666266 729.3907720464665 # Xe
956 956 1 0.0 238.76960118249823 829.399032796022 134.88174189870705 # Xe
957 957 1 0.0 307.9399052633102 748.888086017365 362.71968032837475 # Xe
958 958 1 0.0 12.636846535920089 756.5146070109861 810.4236599175723 # Xe
959 959 1 0.0 362.33434341491153 512.0361250559013 283.7469666260697 # Xe
960 960 1 0.0 407.28965677856837 122.75219779856575 527.7846088995318 # Xe
961 961 1 0.0 900.043650226409 424.21650242794755 454.33283906245066 # Xe
962 962 1 0.0 929.1246124036572 884.5277619487326 354.46617801189484 # Xe
963 963 1 0.0 714.2184178252 35.40649934037804 383.02039783873477 # Xe
964 964 1 0.0 312.0728923579015 42.90208439354723 632.8862397046204 # Xe
965 965 1 0.0 217.09652252271968 161.0793482369927 603.5759682449828 # Xe
966 966 1 0.0 238.83982953416412 923.9488752545537 891.5523873752506 # Xe
967 967 1 0.0 155.95958488555476 601.5034530911717 517.59851572942 # Xe
968 968 1 0.0 154.35439703472383 698.7296725277106 184.30778695968726 # Xe
969 969 1 0.0 632.1604016670472 268.1396212057956 217.6797842632037 # Xe
970 970 1 0.0 66.15469990199854 802.2708018510596 516.9767726208295 # Xe
971 971 1 0.0 562.4875015903218 146.9600177560381 97.48865385656141 # Xe
972 972 1 0.0 610.9822552786425 923.998388837643 120.29166710626994 # Xe
973 973 1 0.0 677.9245272183855 534.586351381482 777.8354681298816 # Xe
974 974 1 0.0 505.06744282875906 860.8570054905244 51.69072524261343 # Xe
975 975 1 0.0 601.5758102564296 860.686431510976 835.5560611701958 # Xe
976 976 1 0.0 110.18975632716472 343.71947129948626 356.63201723022763 # Xe
977 977 1 0.0 349.24459815361337 766.0486124880259 622.8736069568974 # Xe
978 978 1 0.0 162.9522371805893 192.4890710281575 685.6040140435417 # Xe
979 979 1 0.0 231.41843355301398 251.0640856214961 111.66305964428679 # Xe
980 980 1 0.0 921.9952753152076 155.27051756462856 452.88398965853395 # Xe
981 981 1 0.0 287.1171033735535 442.12022118630455 722.6443102503288 # Xe
982 982 1 0.0 817.3659177305002 735.341946783017 249.8899664315653 # Xe
983 983 1 0.0 483.8380350874452 650.5324731425818 73.31609360618239 # Xe
984 984 1 0.0 446.59878663016303 290.2364190230662 75.94709404907753 # Xe
985 985 1 0.0 78.43858827482937 683.0853751828356 883.8784366486527 # Xe
986 986 1 0.0 537.7428877347394 619.642283906442 731.557111975567 # Xe
987 987 1 0.0 404.22666586199927 796.7011771879445 606.8119324970766 # Xe
988 988 1 0.0 453.0262958118391 150.1469526992835 26.62255933373351 # Xe
989 989 1 0.0 424.142891742549 671.4004648574581 824.9566177399983 # Xe
990 990 1 0.0 845.6925021357731 620.2768036017692 185.95026791576814 # Xe
991 991 1 0.0 749.6380305681129 212.61894983844363 828.834071204755 # Xe
992 992 1 0.0 376.6158445385788 771.2360168089951 815.7251923800636 # Xe
993 993 1 0.0 79.48231770701446 476.6674976407302 34.902569712804286 # Xe
994 994 1 0.0 844.9776416616896 246.78481830776204 29.94662120498819 # Xe
995 995 1 0.0 45.42541393896212 223.44395691464402 417.4055592802352 # Xe
996 996 1 0.0 9.092693010047485 664.7944917142559 48.53668458813948 # Xe
997 997 1 0.0 378.2775034083637 177.03744700674912 886.5142585475431 # Xe
998 998 1 0.0 717.1258207377095 159.65713251706308 921.8888448015805 # Xe
999 999 1 0.0 763.9022977456029 924.8642625660557 674.8792602458215 # Xe
1000 1000 1 0.0 28.27991826710129 127.50072136082437 294.28136023713546 # Xe
1001 1001 1 0.0 8.817569501962701 590.4708294899515 866.7913346626607 # Xe
1002 1002 1 0.0 493.35495342706446 853.1573932030158 857.4882004050546 # Xe
1003 1003 1 0.0 195.2047668493637 578.4050677204324 656.0739552314726 # Xe
1004 1004 1 0.0 364.45659547285516 551.9819986004812 629.206831982681 # Xe
1005 1005 1 0.0 590.6583965350769 844.3320944765965 853.2222071198426 # Xe
1006 1006 1 0.0 89.46916598658464 763.888796174089 911.3581692795311 # Xe
1007 1007 1 0.0 701.2930515291047 247.34147920051922 545.3569033538104 # Xe
1008 1008 1 0.0 5.680857250986155 543.244973686065 479.95819064573925 # Xe
1009 1009 1 0.0 505.26400588725295 704.3149006027986 440.13927472214266 # Xe
1010 1010 1 0.0 906.6679065943538 754.7446886606269 681.2789990210943 # Xe
1011 1011 1 0.0 645.8967390595532 916.1817461432016 825.3517105136586 # Xe
1012 1012 1 0.0 10.38029544286936 575.9588901412687 896.2533953777596 # Xe
1013 1013 1 0.0 213.9751761058836 889.6908169982228 412.5995319040092 # Xe
1014 1014 1 0.0 23.404567722330125 719.0272516064591 313.4548375097335 # Xe
1015 1015 1 0.0 699.739800816235 124.61191311827928 221.30826778666497 # Xe
1016 1016 1 0.0 362.6500230276276 647.7317465356781 513.956140846202 # Xe
1017 1017 1 0.0 58.881184037780706 834.203711888931 843.3409051973778 # Xe
1018 1018 1 0.0 359.1807070014856 411.04511375501727 322.37043715048236 # Xe
1019 1019 1 0.0 508.4148591567285 785.7113106412737 680.096103006574 # Xe
1020 1020 1 0.0 451.4531065106295 425.1172956915038 538.1532891630649 # Xe
1021 1021 1 0.0 644.4745484770033 653.345593381385 582.34526814918 # Xe
1022 1022 1 0.0 691.3859858321915 643.7906051619328 376.4151071142203 # Xe
1023 1023 1 0.0 62.805519128690364 823.9103300794205 928.049275425425 # Xe
1024 1024 1 0.0 781.9947738131456 727.3190216421862 720.9158816338964 # Xe
1025 1025 1 0.0 529.2740223332167 39.05174846524492 606.2635071573933 # Xe
1026 1026 1 0.0 380.56438438358157 918.7451925622785 50.292934948922735 # Xe
1027 1027 1 0.0 801.2292614415504 201.4064485020507 881.3986254311592 # Xe
1028 1028 1 0.0 203.3312849845921 817.1981474183946 908.3260536341315 # Xe
1029 1029 1 0.0 104.0515461220682 405.4756584001472 363.03105375919915 # Xe
1030 1030 1 0.0 868.1075418577177 600.3911545104846 136.24309018193912 # Xe
1031 1031 1 0.0 821.2668797153783 568.9799658828152 600.4240888014638 # Xe
1032 1032 1 0.0 231.41191875411695 237.04382719760864 924.6077188946346 # Xe
1033 1033 1 0.0 856.9984754287608 277.1412948503507 695.8328673316779 # Xe
1034 1034 1 0.0 230.08411160639142 58.61698846528891 828.6724998175886 # Xe
1035 1035 1 0.0 584.8019913366451 476.3052692723136 279.77556735081276 # Xe
1036 1036 1 0.0 556.9771146267545 589.2278016939246 447.44226885066513 # Xe
1037 1037 1 0.0 555.0167768236179 235.76664404835162 254.41460297409404 # Xe
1038 1038 1 0.0 533.0170439209015 416.2059750520132 520.2301984000616 # Xe
1039 1039 1 0.0 56.92306990415729 351.9075684010603 107.52965015991882 # Xe
1040 1040 1 0.0 605.9559107884631 453.79962870508547 369.0288638531652 # Xe
1041 1041 1 0.0 469.0310198372553 206.43061030265665 779.4790165276356 # Xe
1042 1042 1 0.0 693.4347052205385 334.2759464983098 460.98910550766846 # Xe
1043 1043 1 0.0 496.9428802629823 718.1400453097131 593.8850730494352 # Xe
1044 1044 1 0.0 738.8002996426637 19.502513087708806 287.17866672899146 # Xe
1045 1045 1 0.0 99.90959475380848 389.7549332230357 695.4005546894563 # Xe
1046 1046 1 0.0 728.0512419728672 615.5178528633998 102.55429610328655 # Xe
1047 1047 1 0.0 547.3777270933683 204.01044549088536 99.67611456264902 # Xe
1048 1048 1 0.0 883.8326159182201 314.99047247843475 226.3998084391809 # Xe
1049 1049 1 0.0 461.5942354017911 397.2045615771086 182.60221039897274 # Xe
1050 1050 1 0.0 669.6285195545853 463.06968387801095 445.04423375522197 # Xe
1051 1051 1 0.0 29.957226570134445 213.44391838497313 347.8991311085661 # Xe
1052 1052 1 0.0 166.9884996909204 703.0446633626217 444.7341764931351 # Xe
1053 1053 1 0.0 192.22006148992267 680.8960718267765 711.6351434630126 # Xe
1054 1054 1 0.0 746.6102806264313 122.69670285448449 192.16672381872172 # Xe
1055 1055 1 0.0 346.15468973865904 105.87508974249327 2.7783051634933797 # Xe
1056 1056 1 0.0 484.5558916475675 633.2056839523151 589.5895569012633 # Xe
1057 1057 1 0.0 574.1054954114138 307.25502071113715 54.34284944599298 # Xe
1058 1058 1 0.0 286.70441752223206 930.3401462878246 344.02788086964273 # Xe
1059 1059 1 0.0 454.02117581208114 272.48517597991594 335.55388704512916 # Xe
1060 1060 1 0.0 259.76503709373804 780.6515759458209 692.421615238133 # Xe
1061 1061 1 0.0 265.037639218734 770.6486696855852 482.2053300898699 # Xe
1062 1062 1 0.0 625.2178918475939 440.06413483288077 98.29847445947104 # Xe
1063 1063 1 0.0 732.4245105751507 292.0236984726701 921.5442662653444 # Xe
1064 1064 1 0.0 712.5039324203522 757.7805917305186 369.2695014946436 # Xe
1065 1065 1 0.0 632.0383629105534 157.35974382340774 762.3320782672611 # Xe
1066 1066 1 0.0 579.6760228185694 747.1373233071048 874.4508066250906 # Xe
1067 1067 1 0.0 13.72853942854234 813.5315625225746 453.3798939127346 # Xe
1068 1068 1 0.0 328.00249272403687 571.7935457275887 95.01051980193382 # Xe
1069 1069 1 0.0 492.6426128117226 215.9306664773655 286.8319949566926 # Xe
1070 1070 1 0.0 436.77541402465397 148.01863297812358 600.1592262399658 # Xe
1071 1071 1 0.0 809.1799214881344 356.79397692811324 496.0369464297082 # Xe
1072 1072 1 0.0 664.1328169707134 287.8166124984837 595.5668654243281 # Xe
1073 1073 1 0.0 481.6274925710046 547.6099605868569 895.3207228703856 # Xe
1074 1074 1 0.0 769.2852395696584 140.6611850396243 474.9433357056358 # Xe
1075 1075 1 0.0 835.5543022355706 1.272622370141858 447.3496365067764 # Xe
1076 1076 1 0.0 227.90033343068748 694.9056700635957 230.46447465675612 # Xe
1077 1077 1 0.0 865.2174181398123 97.14885832689262 147.4300087505976 # Xe
1078 1078 1 0.0 74.88486951126339 378.9295093815678 926.77260314184 # Xe
1079 1079 1 0.0 817.3063295278994 868.5946507302341 15.450587624605479 # Xe
1080 1080 1 0.0 231.68494618826114 470.69075054431846 844.5453719676467 # Xe
1081 1081 1 0.0 587.9715045381585 158.27477031624608 225.5072718070795 # Xe
1082 1082 1 0.0 258.26954449045087 844.8833416405903 847.4489249475045 # Xe
1083 1083 1 0.0 856.0186100154797 247.8355339627064 891.5236035510079 # Xe
1084 1084 1 0.0 58.287545172443515 630.5724857115343 342.5524389364161 # Xe
1085 1085 1 0.0 380.02867341182014 758.3937072604289 692.7359770059272 # Xe
1086 1086 1 0.0 829.846908331742 898.2952486051935 893.2674804340506 # Xe
1087 1087 1 0.0 22.41181947842395 253.45183182517022 93.81411325096504 # Xe
1088 1088 1 0.0 904.0068594773644 328.0609166463866 776.5636609627952 # Xe
1089 1089 1 0.0 609.2726078323037 846.4478905839477 12.839971086176801 # Xe
1090 1090 1 0.0 245.85445528362516 120.66471078292814 372.24654207940387 # Xe
1091 1091 1 0.0 386.9980572166372 13.783067234969392 778.241699813282 # Xe
1092 1092 1 0.0 55.84551976083204 46.471486349766344 502.81573919834256 # Xe
1093 1093 1 0.0 417.74285606517515 156.08678782350324 308.3892202141238 # Xe
1094 1094 1 0.0 434.96554283392766 934.6345326730558 874.0145401158293 # Xe
1095 1095 1 0.0 856.1002671256308 305.3043446446712 413.9974960588963 # Xe
1096 1096 1 0.0 860.5889931270057 393.18684538559904 428.02786147435074 # Xe
1097 1097 1 0.0 120.77154258652187 534.2567743806038 722.7999291103473 # Xe
1098 1098 1 0.0 448.2192655490079 697.606657082874 166.50199187083857 # Xe
1099 1099 1 0.0 893.5250274737487 700.3977661766992 393.22903449626625 # Xe
1100 1100 1 0.0 25.441414181177752 430.3234349085778 774.3641259007921 # Xe
1101 1101 1 0.0 693.0826567230752 883.0262245505082 481.4818909154998 # Xe
1102 1102 1 0.0 61.539317865826646 395.79437808242903 385.04720389204886 # Xe
1103 1103 1 0.0 92.97315364357533 248.7043247720931 465.4812570472564 # Xe
1104 1104 1 0.0 766.9959229438422 383.1296209481236 568.7337949996694 # Xe
1105 1105 1 0.0 671.7731358319603 495.8695682820898 503.03660866272685 # Xe
1106 1106 1 0.0 704.6444406428773 311.8832923454258 122.51858534448387 # Xe
1107 1107 1 0.0 15.113966704189151 855.4173106318372 216.76290411187034 # Xe
1108 1108 1 0.0 108.400618670958 287.15496190264867 783.7433635106997 # Xe
1109 1109 1 0.0 511.6242084386424 514.1055923365383 324.94772874168206 # Xe
1110 1110 1 0.0 684.8042974709408 396.2072522380921 800.3216104079092 # Xe
1111 1111 1 0.0 403.61088202251324 443.0709304594753 830.5635122270127 # Xe
1112 1112 1 0.0 328.24116182942646 360.72735068444547 395.6701983912777 # Xe
1113 1113 1 0.0 633.070840045189 111.35043196819534 687.9364126707277 # Xe
1114 1114 1 0.0 661.9196173628956 517.3546224097597 564.849263816548 # Xe
1115 1115 1 0.0 763.434168845962 110.37787357062652 472.1111582350256 # Xe
1116 1116 1 0.0 4.2674263827149685 65.03448500185148 464.92158225574207 # Xe
1117 1117 1 0.0 802.932877324651 823.6091348603362 409.51879636558056 # Xe
1118 1118 1 0.0 410.13746279419195 214.72568886396994 864.5563055493609 # Xe
1119 1119 1 0.0 303.1591457098738 238.84691663504495 682.3006768692181 # Xe
1120 1120 1 0.0 881.6365918023641 458.06462341986094 93.97264190791611 # Xe
1121 1121 1 0.0 205.64435180781493 392.5833208066693 715.6184860195042 # Xe
1122 1122 1 0.0 177.83278033883073 857.2008200946473 172.06828290102428 # Xe
1123 1123 1 0.0 789.8108135801804 732.0074313053666 866.0346681411169 # Xe
1124 1124 1 0.0 689.9161770848951 20.248274838131742 0.34865078279906997 # Xe
1125 1125 1 0.0 629.2084151790422 449.55610902245184 743.9949367230798 # Xe
1126 1126 1 0.0 91.86364541802318 687.3248737861629 597.6049989949234 # Xe
1127 1127 1 0.0 305.2884826864409 436.18946610708434 810.0492293164815 # Xe
1128 1128 1 0.0 543.8274949759866 308.2980259068343 402.04693163975907 # Xe
1129 1129 1 0.0 391.14911374160556 856.7180040747927 563.7977628446064 # Xe
1130 1130 1 0.0 6.691854979863939 177.0298844413705 698.3194053444887 # Xe
1131 1131 1 0.0 506.0025403274952 146.97048453529146 364.406670334095 # Xe
1132 1132 1 0.0 434.55557212968154 736.2951291309477 3.154388400513719 # Xe
1133 1133 1 0.0 618.3569710571102 611.0244790690052 755.2478898246686 # Xe
1134 1134 1 0.0 358.20823066441733 223.2385980716479 26.578327600545922 # Xe
1135 1135 1 0.0 570.1273598220891 366.1171676751659 425.4158989927138 # Xe
1136 1136 1 0.0 192.74662550738157 133.97818146260914 517.0461001418843 # Xe
1137 1137 1 0.0 321.37689207109037 504.77712174219204 655.59689586421 # Xe
1138 1138 1 0.0 136.33128047552887 685.0847216086619 186.98783333741454 # Xe
1139 1139 1 0.0 580.7485260719048 207.34776171282783 752.1181584898632 # Xe
1140 1140 1 0.0 713.6622692377142 334.6068641853098 797.8452457056909 # Xe
1141 1141 1 0.0 220.9725431543611 529.8432061560218 518.9425920435283 # Xe
1142 1142 1 0.0 79.451049433265 50.624357428882284 444.8344955129716 # Xe
1143 1143 1 0.0 54.253896054940924 921.2926641410805 686.8423324138263 # Xe
1144 1144 1 0.0 628.2275728752273 527.0667531868277 175.88780890980652 # Xe
1145 1145 1 0.0 932.3058181568771 186.57806762605588 183.50085865344477 # Xe
1146 1146 1 0.0 842.2280123440198 121.62754447231127 215.13147892250535 # Xe
1147 1147 1 0.0 582.8441844045456 339.6033785681204 767.2429136757477 # Xe
1148 1148 1 0.0 270.92044236927336 89.34342667154007 57.5576403828129 # Xe
1149 1149 1 0.0 169.27195280025975 670.7589084492407 684.6971495356248 # Xe
1150 1150 1 0.0 914.4597650676079 477.77690180639723 645.3867602913709 # Xe
1151 1151 1 0.0 445.20368462208216 810.2315271970241 92.67383735978531 # Xe
1152 1152 1 0.0 874.7475011227135 827.5387293488383 485.197512234558 # Xe
1153 1153 1 0.0 932.2060462167469 136.93233981080743 368.4353198647754 # Xe
1154 1154 1 0.0 107.56669309969749 435.77465713568733 40.187600314176414 # Xe
1155 1155 1 0.0 409.70634736803885 665.7227885785638 765.24357073567 # Xe
1156 1156 1 0.0 701.33547342456 853.7595802626038 464.5662330461282 # Xe
1157 1157 1 0.0 707.7831983449337 538.8602931414907 28.703619366258838 # Xe
1158 1158 1 0.0 82.24290875401842 597.1205812082064 66.05503535517654 # Xe
1159 1159 1 0.0 359.8728850726772 145.88623989163014 630.4166389371593 # Xe
1160 1160 1 0.0 386.9205066790805 880.9501375565275 904.8799379386392 # Xe
1161 1161 1 0.0 643.1755301425119 583.8216860417743 883.3426109116657 # Xe
1162 1162 1 0.0 196.3392570140488 13.358979925608844 616.9830759435689 # Xe
1163 1163 1 0.0 909.3474676720982 659.618892151777 244.6348926934897 # Xe
1164 1164 1 0.0 869.3364462980081 367.6459974411326 223.9771196020531 # Xe
1165 1165 1 0.0 333.0290526297948 694.5655744351031 797.9177134141271 # Xe
1166 1166 1 0.0 211.83928152358172 357.5486986380248 905.2449640629376 # Xe
1167 1167 1 0.0 883.5168827807425 453.91296920444273 580.7078956761297 # Xe
1168 1168 1 0.0 127.26963166295457 348.95270679991415 565.0800449199144 # Xe
1169 1169 1 0.0 203.05618844480907 802.6717946995292 353.93190550280457 # Xe
1170 1170 1 0.0 246.66097286153908 272.5109134235254 48.53434171690605 # Xe
1171 1171 1 0.0 542.3898033419972 346.79387260052806 191.46030629180072 # Xe
1172 1172 1 0.0 245.44441316940416 68.78726518049366 525.8650479807379 # Xe
1173 1173 1 0.0 488.9032189974523 47.07484937449664 501.763014893647 # Xe
1174 1174 1 0.0 546.008238605703 401.94756133289115 31.517384958215914 # Xe
1175 1175 1 0.0 520.4117768505272 9.901394844582047 461.027055792534 # Xe
1176 1176 1 0.0 219.8938516803243 271.3121515553894 644.7099118567575 # Xe
1177 1177 1 0.0 609.7346265128158 907.6224068400109 275.32772091534184 # Xe
1178 1178 1 0.0 668.6118086053872 312.55668703071956 528.4451176629301 # Xe
1179 1179 1 0.0 74.54633189203807 351.25085231611916 247.068061612274 # Xe
1180 1180 1 0.0 824.1177361558863 170.00412310896203 679.0493622659291 # Xe
1181 1181 1 0.0 716.3717216099938 758.2940679872667 145.70130180149184 # Xe
1182 1182 1 0.0 111.90417026316673 614.0825829329708 390.83115210537386 # Xe
1183 1183 1 0.0 315.3439469509884 103.65387816944782 486.1394199944492 # Xe
1184 1184 1 0.0 904.6774526407905 415.5574042898628 412.49133978451596 # Xe
1185 1185 1 0.0 893.4350934009136 394.59102951078955 895.5808418168847 # Xe
1186 1186 1 0.0 108.71959048395094 369.21950829451293 275.5754189685613 # Xe
1187 1187 1 0.0 594.8217121768884 318.35722399118 211.89245439074153 # Xe
1188 1188 1 0.0 452.58828157696297 92.86121996396551 570.9879489431567 # Xe
1189 1189 1 0.0 399.9763616939391 504.7930776218308 846.7574252642609 # Xe
1190 1190 1 0.0 466.70131574293964 498.3005165688166 796.2255012305359 # Xe
1191 1191 1 0.0 865.6912197436343 297.2405716272244 0.3420139345252083 # Xe
1192 1192 1 0.0 553.5163096993352 201.7709322675387 127.95592266966463 # Xe
1193 1193 1 0.0 569.246594142156 224.01641521440547 288.4411860037521 # Xe
1194 1194 1 0.0 508.0999180422519 272.8159211336846 409.7043585863006 # Xe
1195 1195 1 0.0 371.40494442304185 92.66038170721754 471.2236785735916 # Xe
1196 1196 1 0.0 2.928919168843974 881.6556624242126 384.8132121373524 # Xe
1197 1197 1 0.0 839.8883487578084 63.84880872824534 57.25390118941532 # Xe
1198 1198 1 0.0 435.1390068979497 625.1403695049188 434.4176235090841 # Xe
1199 1199 1 0.0 388.88971931147654 526.8145523014059 734.4003652536077 # Xe
1200 1200 1 0.0 157.8373382782192 598.0139263291885 397.30511701102955 # Xe
1201 1201 1 0.0 717.3384049630596 603.1507147909642 123.94023409685597 # Xe
1202 1202 1 0.0 675.9382197907915 752.1817380703144 33.90159699885999 # Xe
1203 1203 1 0.0 83.98119298780159 528.8313564727796 331.7693507326379 # Xe
1204 1204 1 0.0 411.36409168169337 151.4684094740032 341.67796377584455 # Xe
1205 1205 1 0.0 26.656552096283942 676.6447150949518 907.248379153652 # Xe
1206 1206 1 0.0 156.98561790353705 732.1635770381778 328.8289734922749 # Xe
1207 1207 1 0.0 615.6609911691925 523.6989817194245 606.1566754974804 # Xe
1208 1208 1 0.0 240.8651242053024 425.4768827954281 84.7544625833571 # Xe
1209 1209 1 0.0 604.8702571354721 797.9058502181331 34.369933787007724 # Xe
1210 1210 1 0.0 659.2683074444699 396.320003177601 60.69399048649413 # Xe
1211 1211 1 0.0 567.5258939445721 680.1079698169236 113.43751343747586 # Xe
1212 1212 1 0.0 856.3304685346677 408.00702593177226 647.9793682687342 # Xe
1213 1213 1 0.0 309.9436092115034 811.1501878869135 929.6385937187428 # Xe
1214 1214 1 0.0 543.1489618496759 933.0660991647122 490.72586014744604 # Xe
1215 1215 1 0.0 691.4274250676298 305.7014816310729 419.2960758564267 # Xe
1216 1216 1 0.0 522.2150966871056 386.3675661686058 31.739077217752516 # Xe
1217 1217 1 0.0 702.7539875337598 91.3476390113502 198.9375383364094 # Xe
1218 1218 1 0.0 371.37066843105436 503.5547049789727 148.00139300755066 # Xe
1219 1219 1 0.0 765.6605678793368 292.322049998017 128.83092980143212 # Xe
1220 1220 1 0.0 921.2081246025751 445.1938198574443 146.27963505705756 # Xe
1221 1221 1 0.0 571.4231943367357 806.6330749510495 386.85614659537595 # Xe
1222 1222 1 0.0 307.28348580662305 503.35284090046326 85.68496223343952 # Xe
1223 1223 1 0.0 5.732169990169345 380.3942979026678 354.4635301758189 # Xe
1224 1224 1 0.0 199.36115527806822 124.88589161410292 566.1398727235359 # Xe
1225 1225 1 0.0 721.728103463825 763.6992737852263 277.7043681306941 # Xe
1226 1226 1 0.0 677.110561599756 404.23349539995775 794.0033165547941 # Xe
1227 1227 1 0.0 693.8787063765943 352.4503956686455 819.9407644441965 # Xe
1228 1228 1 0.0 370.40889382113227 580.8618207654876 506.05309988568064 # Xe
1229 1229 1 0.0 275.1021775521023 28.263707044787765 505.1236450077797 # Xe
1230 1230 1 0.0 598.0457125477385 766.6344342144787 335.8977589424109 # Xe
1231 1231 1 0.0 919.7201327341294 276.7731748889711 377.2624967370247 # Xe
1232 1232 1 0.0 433.2934838344335 223.14256064022354 865.1294486961084 # Xe
1233 1233 1 0.0 873.7419157656755 572.368911589292 872.7228283200313 # Xe
1234 1234 1 0.0 614.0291490289889 433.2703354400106 38.248943922151135 # Xe
1235 1235 1 0.0 197.00516696986574 897.5858060581323 837.9354075174792 # Xe
1236 1236 1 0.0 195.94427925862857 419.16111171210616 543.6372107594221 # Xe
1237 1237 1 0.0 104.62036712848901 747.3442128975761 207.46488540529603 # Xe
1238 1238 1 0.0 91.94760480104318 282.60433810189494 358.29742366344027 # Xe
1239 1239 1 0.0 303.4582500455398 819.2920004664619 285.77208556611737 # Xe
1240 1240 1 0.0 695.2228725578699 738.8518256748159 726.4370841780633 # Xe
1241 1241 1 0.0 285.87086766430303 147.1937457035478 200.41538874779016 # Xe
1242 1242 1 0.0 143.04946233549475 476.8809242437517 550.0085512744166 # Xe
1243 1243 1 0.0 429.48026879812625 256.32998778501894 464.43091104757514 # Xe
1244 1244 1 0.0 264.3166931777592 418.9425056475165 834.426615485688 # Xe
1245 1245 1 0.0 906.9348217707501 470.88057531309187 173.3781849773728 # Xe
1246 1246 1 0.0 417.1916315505444 217.53257498209942 931.0461082614813 # Xe
1247 1247 1 0.0 94.20601159933976 665.3829244507446 720.1362415157126 # Xe
1248 1248 1 0.0 329.0995348304202 89.2157670357724 691.782574472261 # Xe
1249 1249 1 0.0 809.4371441678184 778.9390693209288 38.326961515031854 # Xe
1250 1250 1 0.0 19.432451631133013 577.3698033917932 612.7740479567883 # Xe
1251 1251 1 0.0 477.03431744288736 871.2485674585563 915.3663969772934 # Xe
1252 1252 1 0.0 210.22213252450425 434.4042396012884 925.7514172292173 # Xe
1253 1253 1 0.0 777.8676949024031 102.25263266332156 775.7307574007981 # Xe
1254 1254 1 0.0 489.59432801924413 63.04875833100751 411.06237666302866 # Xe
1255 1255 1 0.0 311.6239354246188 44.11495319384323 35.8058741106775 # Xe
1256 1256 1 0.0 517.4017506181074 432.57258161217027 202.70002452444578 # Xe
1257 1257 1 0.0 277.7830230799826 507.4187927436205 287.08728330690195 # Xe
1258 1258 1 0.0 697.2050415850304 206.15154955758146 861.3048890493126 # Xe
1259 1259 1 0.0 780.8559851394828 786.1891703086051 724.3611376897874 # Xe
1260 1260 1 0.0 682.0891927487265 593.8328958685139 817.1846837141909 # Xe
1261 1261 1 0.0 781.8052806705423 242.33691578782515 39.445832392997026 # Xe
1262 1262 1 0.0 263.7214035078808 304.47566558125925 844.0241508480844 # Xe
1263 1263 1 0.0 7.061196970137844 243.76908790424451 536.885458611211 # Xe
1264 1264 1 0.0 278.8873586970327 211.90114231855208 620.1894410726052 # Xe
1265 1265 1 0.0 35.42689962671695 2.968608029522086 827.2879790311165 # Xe
1266 1266 1 0.0 668.1002914860027 92.65930208182924 107.6385301769425 # Xe
1267 1267 1 0.0 705.9292227653862 72.94313325238838 63.99820194954384 # Xe
1268 1268 1 0.0 678.5487106046629 132.35263101230447 663.4407404058385 # Xe
1269 1269 1 0.0 891.7404983544868 896.8971575705406 287.65450219839374 # Xe
1270 1270 1 0.0 72.51385617458637 662.9538479490109 673.7558453860582 # Xe
1271 1271 1 0.0 934.9804502688096 763.663528810659 883.0149302427975 # Xe
1272 1272 1 0.0 482.184773979262 114.34735062978079 790.192079037622 # Xe
1273 1273 1 0.0 363.60212390090953 416.27107156462137 836.4998043399376 # Xe
1274 1274 1 0.0 434.8855813091557 709.4393813169728 619.5490277953786 # Xe
1275 1275 1 0.0 445.68562769594604 220.57008346515238 479.99588211733436 # Xe
1276 1276 1 0.0 394.9642828030639 621.474149837535 322.755421839254 # Xe
1277 1277 1 0.0 628.4080073654446 527.387166283103 720.0376724847996 # Xe
1278 1278 1 0.0 546.6110862876791 284.2218540656666 908.7066404610408 # Xe
1279 1279 1 0.0 322.439690000174 532.5865796221007 165.11054288185926 # Xe
1280 1280 1 0.0 856.909629406169 518.0567578396465 297.41138659645543 # Xe
1281 1281 1 0.0 797.2064029992508 540.6307438560511 508.87959369815917 # Xe
1282 1282 1 0.0 138.78010413253367 339.90971627394515 143.98422889525872 # Xe
1283 1283 1 0.0 908.1407848086634 573.6965041052165 95.78439164624791 # Xe
1284 1284 1 0.0 811.163380808562 302.8550028863205 59.81885614619288 # Xe
1285 1285 1 0.0 658.9448751307575 569.6493394410342 415.7132552312211 # Xe
1286 1286 1 0.0 910.6466263566653 97.07388448162823 408.7481031098457 # Xe
1287 1287 1 0.0 637.891794866806 42.677354751312976 206.09514761286297 # Xe
1288 1288 1 0.0 201.46041794304827 719.3592977951635 187.35465656965462 # Xe
1289 1289 1 0.0 77.05170519593885 34.22778804972759 623.3775128144762 # Xe
1290 1290 1 0.0 524.7496976269927 61.37414180657506 336.0207712776885 # Xe
1291 1291 1 0.0 709.3845026487652 612.5266520312197 555.9909485222084 # Xe
1292 1292 1 0.0 853.2604743456169 591.4646207331533 313.01421563163774 # Xe
1293 1293 1 0.0 486.1357098958703 367.5585899063099 189.85298430975635 # Xe
1294 1294 1 0.0 59.20616005658591 482.1732695283955 472.87671261934423 # Xe
1295 1295 1 0.0 138.45802875851723 322.69132702569374 856.6412595693732 # Xe
1296 1296 1 0.0 538.1961010387578 322.0530150020658 197.11928096986694 # Xe
1297 1297 1 0.0 140.09758598852375 594.4148395597257 805.2045593840536 # Xe
1298 1298 1 0.0 734.0739922471708 219.44744466505838 124.7965920380217 # Xe
1299 1299 1 0.0 654.1943801189079 584.9419181928802 433.2530711220774 # Xe
1300 1300 1 0.0 453.0687288397435 847.7597832204775 856.9601433715058 # Xe
1301 1301 1 0.0 435.2000905402351 871.2313357168615 246.1947645862481 # Xe
1302 1302 1 0.0 843.8144808207348 495.83841567197214 23.51899793649574 # Xe
1303 1303 1 0.0 567.9970581040257 778.1025217360366 616.9798641218475 # Xe
1304 1304 1 0.0 511.17131421199014 679.3737034474904 632.5578051167425 # Xe
1305 1305 1 0.0 39.03067706626795 920.5253392997984 903.1744154488581 # Xe
1306 1306 1 0.0 803.6176345300773 718.1126086835226 208.01424329358758 # Xe
1307 1307 1 0.0 119.30884204150088 141.37540526146293 509.3783614053744 # Xe
1308 1308 1 0.0 41.60176869464016 3.209885650616229 393.7008284722576 # Xe
1309 1309 1 0.0 227.48867310199333 753.9968597980815 124.32623300933919 # Xe
1310 1310 1 0.0 53.730751348814735 173.6598388297346 716.5853524806912 # Xe
1311 1311 1 0.0 795.9304922805098 181.64279771603043 801.1041036740852 # Xe
1312 1312 1 0.0 592.02712164186 927.9204775164858 455.926305896859 # Xe
1313 1313 1 0.0 24.838303365949898 385.55784350065267 585.6777065488823 # Xe
1314 1314 1 0.0 51.40489976557675 830.1811633780217 527.1636368408232 # Xe
1315 1315 1 0.0 482.8954475036099 770.1692773982734 873.8438373026598 # Xe
1316 1316 1 0.0 470.67894130133226 449.57204065026343 390.95981629124435 # Xe
1317 1317 1 0.0 436.34324715385094 491.7190166316705 169.9646696862449 # Xe
1318 1318 1 0.0 366.57208303503285 821.1893014527216 169.1977835783144 # Xe
1319 1319 1 0.0 151.13870705529897 38.20705783600745 358.99683714758265 # Xe
1320 1320 1 0.0 179.00687596858046 166.89403623343964 648.4109553971663 # Xe
1321 1321 1 0.0 640.5291341023728 851.6352967290705 421.52268534033004 # Xe
1322 1322 1 0.0 191.09129957986426 326.6443534102331 351.4458495575262 # Xe
1323 1323 1 0.0 623.0253723937373 550.8258793720804 826.4480809220712 # Xe
1324 1324 1 0.0 750.3512595709785 868.8318080870619 466.8589302568852 # Xe
1325 1325 1 0.0 417.64119705764347 205.57727333521152 762.0678918467742 # Xe
1326 1326 1 0.0 693.727197854936 587.4858083758656 135.11160456320866 # Xe
1327 1327 1 0.0 676.224788173781 928.8343014344035 471.7626896138861 # Xe
1328 1328 1 0.0 92.73698337001092 820.6822896078405 506.1282501132788 # Xe
1329 1329 1 0.0 934.6505835764134 652.594120054213 123.23127434643904 # Xe
1330 1330 1 0.0 659.0811354342026 662.814774839983 251.46861415332944 # Xe
1331 1331 1 0.0 214.08355417136198 721.8828843180287 454.1093640744028 # Xe
1332 1332 1 0.0 930.7261895507828 671.0545235165329 531.5907931512971 # Xe
1333 1333 1 0.0 68.94292196819138 749.512215036843 259.2068285345045 # Xe
1334 1334 1 0.0 491.16771023858723 491.8851091581436 259.90877213920226 # Xe
1335 1335 1 0.0 149.59496342025992 398.18443863588504 918.3995627295002 # Xe
1336 1336 1 0.0 182.13465860132644 373.75579235471236 112.42502058684605 # Xe
1337 1337 1 0.0 780.3306194694329 171.42336632243976 881.8432683818074 # Xe
1338 1338 1 0.0 892.6218637923763 899.1409125165966 505.86157849154733 # Xe
1339 1339 1 0.0 91.20385669511883 774.5349716266264 649.5319729830509 # Xe
1340 1340 1 0.0 430.031295902431 571.8074799114131 203.95758909632312 # Xe
1341 1341 1 0.0 504.4690680200219 813.3762844273264 313.92737233693896 # Xe
1342 1342 1 0.0 885.6267936630308 36.33902624900888 347.2623293107106 # Xe
1343 1343 1 0.0 500.8427691012938 358.19808019596616 670.2705176322595 # Xe
1344 1344 1 0.0 29.478888993446144 243.99162072049563 609.5338155326607 # Xe
1345 1345 1 0.0 746.494128004897 895.8810925476707 268.37305426354783 # Xe
1346 1346 1 0.0 78.78543459544755 560.438393527707 459.17244129236036 # Xe
1347 1347 1 0.0 192.24475388946635 338.5873656401296 570.0516570052231 # Xe
1348 1348 1 0.0 881.4878687605037 253.01732557189086 315.8548802522529 # Xe
1349 1349 1 0.0 395.00901864208896 36.77638667803664 794.1042000213206 # Xe
1350 1350 1 0.0 690.8767847576227 345.38706055250384 928.8587168023638 # Xe
1351 1351 1 0.0 850.3946059834686 750.1577885873144 439.1032569271925 # Xe
1352 1352 1 0.0 754.8942943967372 221.06509726346144 793.3671827503068 # Xe
1353 1353 1 0.0 543.304967287899 223.45032304662365 298.3998213370789 # Xe
1354 1354 1 0.0 572.6407171698951 346.4182100252049 806.4928037000136 # Xe
1355 1355 1 0.0 927.2382977643431 258.0724337926147 854.651600377023 # Xe
1356 1356 1 0.0 883.9263050839463 503.3840649798936 561.0858606786904 # Xe
1357 1357 1 0.0 470.08101118010273 741.5223800159976 757.3990184055159 # Xe
1358 1358 1 0.0 28.56665197070476 695.0417822473993 723.3185083723905 # Xe
1359 1359 1 0.0 561.5607892208149 127.85177087930266 914.6280997027941 # Xe
1360 1360 1 0.0 256.0984304291477 737.637937145784 477.381573268614 # Xe
1361 1361 1 0.0 911.8602540353772 722.4485778595129 85.44702566282345 # Xe
1362 1362 1 0.0 398.7151400588983 413.5408527198011 301.07433228541913 # Xe
1363 1363 1 0.0 842.4392637347431 348.98028551001596 843.928311743166 # Xe
1364 1364 1 0.0 110.76225287033603 71.12396751945775 796.3346354809039 # Xe
1365 1365 1 0.0 428.4679167254185 702.1268353658796 501.4764554392229 # Xe
1366 1366 1 0.0 87.56436340376769 695.7483479613134 183.54750194516853 # Xe
1367 1367 1 0.0 702.6648025448324 129.1417712513908 19.438017003260335 # Xe
1368 1368 1 0.0 878.2265484479636 409.0212650415698 20.115069749017174 # Xe
1369 1369 1 0.0 499.9189586495466 295.1139197976567 144.77470236821878 # Xe
1370 1370 1 0.0 89.80196768220273 308.75125102856276 425.5151973281261 # Xe
1371 1371 1 0.0 690.0569705007723 449.72854393944664 112.25402627080138 # Xe
1372 1372 1 0.0 564.6385582254662 515.7918932526293 632.4433973663671 # Xe
1373 1373 1 0.0 475.51390841072754 800.3538633852863 116.08482838635753 # Xe
1374 1374 1 0.0 368.77660572159465 853.466856916571 809.9520053867077 # Xe
1375 1375 1 0.0 140.07952744134545 802.8296759591682 762.6368610024448 # Xe
1376 1376 1 0.0 520.3080278837072 477.6847341837311 673.6049226942187 # Xe
1377 1377 1 0.0 47.57675743614653 506.82840418650517 371.85458566458925 # Xe
1378 1378 1 0.0 136.2517169620518 467.8499756971225 64.7212273522488 # Xe
1379 1379 1 0.0 583.788023276468 393.0027017752156 114.52738578082166 # Xe
1380 1380 1 0.0 805.337549462571 560.2320573099868 348.8745881627823 # Xe
1381 1381 1 0.0 504.11769477608243 611.9416639821811 70.62435442962877 # Xe
1382 1382 1 0.0 701.2141106055884 790.7490049236712 345.0700332569766 # Xe
1383 1383 1 0.0 695.5256831151389 27.674698109059182 227.74380127009962 # Xe
1384 1384 1 0.0 111.80705615565127 229.47741853203914 131.59881405476295 # Xe
1385 1385 1 0.0 181.42823982017566 140.6668658316579 700.9082333266826 # Xe
1386 1386 1 0.0 123.66571298188434 245.3830659513467 425.4045057678585 # Xe
1387 1387 1 0.0 497.4582630159289 462.85106309890625 71.31104569453204 # Xe
1388 1388 1 0.0 94.43964003489715 851.1416201959719 642.6898767860871 # Xe
1389 1389 1 0.0 271.69103625045017 613.9578974154555 727.0832923271507 # Xe
1390 1390 1 0.0 905.3308445622063 601.420557628158 158.6220591630047 # Xe
1391 1391 1 0.0 113.83566165991033 35.058958097223574 266.0021202298382 # Xe
1392 1392 1 0.0 345.83809856339633 903.7345571308417 812.9577283737323 # Xe
1393 1393 1 0.0 880.0126675721726 139.89500416307027 151.74920431014678 # Xe
1394 1394 1 0.0 85.49070967617475 879.3971509392937 374.94644935604276 # Xe
1395 1395 1 0.0 107.98533115382095 453.99251484740495 704.9028995871179 # Xe
1396 1396 1 0.0 533.8005996531326 207.06516078628366 724.822991584398 # Xe
1397 1397 1 0.0 521.0065941390448 731.5550871537732 187.36540777161886 # Xe
1398 1398 1 0.0 573.0438896383716 71.1742191619531 723.1152073633082 # Xe
1399 1399 1 0.0 261.3785627871346 221.72858469280982 173.11236541643203 # Xe
1400 1400 1 0.0 109.76280773263761 650.5126045893687 317.71587708493144 # Xe
1401 1401 1 0.0 288.36980849711415 730.1904612984368 17.276894132972647 # Xe
1402 1402 1 0.0 739.316827878883 373.1471314913319 611.9323463075856 # Xe
1403 1403 1 0.0 755.2156316530752 460.023395161693 247.43350798039864 # Xe
1404 1404 1 0.0 105.66395835139356 703.9683088819936 426.1392735138596 # Xe
1405 1405 1 0.0 629.9226723840576 513.6965390322537 527.9313908356352 # Xe
1406 1406 1 0.0 580.18422861398 812.6295632587104 606.123567916066 # Xe
1407 1407 1 0.0 173.01652200478614 228.56778555913064 533.1096026383522 # Xe
1408 1408 1 0.0 820.0193334690438 221.51547766238795 488.20664917426524 # Xe
1409 1409 1 0.0 220.15754946904894 113.99076733805637 668.4517309503847 # Xe
1410 1410 1 0.0 27.950977124713763 183.66396581466668 56.57166960033589 # Xe
1411 1411 1 0.0 341.2034908620112 602.2708948947653 226.7953680419061 # Xe
1412 1412 1 0.0 417.86832947938 130.49439945472605 435.70899154178124 # Xe
1413 1413 1 0.0 61.682428958243534 140.1031559226679 632.8162917277341 # Xe
1414 1414 1 0.0 648.0881071388375 361.26370561932265 305.3438779845633 # Xe
1415 1415 1 0.0 752.8092928031349 118.46896663697903 453.4463012166414 # Xe
1416 1416 1 0.0 821.5158241120571 329.308068891906 919.6975763345808 # Xe
1417 1417 1 0.0 620.6177686239461 698.1446525025383 641.3615537656597 # Xe
1418 1418 1 0.0 471.0863769879189 329.89782398505736 619.4220761746722 # Xe
1419 1419 1 0.0 546.2677306932063 268.7252820658172 670.9599568015888 # Xe
1420 1420 1 0.0 381.3025950207992 222.9087707450658 5.136471859556038 # Xe
1421 1421 1 0.0 175.3941724005266 921.0728763238284 654.6187282465154 # Xe
1422 1422 1 0.0 468.0525048153243 653.3801828010295 65.66258450864818 # Xe
1423 1423 1 0.0 191.03410294308142 724.5352172843869 169.948879897188 # Xe
1424 1424 1 0.0 320.3015292090595 375.61703375134664 476.4615489171639 # Xe
1425 1425 1 0.0 617.7054082594179 634.1466739255671 810.1989906047652 # Xe
1426 1426 1 0.0 926.8822931914215 547.9495598858051 631.8108897321098 # Xe
1427 1427 1 0.0 238.61337326326418 877.4782400748094 154.63964197381316 # Xe
1428 1428 1 0.0 211.16538293448986 184.85616615961442 412.51636895624017 # Xe
1429 1429 1 0.0 450.6969349717261 293.6040612476795 424.07546212718995 # Xe
1430 1430 1 0.0 584.3488617627519 52.063101878438125 33.27686496815657 # Xe
1431 1431 1 0.0 411.33692332659433 681.4003095603958 696.3544762348564 # Xe
1432 1432 1 0.0 184.71532257072383 826.5962074831848 297.48869572024523 # Xe
1433 1433 1 0.0 393.7892703431222 319.24240613344045 532.0260955416788 # Xe
1434 1434 1 0.0 348.2143009584097 235.2749656656632 544.0682671508112 # Xe
1435 1435 1 0.0 457.0794914166435 420.53664900800396 316.89445433602015 # Xe
1436 1436 1 0.0 81.74783977747731 373.8340982531307 180.3086490670358 # Xe
1437 1437 1 0.0 552.1192953576357 457.86517536823806 609.2483146046685 # Xe
1438 1438 1 0.0 436.0198373266774 234.4220250122343 523.7824451107258 # Xe
1439 1439 1 0.0 705.6718224374259 933.705050647302 667.8565674340784 # Xe
1440 1440 1 0.0 8.278999252635984 885.0210461805666 210.1426896547013 # Xe
1441 1441 1 0.0 706.6863013192361 923.4280497880272 770.8930424699373 # Xe
1442 1442 1 0.0 43.02961304494448 467.33026099571174 204.40222872343892 # Xe
1443 1443 1 0.0 75.92792665342239 660.2829326538742 632.2089924388357 # Xe
1444 1444 1 0.0 829.8273801559436 300.91345595011666 852.689566009873 # Xe
1445 1445 1 0.0 367.5699998691085 118.67049980298908 634.130335139742 # Xe
1446 1446 1 0.0 387.41239381410287 403.9502937891345 766.0267007092529 # Xe
1447 1447 1 0.0 729.7722400950801 291.52529557695254 243.77019386175357 # Xe
1448 1448 1 0.0 732.2386917110222 209.65938989167358 43.327999269819884 # Xe
1449 1449 1 0.0 745.3368818262456 90.83140024498353 34.18741299725295 # Xe
1450 1450 1 0.0 99.56682770004365 894.58145368541 121.97968165081397 # Xe
1451 1451 1 0.0 801.3903105255773 130.50965940305426 533.8700233431388 # Xe
1452 1452 1 0.0 453.90323562683056 768.949212430384 135.81837419839638 # Xe
1453 1453 1 0.0 285.56941040165435 493.85192943518007 924.24176735075 # Xe
1454 1454 1 0.0 466.39697850202714 90.70548336779396 392.9643307632927 # Xe
1455 1455 1 0.0 212.85230743240257 755.0656098215701 621.1827099767347 # Xe
1456 1456 1 0.0 267.1414154409947 724.1298637001712 534.0970460054536 # Xe
1457 1457 1 0.0 132.06614760756852 74.1984281165201 828.3286171254276 # Xe
1458 1458 1 0.0 56.88310093220256 810.5731689200999 362.8937162837886 # Xe
1459 1459 1 0.0 569.2121265760477 879.7630574541232 646.8173454209186 # Xe
1460 1460 1 0.0 701.5928226661863 881.9177319330154 662.5794697421265 # Xe
1461 1461 1 0.0 218.07431261934542 443.0782695780748 562.1874938065461 # Xe
1462 1462 1 0.0 567.0271450740888 169.6737901532922 282.9512665969726 # Xe
1463 1463 1 0.0 797.1215330015132 786.2722262029239 802.920359752181 # Xe
1464 1464 1 0.0 836.034901475483 879.1716115855526 99.25307717390022 # Xe
1465 1465 1 0.0 859.6460301441706 131.21610765580226 396.0763778194107 # Xe
1466 1466 1 0.0 158.43136008941084 107.53133689920227 676.3308167275557 # Xe
1467 1467 1 0.0 260.9193389807488 266.63612398421424 536.5353080214363 # Xe
1468 1468 1 0.0 496.9684053224132 597.3657736892619 136.0682500594876 # Xe
1469 1469 1 0.0 252.59944805148996 477.8367862567157 56.61421221358343 # Xe
1470 1470 1 0.0 686.501246804354 909.0649949245095 714.5847081137581 # Xe
1471 1471 1 0.0 570.751564659297 896.6944846575688 797.86265448026 # Xe
1472 1472 1 0.0 382.22637536504635 465.58007732793004 618.2407895110784 # Xe
1473 1473 1 0.0 298.8895918195246 914.1308930920848 168.4087469463654 # Xe
1474 1474 1 0.0 236.46148009607916 255.1477007606069 648.3902216326159 # Xe
1475 1475 1 0.0 0.6013112310654153 194.46893074391798 600.5647899716971 # Xe
1476 1476 1 0.0 537.5851872277785 377.2721080897853 20.822259540162236 # Xe
1477 1477 1 0.0 378.90210040284836 176.0836869486577 621.1275043163798 # Xe
1478 1478 1 0.0 151.24023709773385 851.5414100021584 688.909294966355 # Xe
1479 1479 1 0.0 295.0261167615227 751.4723437115232 108.83143859036325 # Xe
1480 1480 1 0.0 769.661579526238 475.4454340139616 356.0035881574433 # Xe
1481 1481 1 0.0 698.9104712225394 135.39929283739096 445.1625952982832 # Xe
1482 1482 1 0.0 494.4794959111769 195.49750967276483 227.87220899633698 # Xe
1483 1483 1 0.0 374.27411895078893 410.41308362722214 753.8552913552824 # Xe
1484 1484 1 0.0 357.0429616043839 681.4901279909975 221.76861432560978 # Xe
1485 1485 1 0.0 599.0754967260492 471.3568833900274 521.8198878665858 # Xe
1486 1486 1 0.0 560.6557497674023 337.0439318706974 586.2176722099327 # Xe
1487 1487 1 0.0 825.1271037512137 348.00183860082325 615.6735369481223 # Xe
1488 1488 1 0.0 910.5722537647441 397.9306713493396 233.572013445705 # Xe
1489 1489 1 0.0 266.7397782642763 47.16212570607014 842.288043777161 # Xe
1490 1490 1 0.0 68.48758359364732 678.801107687409 391.76351464600066 # Xe
1491 1491 1 0.0 389.89119347549723 766.0963272239371 178.156222219014 # Xe
1492 1492 1 0.0 466.2618117013561 564.0301028358286 44.64581535446231 # Xe
1493 1493 1 0.0 746.9684446519235 734.637132090611 118.27886498020654 # Xe
1494 1494 1 0.0 815.4256970949647 4.008505099701777 260.98048734210994 # Xe
1495 1495 1 0.0 669.1049628910868 928.9615923161608 52.3198491805586 # Xe
1496 1496 1 0.0 471.9054594089758 720.319392423419 525.379901855787 # Xe
1497 1497 1 0.0 888.7749097190342 856.5250119437115 637.665530370522 # Xe
1498 1498 1 0.0 248.08357879287877 459.422989743409 369.02672834639975 # Xe
1499 1499 1 0.0 338.14449893406425 239.63745958611588 247.13085005285515 # Xe
1500 1500 1 0.0 163.44662539822843 804.0524551994725 817.2637378855213 # Xe
1501 1501 1 0.0 870.8479597913413 180.6587948146509 445.1621044904524 # Xe
1502 1502 1 0.0 180.99977645463133 33.73701761400252 809.8873275952318 # Xe
1503 1503 1 0.0 3.10790557970791 145.61280461422766 709.9815541469336 # Xe
1504 1504 1 0.0 23.59189432310645 278.3201386235018 637.1574866012353 # Xe
1505 1505 1 0.0 713.0097894422402 667.8529034181269 118.71900190778679 # Xe
1506 1506 1 0.0 373.62726182866595 288.2145343106847 294.95205032499933 # Xe
1507 1507 1 0.0 363.58296871491797 288.4517744076563 186.91871427577874 # Xe
1508 1508 1 0.0 292.6404223325904 631.3836326014871 344.0825419694518 # Xe
1509 1509 1 0.0 53.10061438821473 310.9343044465136 243.12995500368706 # Xe
1510 1510 1 0.0 19.74736707110484 81.1392840322891 248.68729581991653 # Xe
1511 1511 1 0.0 300.9279142157106 206.99323265901344 221.23957544302596 # Xe
1512 1512 1 0.0 439.9107382833321 108.9845434827218 257.2060257479928 # Xe
1513 1513 1 0.0 648.2770343294349 255.9876018963198 150.70716868317393 # Xe
1514 1514 1 0.0 35.903963848501334 293.25424316268476 733.2515962341172 # Xe
1515 1515 1 0.0 786.4044946211822 210.70095245870692 317.9411126806865 # Xe
1516 1516 1 0.0 880.3532038253834 646.1160704277647 182.3621586146429 # Xe
1517 1517 1 0.0 340.05378418347465 550.9972056100354 15.490869548516295 # Xe
1518 1518 1 0.0 765.4743899028424 307.14775323630425 217.29217056726563 # Xe
1519 1519 1 0.0 463.1676675822093 10.663294713287929 807.1692648602839 # Xe
1520 1520 1 0.0 702.1868346705279 845.9121176599207 361.2261451887988 # Xe
1521 1521 1 0.0 727.3531500501832 897.9613823810681 853.7629064418371 # Xe
1522 1522 1 0.0 535.8370415126464 509.2351498736568 701.8814718255852 # Xe
1523 1523 1 0.0 254.5184733348786 505.7746138634375 179.51650267431273 # Xe
1524 1524 1 0.0 268.28396851636677 92.76059882739007 454.67800292973595 # Xe
1525 1525 1 0.0 850.530060177991 859.7879605651099 800.3282778265776 # Xe
1526 1526 1 0.0 797.7741029846253 119.14991260567517 220.51996818463041 # Xe
1527 1527 1 0.0 735.7103345441693 499.6414458819999 101.1658662281048 # Xe
1528 1528 1 0.0 243.16850049029796 537.3479079018393 594.2030888068191 # Xe
1529 1529 1 0.0 923.0949295184979 243.3629845259943 685.8943800857235 # Xe
1530 1530 1 0.0 45.59186639154842 29.77016697307736 398.9482894356566 # Xe
1531 1531 1 0.0 200.63531790555865 136.80301314850334 789.6157589716372 # Xe
1532 1532 1 0.0 856.6038095941441 511.774079580286 812.3962920379428 # Xe
1533 1533 1 0.0 29.951094013206543 172.53818481646675 109.31875491703983 # Xe
1534 1534 1 0.0 805.2724541354128 847.1631332025008 738.0061862084219 # Xe
1535 1535 1 0.0 687.3995083909302 24.619706325506733 136.9488323758527 # Xe
1536 1536 1 0.0 286.15621228530335 0.9972664476763295 185.69313203193707 # Xe
1537 1537 1 0.0 363.9658580379654 842.9450122343817 918.388868542822 # Xe
1538 1538 1 0.0 901.5039897244467 670.7549182469628 412.71414045440156 # Xe
1539 1539 1 0.0 555.5653502789351 320.4185272717661 834.022023147313 # Xe
1540 1540 1 0.0 676.4488490324252 789.0635036314975 377.1617365640898 # Xe
1541 1541 1 0.0 918.4143869365927 626.8542733370045 368.3285250146823 # Xe
1542 1542 1 0.0 78.5920935126867 888.4037204027359 771.8671298009317 # Xe
1543 1543 1 0.0 570.4449969624205 405.50840294567354 778.4564328442971 # Xe
1544 1544 1 0.0 424.43616207769423 579.3219848826215 436.5438262424815 # Xe
1545 1545 1 0.0 506.2401728746767 306.6759533759162 453.4819404563175 # Xe
1546 1546 1 0.0 38.655599611132885 542.0117204834681 811.9030200537205 # Xe
1547 1547 1 0.0 169.09829334055155 291.33671376232274 10.565021719016348 # Xe
1548 1548 1 0.0 542.5008678113195 830.6097611238968 450.82013839427174 # Xe
1549 1549 1 0.0 179.3462732430011 248.94037493477316 116.75966720935368 # Xe
1550 1550 1 0.0 788.9665967077694 620.0248310837919 62.60202550077233 # Xe
1551 1551 1 0.0 826.6118696010595 682.7344612529151 278.47542341950776 # Xe
1552 1552 1 0.0 78.57966416276348 155.15390099454015 926.0251454888923 # Xe
1553 1553 1 0.0 925.4072349034409 150.87677288874727 726.3861629331043 # Xe
1554 1554 1 0.0 12.590918795721539 731.0075611700395 229.4033534275566 # Xe
1555 1555 1 0.0 914.3850320922775 571.2987564015839 257.97423555043457 # Xe
1556 1556 1 0.0 575.6741167984362 319.86729524514124 908.1668854970494 # Xe
1557 1557 1 0.0 518.8413581798944 579.4623222160042 829.9980095226828 # Xe
1558 1558 1 0.0 417.82360910325895 481.88437015537164 795.7804148593533 # Xe
1559 1559 1 0.0 573.483216753671 771.2535681072894 914.8848590298606 # Xe
1560 1560 1 0.0 514.689158039873 675.6991206802326 164.304054524226 # Xe
1561 1561 1 0.0 324.6744063215897 871.922076250924 672.4989833182227 # Xe
1562 1562 1 0.0 172.6717500734618 811.8688581110548 750.2861971632776 # Xe
1563 1563 1 0.0 107.01257767341292 474.4225949172216 598.2827631301955 # Xe
1564 1564 1 0.0 181.00987210199807 406.63414161663957 804.0364146618216 # Xe
1565 1565 1 0.0 250.0797748726481 474.28318959980055 41.85297479529668 # Xe
1566 1566 1 0.0 558.8634598819385 882.8233666758396 846.9653581727799 # Xe
1567 1567 1 0.0 693.3423686787161 723.1265451780506 464.04319298399224 # Xe
1568 1568 1 0.0 369.16032900839105 263.29307803329453 197.44739040935633 # Xe
1569 1569 1 0.0 82.99510691653897 315.6017528613067 428.22122249629354 # Xe
1570 1570 1 0.0 3.6937338362259697 175.63871030677208 491.5945720801519 # Xe
1571 1571 1 0.0 731.8602056680969 277.1716015744785 8.53949650468186 # Xe
1572 1572 1 0.0 240.05935511554415 157.30332662988064 877.2961852524356 # Xe
1573 1573 1 0.0 22.536310723878497 685.5603706671701 178.16303559735303 # Xe
1574 1574 1 0.0 185.95445030992124 327.8459072766623 536.5225396888496 # Xe
1575 1575 1 0.0 634.4771515162865 413.8621944686592 738.7810571798619 # Xe
1576 1576 1 0.0 696.105813603489 325.4320097139975 441.1550375127154 # Xe
1577 1577 1 0.0 450.6667500925217 390.34278072828675 601.8058239838971 # Xe
1578 1578 1 0.0 791.0327744476647 773.232126112485 581.1226504156015 # Xe
1579 1579 1 0.0 416.0263295463394 668.595282695037 928.2515787268611 # Xe
1580 1580 1 0.0 543.3281154215583 534.5401180062929 374.8213554343202 # Xe
1581 1581 1 0.0 422.57445211200763 58.22257216707396 448.54484553033666 # Xe
1582 1582 1 0.0 26.134748481912236 327.7774445353558 847.2925173779277 # Xe
1583 1583 1 0.0 460.47240466650754 55.93703259131647 576.6870171721187 # Xe
1584 1584 1 0.0 873.7431708129221 805.999666622819 727.5893498153016 # Xe
1585 1585 1 0.0 669.077449651056 122.9799299698306 411.63441394569816 # Xe
1586 1586 1 0.0 763.8152060170642 319.594283088885 63.942107772776055 # Xe
1587 1587 1 0.0 591.0025327131594 594.0740901818604 426.0627826431844 # Xe
1588 1588 1 0.0 686.0118397955573 189.114537405697 483.3601771188977 # Xe
1589 1589 1 0.0 278.9269153708573 149.92716892854241 206.5579842707654 # Xe
1590 1590 1 0.0 872.4229283146527 595.4561756761886 99.28147871436272 # Xe
1591 1591 1 0.0 522.0419076421389 501.03737874637665 513.0593424841054 # Xe
1592 1592 1 0.0 904.4521984570645 100.56467770145744 275.4766185057782 # Xe
1593 1593 1 0.0 655.3585091303437 408.9819061080152 932.6231074594033 # Xe
1594 1594 1 0.0 313.596653508475 466.37523211867017 392.2300489239344 # Xe
1595 1595 1 0.0 871.6531751691459 168.86849868232318 728.1047300008495 # Xe
1596 1596 1 0.0 432.4912336894617 349.0395292792783 851.4691338322114 # Xe
1597 1597 1 0.0 761.1137616698378 35.51225494768169 749.5769713728989 # Xe
1598 1598 1 0.0 823.2083220255604 806.8848584474761 387.51725570866245 # Xe
1599 1599 1 0.0 144.4390327173699 396.16267606257287 480.5357623636962 # Xe
1600 1600 1 0.0 619.9251999191586 783.6790611702925 853.4935408830138 # Xe
1601 1601 1 0.0 481.37355877496105 226.5040050126075 417.69899894054635 # Xe
1602 1602 1 0.0 802.9638539741006 318.6121894530144 634.2692516993745 # Xe
1603 1603 1 0.0 168.33597074537008 897.2672433421175 639.7156292929462 # Xe
1604 1604 1 0.0 134.23460237837816 575.5442269262918 276.5160515175585 # Xe
1605 1605 1 0.0 756.941349844068 353.4686230886465 579.7685200949666 # Xe
1606 1606 1 0.0 507.4619786364002 875.6009634978993 820.1737414333937 # Xe
1607 1607 1 0.0 107.67083048218295 371.2227245500935 620.9521665159898 # Xe
1608 1608 1 0.0 72.37231079048843 495.77938956793 785.9863422033025 # Xe
1609 1609 1 0.0 885.5024297776201 224.74581573448432 715.5758172323145 # Xe
1610 1610 1 0.0 271.70121015733986 461.9552220586744 675.5175494243404 # Xe
1611 1611 1 0.0 754.5749015342466 205.22676656060068 366.8203956539093 # Xe
1612 1612 1 0.0 544.9167271925046 894.9952266794156 580.8514557102618 # Xe
1613 1613 1 0.0 769.00408991734 5.010480865818388 648.6938038470427 # Xe
1614 1614 1 0.0 682.1123717918808 781.2105377530753 353.32778198464706 # Xe
1615 1615 1 0.0 431.6239443805097 34.819800958126166 108.32152965161477 # Xe
1616 1616 1 0.0 661.7115183312387 693.3822902021753 480.09943280684405 # Xe
1617 1617 1 0.0 382.8405326156191 655.731483598094 704.5549282162614 # Xe
1618 1618 1 0.0 844.3322451633283 877.961263394691 36.26867359019499 # Xe
1619 1619 1 0.0 436.6852756799822 903.3768649555672 426.9018711811374 # Xe
1620 1620 1 0.0 455.31114420649806 202.67708512182858 934.1189452991705 # Xe
1621 1621 1 0.0 377.2516311500316 212.62765506938604 570.72380797808 # Xe
1622 1622 1 0.0 394.1886149099375 84.8198678934668 24.01331988680424 # Xe
1623 1623 1 0.0 655.8641182548183 468.87449203648197 881.0648155497377 # Xe
1624 1624 1 0.0 919.790425240092 160.96790766385038 778.1372507446683 # Xe
1625 1625 1 0.0 770.2036645869985 299.9450569146916 319.993959805437 # Xe
1626 1626 1 0.0 715.5426099057782 220.57677701726035 728.3435165861498 # Xe
1627 1627 1 0.0 776.5814489831004 52.6594249682839 111.54752398813001 # Xe
1628 1628 1 0.0 24.03916453441599 337.54549973358695 438.17977879158786 # Xe
1629 1629 1 0.0 787.1595673849761 840.6660272935488 268.9789346366019 # Xe
1630 1630 1 0.0 933.1386236678865 501.5115094906957 482.09349019459296 # Xe
1631 1631 1 0.0 61.95466169458721 37.05461965163016 415.94347209844113 # Xe
1632 1632 1 0.0 174.82288553616058 745.2103021253225 297.4279992484211 # Xe
1633 1633 1 0.0 297.874935152717 874.9008632226179 211.47295734196135 # Xe
1634 1634 1 0.0 741.3207903205191 197.6276367191001 693.3037952471259 # Xe
1635 1635 1 0.0 290.05217063865075 3.88271709598222 7.343564547660241 # Xe
1636 1636 1 0.0 165.33607284964677 611.1324454290861 237.9364085540396 # Xe
1637 1637 1 0.0 687.9240909222925 343.44182516596084 722.5751833676804 # Xe
1638 1638 1 0.0 551.3428142613373 248.8297461102613 292.0501294873168 # Xe
1639 1639 1 0.0 596.1932759462508 294.2853470504597 544.1762940042672 # Xe
1640 1640 1 0.0 414.4587580171797 111.97491659885328 531.113269313976 # Xe
1641 1641 1 0.0 865.8670182841284 229.08999168526046 399.6501958225628 # Xe
1642 1642 1 0.0 262.966921980655 169.77874128553515 921.0252042507286 # Xe
1643 1643 1 0.0 732.6762124863991 888.4117539842075 550.1559229356602 # Xe
1644 1644 1 0.0 239.60412635154293 293.8698248047695 115.23156996305114 # Xe
1645 1645 1 0.0 652.4407241515338 616.2388229687057 171.26515198741936 # Xe
1646 1646 1 0.0 2.270315431128808 872.6426307235371 785.8244416736178 # Xe
1647 1647 1 0.0 467.5165563213325 840.2160339310848 413.57472280489515 # Xe
1648 1648 1 0.0 461.6851245640513 140.46318126748454 545.6581049840441 # Xe
1649 1649 1 0.0 907.3668491776432 905.5543813216686 255.86139531472156 # Xe
1650 1650 1 0.0 9.750515693119109 183.95178343843588 836.6507163406908 # Xe
1651 1651 1 0.0 126.35623134038605 558.7906811616068 775.5503374771957 # Xe
1652 1652 1 0.0 421.4433804079504 284.74114606644366 762.574814863712 # Xe
1653 1653 1 0.0 648.5681003153276 367.51313309627966 84.32760078952852 # Xe
1654 1654 1 0.0 356.313675998248 460.1161426322242 348.6117741597749 # Xe
1655 1655 1 0.0 94.01279695565918 926.873865992447 265.6541859809949 # Xe
1656 1656 1 0.0 51.50863361781861 222.8839974927013 684.9105164593908 # Xe
1657 1657 1 0.0 509.8927577601309 318.957286055643 370.8383026641989 # Xe
1658 1658 1 0.0 205.17853375907904 57.75944413227032 674.7691787553355 # Xe
1659 1659 1 0.0 872.1431142953729 198.3999893817256 124.51081592623568 # Xe
1660 1660 1 0.0 115.18982914295171 360.89950891156127 102.9695915711106 # Xe
1661 1661 1 0.0 301.04472400437436 671.8205607523225 53.417443900784455 # Xe
1662 1662 1 0.0 80.31399099892724 123.21919768113177 316.7617152731183 # Xe
1663 1663 1 0.0 572.9022786047706 275.3226933120558 98.89677732023557 # Xe
1664 1664 1 0.0 825.9699747594906 5.857374963910173 888.8883854569714 # Xe
1665 1665 1 0.0 651.0215622274342 715.9098202169372 711.3830520743421 # Xe
1666 1666 1 0.0 818.3138578227422 194.1094137089243 443.3428653712969 # Xe
1667 1667 1 0.0 689.2189309397506 332.5167840470465 611.1356273913391 # Xe
1668 1668 1 0.0 21.51605806346531 824.3362220884787 901.5253558014454 # Xe
1669 1669 1 0.0 292.6595488401522 112.54597892771234 611.69850555487 # Xe
1670 1670 1 0.0 902.7459039854281 515.6487800050267 141.89502729662217 # Xe
1671 1671 1 0.0 431.1344659544004 49.820569057835506 231.1717784160418 # Xe
1672 1672 1 0.0 629.1173160147054 658.8598488780509 7.094098740353666 # Xe
1673 1673 1 0.0 111.47139034004479 506.06915730815695 98.33747879794443 # Xe
1674 1674 1 0.0 205.5190696666782 336.6869952380886 589.5758611402966 # Xe
1675 1675 1 0.0 921.7334492987778 46.05953320544438 348.76259185247466 # Xe
1676 1676 1 0.0 259.3050500246941 105.0067069740531 739.4696120965341 # Xe
1677 1677 1 0.0 289.6380333489542 120.87069136242535 708.0393933629739 # Xe
1678 1678 1 0.0 665.8641378422725 355.5038667309533 836.0782532875622 # Xe
1679 1679 1 0.0 689.0446350494882 666.3896286023777 122.74932145639296 # Xe
1680 1680 1 0.0 356.4759228810976 407.7684124788232 274.3757962760083 # Xe
1681 1681 1 0.0 917.458277923686 101.89254354513264 861.5561224957968 # Xe
1682 1682 1 0.0 163.70915045718303 257.8599915168553 641.2737971098338 # Xe
1683 1683 1 0.0 497.2829167410022 182.34127054362418 364.6963489496415 # Xe
1684 1684 1 0.0 549.455127250306 702.6902345963063 675.3443874760417 # Xe
1685 1685 1 0.0 278.48438503819034 444.34951608986097 374.1159606863471 # Xe
1686 1686 1 0.0 666.1013250666907 439.39430631694887 713.3468271839055 # Xe
1687 1687 1 0.0 747.0243297260811 312.8545203465134 81.41427906217787 # Xe
1688 1688 1 0.0 11.898915011993084 519.5287813556067 269.1183656841053 # Xe
1689 1689 1 0.0 455.09666545509975 902.6942598424762 695.1871926273002 # Xe
1690 1690 1 0.0 704.8437443489908 807.0589740036348 815.9009592393487 # Xe
1691 1691 1 0.0 491.42122021971556 477.5300258597898 293.35622484486356 # Xe
1692 1692 1 0.0 440.7054954086285 165.2011940155271 9.575806123950784 # Xe
1693 1693 1 0.0 334.9305947617415 20.625846724933186 188.67333394541407 # Xe
1694 1694 1 0.0 783.4410118032043 760.7553481156746 667.9268402580739 # Xe
1695 1695 1 0.0 284.5961909320205 758.5746160053689 840.7503510799816 # Xe
1696 1696 1 0.0 265.1838645349339 927.0069293749493 870.5903280197747 # Xe
1697 1697 1 0.0 161.16694965265913 865.4671392713885 139.20437282170573 # Xe
1698 1698 1 0.0 880.3236520178497 99.93090404117744 191.1847166024918 # Xe
1699 1699 1 0.0 66.0659076327725 830.6156904797342 835.8408721276097 # Xe
1700 1700 1 0.0 323.03603886299305 408.1655108322407 357.3936216663562 # Xe
1701 1701 1 0.0 593.9643752119463 624.9726148135221 866.3897489415309 # Xe
1702 1702 1 0.0 620.9619794202265 850.0922955635139 764.8226085559438 # Xe
1703 1703 1 0.0 582.5655515661354 842.1948437583477 386.7684394117354 # Xe
1704 1704 1 0.0 588.2984097678421 253.67585742528306 230.2290326260897 # Xe
1705 1705 1 0.0 744.3352774344881 807.1873206599777 578.2752995241108 # Xe
1706 1706 1 0.0 857.3119034640849 741.8140811878462 343.0584736864299 # Xe
1707 1707 1 0.0 137.38147878721276 455.8996543481607 922.8602296199732 # Xe
1708 1708 1 0.0 574.3780035091139 293.7804631140484 523.7814417379138 # Xe
1709 1709 1 0.0 393.0021975260582 127.0316639237003 168.971221024754 # Xe
1710 1710 1 0.0 902.4960674685514 576.3379540005227 298.40748905537765 # Xe
1711 1711 1 0.0 607.314164205317 403.0543082556505 781.1565141383921 # Xe
1712 1712 1 0.0 754.8451105138954 290.49276055808366 842.4003244145337 # Xe
1713 1713 1 0.0 567.959477797058 787.1460793790072 372.63239590980504 # Xe
1714 1714 1 0.0 245.51540409983906 325.36603202539317 298.22331575280964 # Xe
1715 1715 1 0.0 153.13840065648503 35.99974412730008 794.0897972549161 # Xe
1716 1716 1 0.0 78.19202346846579 323.9513464511656 370.6999598881337 # Xe
1717 1717 1 0.0 546.1068196114086 280.84808294061656 293.41498622609276 # Xe
1718 1718 1 0.0 339.1393265534542 249.1571905480946 353.8981389660884 # Xe
1719 1719 1 0.0 585.8562992075413 53.311516527878624 802.1669959729279 # Xe
1720 1720 1 0.0 168.55087965180925 868.0366209576604 346.3105694683353 # Xe
1721 1721 1 0.0 799.7875081319866 640.8500616182155 500.50142183850267 # Xe
1722 1722 1 0.0 760.5364868906345 899.5262122106229 219.56232278781872 # Xe
1723 1723 1 0.0 378.32231071019095 126.32807728366889 340.55625719593064 # Xe
1724 1724 1 0.0 841.0329362398381 79.74500424895172 410.70845664827306 # Xe
1725 1725 1 0.0 380.56681829068094 174.24392775110564 760.6820047074968 # Xe
1726 1726 1 0.0 139.1493049704346 196.12892425979936 657.5752237816564 # Xe
1727 1727 1 0.0 791.5622701261651 172.7093382135202 223.6929374454128 # Xe
1728 1728 1 0.0 802.2338942911533 531.3202489471101 879.5980908777633 # Xe
1729 1729 1 0.0 455.12270553861686 37.827889605603 672.7957855100283 # Xe
1730 1730 1 0.0 457.8045131849439 49.29014173896298 859.2305831120201 # Xe
1731 1731 1 0.0 255.19744279149205 352.8293335879955 349.54661475713834 # Xe
1732 1732 1 0.0 541.3991204311033 478.67253393539573 446.1578095649162 # Xe
1733 1733 1 0.0 340.59918758412533 703.8040427500085 458.0849033084903 # Xe
1734 1734 1 0.0 925.1605278862193 349.39534461040745 219.1747287330332 # Xe
1735 1735 1 0.0 586.0432307823706 499.9752889796297 599.3852769819515 # Xe
1736 1736 1 0.0 864.1860885883312 603.4966115398063 22.25400238120795 # Xe
1737 1737 1 0.0 260.3628837237102 71.03039442054119 75.2610296340421 # Xe
1738 1738 1 0.0 398.6270852633974 888.1855362639582 264.8531878570284 # Xe
1739 1739 1 0.0 60.76205598342101 73.2007111154375 124.0395493983273 # Xe
1740 1740 1 0.0 460.38712242021785 62.353962138699664 355.02481257215794 # Xe
1741 1741 1 0.0 343.03332710559505 853.2495976303057 337.8214281948463 # Xe
1742 1742 1 0.0 353.3491974237616 565.9172363538094 101.52768175516704 # Xe
1743 1743 1 0.0 666.8459032122031 685.5917743448119 889.592445974218 # Xe
1744 1744 1 0.0 86.81498689418872 530.0946488435758 863.6730995647124 # Xe
1745 1745 1 0.0 782.3588920481347 582.994218373475 481.59041659472217 # Xe
1746 1746 1 0.0 157.85305630706694 178.0928635947638 717.4638234012349 # Xe
1747 1747 1 0.0 152.52373153142665 216.74156325432006 15.855471567592131 # Xe
1748 1748 1 0.0 898.0820087198263 58.23007314910814 258.91561196974106 # Xe
1749 1749 1 0.0 656.7547734484797 799.911504642288 522.5180767841874 # Xe
1750 1750 1 0.0 572.0383998251316 590.9563429658551 265.58537489345406 # Xe
1751 1751 1 0.0 108.74451161541057 697.0191536191164 922.1477800643379 # Xe
1752 1752 1 0.0 871.4965546645356 786.0533286005082 799.6496175810166 # Xe
1753 1753 1 0.0 554.1392923219457 19.69395911533816 861.4020620639142 # Xe
1754 1754 1 0.0 496.19125958518464 879.0146608202094 891.3393859564842 # Xe
1755 1755 1 0.0 384.1871967489365 665.6182064999306 831.219791117449 # Xe
1756 1756 1 0.0 539.3475419963944 228.93448556161712 436.67305393715696 # Xe
1757 1757 1 0.0 182.02620867555328 493.8867415346757 156.9154278208003 # Xe
1758 1758 1 0.0 12.02630847464064 263.6846700190745 23.306217863688655 # Xe
1759 1759 1 0.0 307.21321912926874 847.8924631025504 294.6358849726787 # Xe
1760 1760 1 0.0 504.5765933622848 752.7923480252136 835.3556455717545 # Xe
1761 1761 1 0.0 734.1052845413404 616.3188614226331 706.10271885531 # Xe
1762 1762 1 0.0 862.0254039522658 922.0320118853308 919.0506328784523 # Xe
1763 1763 1 0.0 486.3915460474038 480.5219485088516 333.54146313837987 # Xe
1764 1764 1 0.0 794.2802063681565 566.5189126090439 687.061798881097 # Xe
1765 1765 1 0.0 496.3300519507891 734.7086874795767 890.4464675257794 # Xe
1766 1766 1 0.0 598.1182067111242 420.00140901403705 555.9042038336597 # Xe
1767 1767 1 0.0 91.7826392056667 300.939463567695 891.9758841212295 # Xe
1768 1768 1 0.0 618.8034567688945 921.7675776200912 783.5061069795742 # Xe
1769 1769 1 0.0 539.055519308766 229.36004257020036 288.5441480074495 # Xe
1770 1770 1 0.0 345.5671350421184 237.79246643658888 821.2957138159848 # Xe
1771 1771 1 0.0 208.83745226088567 481.9404178247448 323.2667184498291 # Xe
1772 1772 1 0.0 409.7128586365299 177.22639524679266 254.35861742967106 # Xe
1773 1773 1 0.0 754.169866902022 509.7428570888382 597.7261272503408 # Xe
1774 1774 1 0.0 490.2509274574054 885.9520970714761 349.60337606279177 # Xe
1775 1775 1 0.0 782.7904700268228 659.0250696448292 47.9609116539831 # Xe
1776 1776 1 0.0 869.6847470222742 503.86343001930726 248.80873772224098 # Xe
1777 1777 1 0.0 832.3342660396881 94.26167914878235 930.0672591391422 # Xe
1778 1778 1 0.0 920.4933760360851 536.992194306495 712.8389035510124 # Xe
1779 1779 1 0.0 356.4254084909105 299.01689001559095 450.2299891324753 # Xe
1780 1780 1 0.0 853.5872554096162 789.1980594195976 837.166358455825 # Xe
1781 1781 1 0.0 637.9084442641403 708.8738663861542 780.5686171188914 # Xe
1782 1782 1 0.0 816.6765661260672 187.97772658582218 597.7619889444043 # Xe
1783 1783 1 0.0 96.05004801392619 454.41122312012453 62.709082138890615 # Xe
1784 1784 1 0.0 778.9622499577221 842.5399932114237 428.9613622094845 # Xe
1785 1785 1 0.0 823.4797543027773 882.3104056229228 339.8805275416408 # Xe
1786 1786 1 0.0 584.867105592149 265.02807749757534 251.35754114123625 # Xe
1787 1787 1 0.0 325.61547567183715 734.9438920338838 648.6973456067429 # Xe
1788 1788 1 0.0 464.5209598104414 737.5241468379395 530.3738985473931 # Xe
1789 1789 1 0.0 636.7815231484558 423.1129020783578 192.0161047337009 # Xe
1790 1790 1 0.0 170.14899142124514 520.6940341539612 257.59275569926416 # Xe
1791 1791 1 0.0 287.88494564738755 26.318512420972286 449.7638804125953 # Xe
1792 1792 1 0.0 802.6071791256745 848.8455026522536 102.34097938216587 # Xe
1793 1793 1 0.0 916.2775429089728 584.9337963590573 709.215486725505 # Xe
1794 1794 1 0.0 727.177453992986 510.27996725803683 76.63209294901743 # Xe
1795 1795 1 0.0 565.3912716341767 406.9658544056873 480.4544213046398 # Xe
1796 1796 1 0.0 883.0638444808465 362.7033466795526 683.2714843181429 # Xe
1797 1797 1 0.0 556.7219064553458 148.80014343557204 847.7721731131534 # Xe
1798 1798 1 0.0 315.48309900697416 186.9387430122851 34.43001865929255 # Xe
1799 1799 1 0.0 680.787910727143 532.4633136439745 645.1197048737358 # Xe
1800 1800 1 0.0 891.0657966402853 828.5386861549466 728.507626877181 # Xe
1801 1801 1 0.0 837.2002751406144 504.0670745377292 31.549484131467075 # Xe
1802 1802 1 0.0 8.368060119851943 702.0773686778358 129.58706771757014 # Xe
1803 1803 1 0.0 336.93159743728114 130.75615418938892 391.6954151553894 # Xe
1804 1804 1 0.0 435.8174930551934 621.2527024217773 335.4381118131407 # Xe
1805 1805 1 0.0 802.1441512583506 430.14199974817234 190.16368486247265 # Xe
1806 1806 1 0.0 529.7320633750385 366.57346624033926 881.1929052834611 # Xe
1807 1807 1 0.0 686.1397820345012 175.96077330272502 489.5314614704468 # Xe
1808 1808 1 0.0 184.6629671753841 38.68065310443277 749.4931052656178 # Xe
1809 1809 1 0.0 191.58772446736833 614.9440571945934 438.25926067549284 # Xe
1810 1810 1 0.0 836.2993671026132 84.475112197408 165.99428436788736 # Xe
1811 1811 1 0.0 35.86572894664536 142.5720057266588 28.22187711100265 # Xe
1812 1812 1 0.0 227.14395362110724 172.72663990884456 531.5008451090079 # Xe
1813 1813 1 0.0 595.9952669846837 538.6068207005344 809.1077621699782 # Xe
1814 1814 1 0.0 369.2062930934629 929.4333622957577 126.98700248926022 # Xe
1815 1815 1 0.0 475.56652999864167 757.4504723188851 362.4069518880514 # Xe
1816 1816 1 0.0 1.6197965596196524 165.77834253361152 441.7936019452886 # Xe
1817 1817 1 0.0 532.760758778852 790.2906874839346 560.3605719217055 # Xe
1818 1818 1 0.0 771.8014684277487 149.27140246155335 410.38583754876925 # Xe
1819 1819 1 0.0 292.9786325467834 416.67991850734154 90.83758849128215 # Xe
1820 1820 1 0.0 652.743728068837 36.419907448535994 378.3490175589953 # Xe
1821 1821 1 0.0 524.5566447163061 498.9547928568401 128.69157935302943 # Xe
1822 1822 1 0.0 307.27463881068223 51.243267871132815 632.2058122348099 # Xe
1823 1823 1 0.0 933.2314548178379 746.0569735810699 714.815853249075 # Xe
1824 1824 1 0.0 537.2586439097225 919.975716508168 346.1278877492529 # Xe
1825 1825 1 0.0 824.4320302776613 578.9713695603253 544.1002039478163 # Xe
1826 1826 1 0.0 618.2623444459558 420.06794492373984 465.6603973021477 # Xe
1827 1827 1 0.0 716.2514629307203 728.5116500080137 442.033190340071 # Xe
1828 1828 1 0.0 896.4451934083086 888.0493751509728 689.2003599040231 # Xe
1829 1829 1 0.0 243.62636665425373 483.70882982869875 296.87265096199656 # Xe
1830 1830 1 0.0 16.50691667879646 513.126991676277 308.32704014460745 # Xe
1831 1831 1 0.0 272.31948004847874 558.7049603191563 553.7005093540142 # Xe
1832 1832 1 0.0 348.73349709670595 702.2196535553146 800.9489898973386 # Xe
1833 1833 1 0.0 518.8350325677523 577.924694545302 108.18425938657597 # Xe
1834 1834 1 0.0 564.0345921893188 737.1531106002901 835.9667201101577 # Xe
1835 1835 1 0.0 22.19562561969658 655.715084079817 744.4256067730098 # Xe
1836 1836 1 0.0 817.2023694214362 68.96938777919524 315.7014430508385 # Xe
1837 1837 1 0.0 654.1759577008905 575.4823673953995 183.6961761978981 # Xe
1838 1838 1 0.0 537.7251218754079 650.3812948411813 661.2514553352854 # Xe
1839 1839 1 0.0 721.5388210471492 527.6609497763808 435.00622845628715 # Xe
1840 1840 1 0.0 613.3266453200386 595.3736430580225 679.6300631749107 # Xe
1841 1841 1 0.0 96.30303480415274 29.198797866851205 119.3215120642182 # Xe
1842 1842 1 0.0 669.9403225258405 666.0040553757963 618.7432675388675 # Xe
1843 1843 1 0.0 605.5277419519302 726.2658839052522 757.3797257299108 # Xe
1844 1844 1 0.0 279.1709608814378 276.1018985648649 719.264899547722 # Xe
1845 1845 1 0.0 415.7686159458971 328.5121411945418 754.0661360243681 # Xe
1846 1846 1 0.0 689.1073074676178 825.8692262737198 746.3304275378083 # Xe
1847 1847 1 0.0 56.718713779896156 821.7245752184241 136.83281747556836 # Xe
1848 1848 1 0.0 784.9898399242335 276.994544440147 799.6715019956621 # Xe
1849 1849 1 0.0 808.5435314210954 198.3918986772208 19.12956756893706 # Xe
1850 1850 1 0.0 881.1085977509827 492.88335392123196 728.4431182159872 # Xe
1851 1851 1 0.0 686.8244661692926 414.8237390528935 507.6449388048347 # Xe
1852 1852 1 0.0 881.3193025094084 227.47573206643148 322.0366104231764 # Xe
1853 1853 1 0.0 724.6559137757423 116.9437957969133 260.09119632746336 # Xe
1854 1854 1 0.0 570.3897479463749 522.6123886676164 495.4068852245777 # Xe
1855 1855 1 0.0 836.5332600162767 915.239135483947 496.25136109407157 # Xe
1856 1856 1 0.0 825.4052466042143 791.2865182782459 397.596391491379 # Xe
1857 1857 1 0.0 166.10034745444523 732.8327395319844 121.94221985926879 # Xe
1858 1858 1 0.0 833.8523203731389 910.8662854728533 340.5045782291035 # Xe
1859 1859 1 0.0 778.4301645765836 470.9168194305062 641.9675792672734 # Xe
1860 1860 1 0.0 858.703915492842 750.7655444302635 202.8875531450888 # Xe
1861 1861 1 0.0 415.31099006778 590.618973952877 129.78777252814402 # Xe
1862 1862 1 0.0 664.059683241035 653.1582594683578 687.3045791386595 # Xe
1863 1863 1 0.0 595.6538185543906 196.76047447301013 285.4903436940309 # Xe
1864 1864 1 0.0 784.4478857874412 871.9127187160207 460.65741027417255 # Xe
1865 1865 1 0.0 844.9419884671448 780.907264976092 361.95929004944315 # Xe
1866 1866 1 0.0 684.1231236823793 882.4232109462339 607.5773004558652 # Xe
1867 1867 1 0.0 711.54896936084 595.4144088097777 892.3113565252581 # Xe
1868 1868 1 0.0 643.3330586973851 255.18801151492903 182.63536856176665 # Xe
1869 1869 1 0.0 681.7990325043315 857.7392095935396 623.2508044693174 # Xe
1870 1870 1 0.0 173.12552985078838 533.1955992009832 843.111832906293 # Xe
1871 1871 1 0.0 703.4405981989228 654.9034241029698 457.04430517373385 # Xe
1872 1872 1 0.0 892.6041398961568 926.444242468966 398.49325159173077 # Xe
1873 1873 1 0.0 294.10848806439884 704.0769212129256 447.41280923382624 # Xe
1874 1874 1 0.0 79.28875621535288 625.9581456502616 383.46673151143716 # Xe
1875 1875 1 0.0 748.2655888247842 291.6050880493325 825.918485744198 # Xe
1876 1876 1 0.0 686.6790084208554 357.0575795924312 399.13425103812165 # Xe
1877 1877 1 0.0 131.88059118265957 235.62227550550415 806.4220070791512 # Xe
1878 1878 1 0.0 565.293104326179 172.10475561814889 359.30424141420656 # Xe
1879 1879 1 0.0 373.117945608813 368.44993930318 787.2259198205642 # Xe
1880 1880 1 0.0 543.7689048801615 871.4379504151552 45.14073564951851 # Xe
1881 1881 1 0.0 646.1232654853502 505.53904227977745 622.4648558760318 # Xe
1882 1882 1 0.0 638.9610149641461 51.80834074152737 255.62630321507027 # Xe
1883 1883 1 0.0 128.98004679942255 114.50068354020648 338.77020201909994 # Xe
1884 1884 1 0.0 533.9080500005898 906.687810232202 82.42412869278988 # Xe
1885 1885 1 0.0 838.6959410535579 873.5355049245607 515.3344537759376 # Xe
1886 1886 1 0.0 65.5449228942799 784.182888189892 256.5292740047206 # Xe
1887 1887 1 0.0 472.89597256199886 563.6809307494229 98.99842788420578 # Xe
1888 1888 1 0.0 194.7029319757865 110.30390492959172 120.37369252439004 # Xe
1889 1889 1 0.0 77.89393707476255 821.4103513833213 449.7101886300768 # Xe
1890 1890 1 0.0 771.2443323384508 14.064318680860318 801.9666851902589 # Xe
1891 1891 1 0.0 647.7892888812678 641.7175158790657 418.2089791892648 # Xe
1892 1892 1 0.0 152.62003575987475 728.6478563378654 729.8599341440723 # Xe
1893 1893 1 0.0 742.9581745773986 775.8321339119882 180.2116118132022 # Xe
1894 1894 1 0.0 507.8076626061216 748.3700245252843 786.0074433538898 # Xe
1895 1895 1 0.0 15.948614401069984 58.545680034597986 301.2686534540914 # Xe
1896 1896 1 0.0 661.6901110593553 269.01281420414614 904.3227031893136 # Xe
1897 1897 1 0.0 934.6724837648749 876.8379706182177 188.17175763048505 # Xe
1898 1898 1 0.0 424.88259185226184 583.3456177637253 359.87056214088216 # Xe
1899 1899 1 0.0 215.05007716764047 727.7085731572657 803.8440770084266 # Xe
1900 1900 1 0.0 71.10169018369604 394.606267887833 342.02712745484064 # Xe
1901 1901 1 0.0 232.9787416843816 262.15713620830337 746.9870066735787 # Xe
1902 1902 1 0.0 306.9637947318881 296.5608011428066 21.712969497583533 # Xe
1903 1903 1 0.0 916.8606719716504 390.3406190557517 36.367157672581236 # Xe
1904 1904 1 0.0 217.47804165224815 457.2150940290961 753.7668449698047 # Xe
1905 1905 1 0.0 867.9456476043496 742.1280694535831 724.3825569283379 # Xe
1906 1906 1 0.0 438.58817655022705 688.9888087327785 760.122440155926 # Xe
1907 1907 1 0.0 144.97056879939632 196.49008017403685 462.86604412675706 # Xe
1908 1908 1 0.0 166.7614135498674 265.25109461355265 815.7171296995662 # Xe
1909 1909 1 0.0 287.7311265972738 577.6653652577513 176.38775376135902 # Xe
1910 1910 1 0.0 160.85221135441128 233.0745921726119 631.0461338346645 # Xe
1911 1911 1 0.0 70.54504472593626 171.63852171441235 7.626730921044053 # Xe
1912 1912 1 0.0 86.94556552916369 246.46168849815373 68.4075677245761 # Xe
1913 1913 1 0.0 770.1268445046811 49.15975342229398 768.9086093496717 # Xe
1914 1914 1 0.0 618.4718941692784 329.01141016969706 907.2969022504054 # Xe
1915 1915 1 0.0 326.3658235408462 670.3521290347483 591.7800153720151 # Xe
1916 1916 1 0.0 286.7224075345769 854.0420274820273 162.26537353044048 # Xe
1917 1917 1 0.0 296.92424312367547 50.34458655458443 756.2773345498096 # Xe
1918 1918 1 0.0 198.12613234199088 78.44802434767666 552.9007671083821 # Xe
1919 1919 1 0.0 844.7350775913745 543.4356439466534 449.43681612704574 # Xe
1920 1920 1 0.0 728.3694290659661 759.4618897388135 289.58547986646863 # Xe
1921 1921 1 0.0 679.2138644382543 716.6745799009215 302.70428427099955 # Xe
1922 1922 1 0.0 317.66245261416987 289.30910455334293 764.3616552641059 # Xe
1923 1923 1 0.0 349.36728972926136 142.87104986675118 27.520750739803336 # Xe
1924 1924 1 0.0 157.94733624636567 120.74690961562364 457.4138392416968 # Xe
1925 1925 1 0.0 80.7373304387573 667.0194210873519 263.6648740937048 # Xe
1926 1926 1 0.0 327.86107449532597 250.16262461416923 901.8837857856777 # Xe
1927 1927 1 0.0 60.69119290215465 565.5711156023652 695.5765748728282 # Xe
1928 1928 1 0.0 508.4497891436359 274.9799527497547 202.88784251362955 # Xe
1929 1929 1 0.0 877.7641758416353 382.3722194866895 732.882019614871 # Xe
1930 1930 1 0.0 714.9332897411729 187.00710035273656 632.8535855787063 # Xe
1931 1931 1 0.0 205.94603819421073 925.2205249009427 629.9253386080356 # Xe
1932 1932 1 0.0 821.7516084194694 392.30854451177754 302.1757913522372 # Xe
1933 1933 1 0.0 568.7102546066482 404.8102138476831 664.7018272661147 # Xe
1934 1934 1 0.0 282.5247486024426 471.86782065962933 767.4058754624464 # Xe
1935 1935 1 0.0 525.5935988312215 240.7242668073895 252.67971218533944 # Xe
1936 1936 1 0.0 191.54375021584613 184.36319723919758 121.5025379218191 # Xe
1937 1937 1 0.0 60.50147582605851 539.0905115062557 806.9704527484433 # Xe
1938 1938 1 0.0 363.43090969086154 131.61467905327638 666.0299405672596 # Xe
1939 1939 1 0.0 656.6710066735259 933.8152324564256 628.5927213548173 # Xe
1940 1940 1 0.0 724.199086198977 334.33614078690346 197.10943770580747 # Xe
1941 1941 1 0.0 52.336123896496964 246.61370638085455 610.492961160432 # Xe
1942 1942 1 0.0 435.3585223876161 280.141999910996 658.2264989874327 # Xe
1943 1943 1 0.0 109.89008673601313 864.8399007079277 128.21218928491282 # Xe
1944 1944 1 0.0 841.689031872914 807.001622209119 597.4429359349675 # Xe
1945 1945 1 0.0 520.304264953545 20.879089205009496 380.6460757754629 # Xe
1946 1946 1 0.0 544.7401273912808 425.8870052974966 527.690414479601 # Xe
1947 1947 1 0.0 51.82447803176372 546.1325707660346 836.4353557184775 # Xe
1948 1948 1 0.0 221.65657715644355 579.029116179902 651.5495973877916 # Xe
1949 1949 1 0.0 192.5859106575922 896.4635079724414 411.5837586202446 # Xe
1950 1950 1 0.0 486.74804783224334 12.859785326709481 272.1258537460686 # Xe
1951 1951 1 0.0 51.70483397607855 837.1229278812137 21.16717921018679 # Xe
1952 1952 1 0.0 271.0724540615639 804.8797679453452 14.122897985292502 # Xe
1953 1953 1 0.0 180.82562483549884 611.2870955778443 930.3030189972997 # Xe
1954 1954 1 0.0 674.4502624772954 692.7996608403544 403.3407416369996 # Xe
1955 1955 1 0.0 843.8513377720043 807.4903857459597 32.770579337930805 # Xe
1956 1956 1 0.0 932.1237713858399 634.971450585417 66.6393538882538 # Xe
1957 1957 1 0.0 560.3002395991742 11.70789055525536 545.1227610284816 # Xe
1958 1958 1 0.0 276.94553857975734 325.9944390603029 237.15054214486003 # Xe
1959 1959 1 0.0 269.97082519634085 248.1550530388502 349.8757856259767 # Xe
1960 1960 1 0.0 516.265353455199 100.4491148204271 308.944363282591 # Xe
1961 1961 1 0.0 1.7589866410611592 287.66959841410846 769.262154125439 # Xe
1962 1962 1 0.0 379.06411946594017 225.80766575787422 230.8725005457839 # Xe
1963 1963 1 0.0 813.7440207288305 704.7605605971381 43.14679706573949 # Xe
1964 1964 1 0.0 505.65146559649935 395.7076850282138 145.4005953959224 # Xe
1965 1965 1 0.0 305.9525717897597 270.82478579271 393.0563337216721 # Xe
1966 1966 1 0.0 782.9471429006649 400.6061151326962 735.6848240664233 # Xe
1967 1967 1 0.0 843.1175136281194 192.20901419804648 165.47165461825506 # Xe
1968 1968 1 0.0 920.1791811823952 125.32263581971127 615.0268677912462 # Xe
1969 1969 1 0.0 927.7598418192862 780.567697530139 900.423466756449 # Xe
1970 1970 1 0.0 644.7653992419317 609.1846260339744 36.25655450448462 # Xe
1971 1971 1 0.0 607.4673039883914 496.87623160182807 914.3815525538678 # Xe
1972 1972 1 0.0 872.6755235368018 703.6979005630844 355.05789093606813 # Xe
1973 1973 1 0.0 250.7034928754203 380.8521122284461 197.34073058969062 # Xe
1974 1974 1 0.0 335.14398834940545 834.7131941868781 142.7924204521544 # Xe
1975 1975 1 0.0 344.9206848396074 320.0471780457165 555.5660582541097 # Xe
1976 1976 1 0.0 368.53122858184435 847.4380743514984 419.0396038052679 # Xe
1977 1977 1 0.0 263.9374971291522 900.6560783203345 627.2837620930193 # Xe
1978 1978 1 0.0 609.4526303064102 888.0506066663576 222.6530700080101 # Xe
1979 1979 1 0.0 662.5822714191455 39.532828214558506 930.777656884806 # Xe
1980 1980 1 0.0 405.3405136460671 671.1782505830478 146.56283835424716 # Xe
1981 1981 1 0.0 411.6484939925559 700.7662473962648 865.5992688213915 # Xe
1982 1982 1 0.0 776.8219895381079 806.8270040246593 143.18905061151244 # Xe
1983 1983 1 0.0 866.7150084090983 40.55228495203732 57.794650575175396 # Xe
1984 1984 1 0.0 703.7631369682243 492.68827041730054 805.7063052676386 # Xe
1985 1985 1 0.0 594.826010109831 154.40119040404798 257.22398575119956 # Xe
1986 1986 1 0.0 61.057140279529776 642.5457700840971 901.4746331318142 # Xe
1987 1987 1 0.0 521.8596876159964 137.14787241276312 672.0041964970322 # Xe
1988 1988 1 0.0 665.6278511995858 160.24523653127767 266.49773068225403 # Xe
1989 1989 1 0.0 633.2440945998944 797.9367029857226 754.4966807082936 # Xe
1990 1990 1 0.0 458.9034982183477 791.5857766118118 91.57201451811214 # Xe
1991 1991 1 0.0 431.3834632087771 483.56166925100945 619.9415467562667 # Xe
1992 1992 1 0.0 209.66187787494195 739.0095625951526 728.1386728135255 # Xe
1993 1993 1 0.0 177.7345464709708 102.4170919562867 448.318523008917 # Xe
1994 1994 1 0.0 280.50537816722556 278.27515834149904 93.09297222294022 # Xe
1995 1995 1 0.0 863.6184760538677 492.8584120688527 257.3348285665504 # Xe
1996 1996 1 0.0 396.3863695245095 933.4170321654987 226.9924193641065 # Xe
1997 1997 1 0.0 125.7238258508103 737.3575557328301 661.120409779163 # Xe
1998 1998 1 0.0 93.53855918306748 95.41407225698701 488.38797948739193 # Xe
1999 1999 1 0.0 481.0446860846916 353.1646251447408 473.4674345929414 # Xe
2000 2000 1 0.0 259.68358488090985 858.7507980154605 508.9227835603578 # Xe
