LAMMPS data file -- atom_style full -- generated by chemfiles
150 atoms
0 bonds
0 angles
0 dihedrals
0 impropers
2 atom types
0 bond types
0 angle types
0 dihedral types
0 improper types
0.00000000 733.808041 xlo xhi
0.00000000 733.808041 ylo yhi
0.00000000 733.808041 zlo zhi

# Pair Coeffs
# 1 Ar
# 2 Ar+

Masses

1 39.948 # Ar
2 39.948 # Ar+

Atoms # full

1 1 1 0.0 283.78628413951117 490.2709091560738 211.0772909855576 # Ar
2 2 1 0.0 205.9977855270124 59.30925043573549 461.3432617998326 # Ar
3 3 1 0.0 647.589860880703 206.38456747019387 214.13085437573554 # Ar
4 4 1 0.0 629.8274877999523 134.25749161968272 728.3734061192152 # Ar
5 5 1 0.0 90.98341351604994 0.0871483463925153 201.42111430219717 # Ar
6 6 1 0.0 94.69447397538958 246.52914472009738 185.40314873600812 # Ar
7 7 1 0.0 99.42066655172857 146.17038724019753 704.1021219493098 # Ar
8 8 1 0.0 41.370567348805224 443.6543192927431 337.66828877086255 # Ar
9 9 1 0.0 181.2282039732016 343.67745337990556 52.66830481863571 # Ar
10 10 1 0.0 143.34496122929303 559.5183864652633 140.29973489860672 # Ar
11 11 1 0.0 347.2328417371013 645.4344506228307 403.0749637778047 # Ar
12 12 1 0.0 675.0486316500347 106.54024080699146 429.49133973509083 # Ar
13 13 1 0.0 299.5751314048205 615.2112067499924 634.3822922943061 # Ar
14 14 1 0.0 349.3900813304216 270.8783182308812 538.9418323948317 # Ar
15 15 1 0.0 270.41951683940573 496.5550601513485 37.51278329175364 # Ar
16 16 1 0.0 27.35931067877267 442.16827399414257 481.3900602339081 # Ar
17 17 1 0.0 321.20946723053294 699.811712624472 47.22247936619266 # Ar
18 18 1 0.0 662.9014006800267 638.6618215686497 420.0160526874734 # Ar
19 19 1 0.0 421.05024643034983 692.8830887943263 482.08448221718663 # Ar
20 20 1 0.0 570.9287534463513 8.243298772558822 12.754395857125534 # Ar
21 21 1 0.0 485.17094450708436 221.87569381058782 376.89005712370243 # Ar
22 22 1 0.0 123.53285926451528 263.6057661341926 682.4226168030783 # Ar
23 23 1 0.0 342.8300343647916 73.42588058083724 516.9736111422287 # Ar
24 24 1 0.0 285.3964644615134 136.2985206805253 363.6683038129307 # Ar
25 25 1 0.0 451.53146164408537 472.1647060626953 369.3380841908211 # Ar
26 26 1 0.0 48.11857805071168 237.08999181798015 358.51326075296623 # Ar
27 27 1 0.0 505.5007307698727 467.60313846299425 539.6993657490906 # Ar
28 28 1 0.0 130.62204206897647 181.41975775469544 100.91880728539186 # Ar
29 29 1 0.0 545.5479521217183 663.0427871113528 495.8130323365196 # Ar
30 30 1 0.0 502.76039441945403 68.54109454143388 136.80785189115073 # Ar
31 31 1 0.0 520.1360980049949 148.625531091339 124.69100005480722 # Ar
32 32 1 0.0 228.35858766225326 471.33215503979267 347.74863662104457 # Ar
33 33 1 0.0 497.6837479856017 139.10683720097762 525.4300157411028 # Ar
34 34 1 0.0 606.1849780131381 299.21205413908814 298.3319117796237 # Ar
35 35 1 0.0 247.32583464980735 695.3261261019014 9.958372455289927 # Ar
36 36 1 0.0 507.5477736577733 22.57421158859 142.1609369416702 # Ar
37 37 1 0.0 62.98678716549141 473.87839893811633 653.2613819867762 # Ar
38 38 1 0.0 493.4492981857827 92.23261805639812 435.4771363794805 # Ar
39 39 1 0.0 662.6699618362909 439.22803528193907 426.2046303418214 # Ar
40 40 1 0.0 586.3472740532745 305.5174899141241 318.7643483873156 # Ar
41 41 1 0.0 169.26183860896083 660.2515756522514 45.5828816769573 # Ar
42 42 1 0.0 20.948872623632703 611.3916463670683 320.54238996338967 # Ar
43 43 1 0.0 199.80919054054377 108.58904992713077 6.998711920107035 # Ar
44 44 1 0.0 232.2689951289642 138.55037219088732 545.4696138582193 # Ar
45 45 1 0.0 386.67861483138455 489.3747918432733 685.3150854288219 # Ar
46 46 1 0.0 303.0043454666325 104.6181735654995 483.77242491631733 # Ar
47 47 1 0.0 209.5798869842837 644.8302819292078 625.7040932781612 # Ar
48 48 1 0.0 465.4283537099328 251.98859328020436 320.7397604150102 # Ar
49 49 1 0.0 147.7894383064277 374.3450895983069 6.591616317089779 # Ar
50 50 1 0.0 90.95839641461856 232.31074270865594 578.2985439950874 # Ar
51 51 1 0.0 586.1665439055066 281.5473406789396 327.5358144087363 # Ar
52 52 1 0.0 122.47257373972617 263.1455892223307 273.6030103257281 # Ar
53 53 1 0.0 129.1160450192631 237.1480101431174 343.1827409241556 # Ar
54 54 1 0.0 546.868041044073 392.5448082764883 602.8485173015424 # Ar
55 55 1 0.0 477.1020817608397 223.09125747339488 374.8965695462437 # Ar
56 56 1 0.0 709.7390492670484 345.0881084267257 165.56267569066927 # Ar
57 57 1 0.0 436.61939041113885 646.2352435424366 141.70121808441212 # Ar
58 58 1 0.0 28.953959783610184 460.3984920011339 502.1102408434051 # Ar
59 59 1 0.0 641.7838482455716 442.3417755712269 244.8479181345549 # Ar
60 60 1 0.0 519.4552431477592 573.6692105974007 213.42146316339716 # Ar
61 61 1 0.0 373.377247041178 658.7256106757169 305.08765106900614 # Ar
62 62 1 0.0 615.1297878731381 484.3532389352918 211.9489981775653 # Ar
63 63 1 0.0 470.03968559419445 273.7604227063927 125.864298106815 # Ar
64 64 1 0.0 560.0456452405402 551.1742608904148 171.23993377115985 # Ar
65 65 1 0.0 708.9345122233685 117.0170200679395 599.5319355334863 # Ar
66 66 1 0.0 491.16905855687685 358.35122198171155 554.266245050143 # Ar
67 67 1 0.0 463.42683619829927 694.3843920485272 312.5875293611307 # Ar
68 68 1 0.0 198.93572295435388 316.8333397915036 99.72634798168839 # Ar
69 69 1 0.0 656.7911051296044 493.4277297543152 514.8520836342407 # Ar
70 70 1 0.0 170.5927631338895 82.46601394853484 159.6381716558803 # Ar
71 71 1 0.0 624.5834109657202 333.1624591112656 672.3715168922628 # Ar
72 72 1 0.0 189.96604283426976 391.5259089160262 205.25426403638613 # Ar
73 73 1 0.0 6.94470324921423 114.32905213404759 537.4658601532998 # Ar
74 74 1 0.0 374.3257543141995 104.29382891484912 129.90991316186492 # Ar
75 75 1 0.0 644.95680782365 113.01175170619416 475.66055526002367 # Ar
76 76 1 0.0 334.41126784218216 219.80668455179608 584.5111569457962 # Ar
77 77 1 0.0 514.7640470106367 635.6138540684208 304.5340781465148 # Ar
78 78 1 0.0 701.4325829313718 352.06895636243735 189.3418996788181 # Ar
79 79 1 0.0 396.9038803685547 143.98000792343188 433.9157465335257 # Ar
80 80 1 0.0 110.61130660292899 219.58801577176436 7.804059486968458 # Ar
81 81 1 0.0 208.98340223004124 456.6346840896457 164.497862393233 # Ar
82 82 1 0.0 378.55277944900655 83.9467843202515 265.9481187282969 # Ar
83 83 1 0.0 42.18043372657506 148.87604443732283 508.6660238532744 # Ar
84 84 1 0.0 311.04403104831914 330.1499970400563 108.46400235452364 # Ar
85 85 1 0.0 13.114037445068218 685.4448090179806 673.9730489451308 # Ar
86 86 1 0.0 190.7905035775184 674.4274667224057 446.6127592252687 # Ar
87 87 1 0.0 213.92714839887978 380.75287930096056 343.4760806018484 # Ar
88 88 1 0.0 58.0290579591891 623.7401005835013 294.1262696541605 # Ar
89 89 1 0.0 104.68857365718522 596.2115545800328 282.6047812076219 # Ar
90 90 1 0.0 253.37101863888432 645.2956981107934 392.0814151030481 # Ar
91 91 1 0.0 239.27130931887103 59.98891681535521 542.0510330471872 # Ar
92 92 1 0.0 45.98878599045903 649.2840645879239 611.3716176735325 # Ar
93 93 1 0.0 622.1271632398099 327.17452830333525 725.6092578580833 # Ar
94 94 1 0.0 733.1795364184139 277.39002210694815 632.2899275611387 # Ar
95 95 1 0.0 497.79242645966383 720.1856081001735 303.919388911588 # Ar
96 96 1 0.0 610.3261000773616 259.1000272683516 162.69340413264808 # Ar
97 97 1 0.0 721.3962901933068 43.7053132945186 15.409234026528313 # Ar
98 98 1 0.0 61.7458090995204 617.3457589230761 707.7145876142075 # Ar
99 99 1 0.0 384.2091945107231 23.48459990077489 704.1438590448739 # Ar
100 100 1 0.0 594.9121406288768 327.67141994356086 730.5808617846777 # Ar
101 101 1 0.0 439.61718210033666 699.5325267827868 400.1156335247225 # Ar
102 102 1 0.0 277.01679077439445 255.9463291691111 352.1483544153803 # Ar
103 103 1 0.0 222.03299092522062 145.3595496058386 474.9150869772566 # Ar
104 104 1 0.0 723.1699219581349 293.49201805391 240.85545914397363 # Ar
105 105 1 0.0 433.67053091583034 679.4368110059796 563.7042744344208 # Ar
106 106 1 0.0 498.710387175153 138.26172883120066 284.9596431829677 # Ar
107 107 1 0.0 233.34877988073404 376.62860830030786 288.2940951071443 # Ar
108 108 1 0.0 328.12488039394657 209.71070513125105 253.63441945106123 # Ar
109 109 1 0.0 20.59630888150843 517.1752164507652 202.71085014484373 # Ar
110 110 1 0.0 685.7870579312674 720.8715202868965 352.95025023251304 # Ar
111 111 1 0.0 74.68532188572757 89.8540924609714 204.93451668919568 # Ar
112 112 1 0.0 712.9011504135376 253.9657104289867 498.17676132298334 # Ar
113 113 2 0.0 604.5866477925175 454.92269663438765 401.5800878377847 # Ar+
114 114 2 0.0 54.46130251075442 280.8244144644671 24.08315648166671 # Ar+
115 115 2 0.0 83.30922282770413 623.815066669297 537.3498118471225 # Ar+
116 116 2 0.0 561.1492693167536 387.31704095347334 601.2097877764619 # Ar+
117 117 2 0.0 574.8589007204721 127.83110508758939 656.7629094388933 # Ar+
118 118 2 0.0 157.46501909718825 80.37919069182335 607.5818720787024 # Ar+
119 119 2 0.0 195.23441107665812 189.76159228799574 593.6847554198953 # Ar+
120 120 2 0.0 295.10720646221597 609.462023831882 49.226647657307446 # Ar+
121 121 2 0.0 646.7462447699194 71.5082948327353 5.698214520746196 # Ar+
122 122 2 0.0 228.39374292026974 199.72824416609075 477.12481741855294 # Ar+
123 123 2 0.0 247.3214898923699 720.9211226485922 261.3646807211891 # Ar+
124 124 2 0.0 113.06760945417619 240.69937442113525 342.1214939003035 # Ar+
125 125 2 0.0 274.67929427713625 199.10870144585232 723.792221208227 # Ar+
126 126 2 0.0 106.18341234083019 693.6280627909651 381.2290431273887 # Ar+
127 127 2 0.0 719.8591279929971 106.88771608413698 246.54749035648024 # Ar+
128 128 2 0.0 305.25551528865793 10.349923040488548 208.63986721008254 # Ar+
129 129 2 0.0 303.08789317917245 587.3991911508035 242.64005067791834 # Ar+
130 130 2 0.0 259.22264216774016 645.1435751718269 60.9528127828292 # Ar+
131 131 2 0.0 455.6714060331369 187.99755421752766 480.3578525250953 # Ar+
132 132 2 0.0 93.88230489150958 187.53942061259767 510.95305049007584 # Ar+
133 133 2 0.0 7.014363124051491 238.9319427964679 369.4586459807978 # Ar+
134 134 2 0.0 240.19082412649587 457.74840415523636 295.2804537204895 # Ar+
135 135 2 0.0 618.993930164653 642.1279978796244 422.24203386367077 # Ar+
136 136 2 0.0 229.07904347794138 669.1865512846981 616.9766510111104 # Ar+
137 137 2 0.0 244.28770904587347 598.8397925850647 704.0465704543176 # Ar+
138 138 2 0.0 357.3907110454877 200.86354880201165 543.2034573697312 # Ar+
139 139 2 0.0 596.9225898868656 28.783226520077086 603.9452123418744 # Ar+
140 140 2 0.0 544.0300048294671 507.58984597828885 418.31552322730033 # Ar+
141 141 2 0.0 49.65681190901312 393.25751854835323 541.0519200517098 # Ar+
142 142 2 0.0 236.11426996220567 463.65308869274594 237.2290914094379 # Ar+
143 143 2 0.0 317.3325502516819 218.92013874069022 70.5107989557298 # Ar+
144 144 2 0.0 666.467151287652 212.40419821809843 683.9617497288099 # Ar+
145 145 2 0.0 81.6451633006431 255.073750542234 507.12499866542595 # Ar+
146 146 2 0.0 640.0292920854032 462.05520128194485 238.933975950632 # Ar+
147 147 2 0.0 188.66777464817477 155.9080021853418 113.37599634221463 # Ar+
148 148 2 0.0 65.1609437074135 629.8189899186409 281.64351206919275 # Ar+
149 149 2 0.0 335.8686646869981 54.13643126821147 379.1729662701745 # Ar+
150 150 2 0.0 476.2278027676235 222.41664789060644 251.88738955124916 # Ar+
