LAMMPS data file -- atom_style full -- generated by chemfiles
150 atoms
0 bonds
0 angles
0 dihedrals
0 impropers
2 atom types
0 bond types
0 angle types
0 dihedral types
0 improper types
0.00000000 192.649377 xlo xhi
0.00000000 192.649377 ylo yhi
0.00000000 192.649377 zlo zhi

# Pair Coeffs
# 1 Ar
# 2 Ar+

Masses

1 39.948 # Ar
2 39.948 # Ar+

Atoms # full

1 1 1 0.0 81.79283331412624 124.46339086178396 156.16313366540535 # Ar
2 2 1 0.0 164.21575796141633 116.28582742165541 40.92140159442887 # Ar
3 3 1 0.0 142.3012311190609 97.68144185837946 116.44611694304433 # Ar
4 4 1 0.0 114.31039590678424 84.62823778662468 33.52010222268708 # Ar
5 5 1 0.0 120.13208208004896 49.20124631823678 17.30738567058012 # Ar
6 6 1 0.0 47.38629608168749 1.0079893440327916 150.60585666386729 # Ar
7 7 1 0.0 42.976216435479856 141.55882454724656 47.15679823588188 # Ar
8 8 1 0.0 177.0146081409327 46.260510394103875 111.04152571592658 # Ar
9 9 1 0.0 143.42402858544312 170.54652634969798 20.03593183611153 # Ar
10 10 1 0.0 123.02385155712517 191.0963340429209 166.72471779393592 # Ar
11 11 1 0.0 181.7068886803978 64.90499336149388 130.10767580711527 # Ar
12 12 1 0.0 76.14264716257617 66.90047108402976 16.97044060611403 # Ar
13 13 1 0.0 138.4460577711863 153.17678207118985 156.95863093826281 # Ar
14 14 1 0.0 130.00828669191387 106.00784855425786 123.13899643757136 # Ar
15 15 1 0.0 135.2658421684054 135.27428171078475 8.198656244631259 # Ar
16 16 1 0.0 25.226988115941374 132.13502436245534 51.893344619323116 # Ar
17 17 1 0.0 29.078568670455333 110.75267340966062 186.9309806831797 # Ar
18 18 1 0.0 96.60004739288357 127.42507674780097 170.00145701791473 # Ar
19 19 1 0.0 154.94794580130522 20.05790553116953 179.14872048820422 # Ar
20 20 1 0.0 58.27518862874518 121.17547639185675 27.510832801724323 # Ar
21 21 1 0.0 99.29533992259263 130.48429656237843 3.5638216287656905 # Ar
22 22 1 0.0 23.415452685129825 83.9143631558429 183.94924333374166 # Ar
23 23 1 0.0 171.01025788750238 13.968350713102112 14.742095963290565 # Ar
24 24 1 0.0 185.2924966855215 105.26710557454159 22.366234762914708 # Ar
25 25 1 0.0 16.762332841026744 94.23056398060567 97.17350168012565 # Ar
26 26 1 0.0 52.63938275493933 161.26424640144123 30.94694349144326 # Ar
27 27 1 0.0 30.786555181276853 82.42150510725673 154.7771252336234 # Ar
28 28 1 0.0 166.91102875071823 81.18057638015492 88.2697139517238 # Ar
29 29 1 0.0 14.605094898504507 54.37244142407091 78.99655492281603 # Ar
30 30 1 0.0 65.90149681922408 89.90413836227206 116.44859228748217 # Ar
31 31 1 0.0 186.17838342335799 160.91515272957218 138.27597807290553 # Ar
32 32 1 0.0 156.16494522330072 124.63997227978449 156.60795769455407 # Ar
33 33 1 0.0 157.19227506190794 43.85761609873812 143.96953491764052 # Ar
34 34 1 0.0 117.67681692298014 20.31504786382136 161.93505478757302 # Ar
35 35 1 0.0 94.42438669932649 142.41582951381696 88.43690771320392 # Ar
36 36 1 0.0 109.6305214270104 93.07510215546387 87.30354999185337 # Ar
37 37 1 0.0 155.80891884345667 91.2285561570637 183.86672915017022 # Ar
38 38 1 0.0 15.773099009903497 172.57962143188638 110.87792498950874 # Ar
39 39 1 0.0 188.31412965361875 135.6684237907974 43.05391976944926 # Ar
40 40 1 0.0 116.47097802533352 130.3794973821703 110.95172724067564 # Ar
41 41 1 0.0 150.14140472937947 33.618238800660855 91.10425946987002 # Ar
42 42 1 0.0 117.68652651846458 73.22146107766251 11.339463898458645 # Ar
43 43 1 0.0 172.11390903878623 153.44792139740807 69.9676293187876 # Ar
44 44 1 0.0 151.1885233911784 95.03730828121171 19.78189446304506 # Ar
45 45 1 0.0 10.894227405181137 190.55682099653313 109.31318333882399 # Ar
46 46 1 0.0 4.6530140137085505 189.54895024656716 27.04160688467453 # Ar
47 47 1 0.0 60.66348613003275 171.49952980695528 25.94411335919687 # Ar
48 48 1 0.0 166.30719270491184 52.56872416806882 161.29223151142284 # Ar
49 49 1 0.0 61.26959948733195 120.77404306452746 148.07288938403065 # Ar
50 50 1 0.0 8.38425410204024 132.7746135080912 49.77123993276206 # Ar
51 51 1 0.0 91.65619051289667 75.1515071121401 60.446383974156106 # Ar
52 52 1 0.0 88.20230152285446 46.768246153534115 76.14266083306546 # Ar
53 53 1 0.0 49.66108609842544 76.72371326360222 72.30432085865928 # Ar
54 54 1 0.0 186.5753796584057 21.29292460826821 146.1880002647047 # Ar
55 55 1 0.0 135.80632148277223 72.72169242091763 118.79103835490248 # Ar
56 56 1 0.0 147.47677749218195 52.40107005942256 4.254654729727539 # Ar
57 57 1 0.0 52.34092496448108 175.23329921738022 34.31167828834051 # Ar
58 58 1 0.0 72.63676237497022 88.06597631595031 60.72569256265612 # Ar
59 59 1 0.0 59.01240287934559 153.13771583204635 173.1168361550291 # Ar
60 60 1 0.0 128.3483475821691 60.25893026734762 78.07244598595395 # Ar
61 61 1 0.0 135.84275439595086 159.81941209997782 178.59669811385996 # Ar
62 62 1 0.0 49.598428162055114 39.64319054702413 73.23533297646782 # Ar
63 63 1 0.0 183.8038448092951 100.48607017429167 73.73995608950086 # Ar
64 64 1 0.0 85.2026967004653 93.45390699266589 87.43418523437407 # Ar
65 65 1 0.0 36.862578100990696 79.80032528131433 41.412052050768125 # Ar
66 66 1 0.0 29.752094841300753 65.97982582762654 74.3658894992468 # Ar
67 67 1 0.0 94.16367142720652 107.88678146494651 23.94337879562262 # Ar
68 68 1 0.0 159.70969558058437 67.46135791732533 110.15306963235717 # Ar
69 69 1 0.0 136.3757897772279 176.61774080066684 131.9109256489217 # Ar
70 70 1 0.0 98.07188989995673 92.21143614857209 101.9734766445145 # Ar
71 71 1 0.0 89.87498344594347 79.48999727123103 113.84432253422844 # Ar
72 72 1 0.0 178.42669884091947 156.9584197496018 145.45868190728302 # Ar
73 73 1 0.0 130.6428589755846 51.56491475330827 119.35769734525331 # Ar
74 74 1 0.0 171.90365655555883 77.07568225886219 162.73214096855895 # Ar
75 75 1 0.0 109.12838002233907 159.99734509046897 138.77278292192065 # Ar
76 76 1 0.0 141.70989696074793 59.44660088326847 150.3128427992063 # Ar
77 77 1 0.0 66.21800208363958 89.93882682962662 7.777758428493333 # Ar
78 78 1 0.0 183.9128790422066 109.27112804533164 18.912867993243033 # Ar
79 79 1 0.0 59.561679902598954 136.3690492605295 37.03434377929143 # Ar
80 80 1 0.0 73.57263364561007 120.76271136789329 15.67728750144812 # Ar
81 81 1 0.0 139.6868533455838 21.962452638948694 148.55982763422344 # Ar
82 82 1 0.0 102.94354147278327 121.71205478239607 126.48785991981772 # Ar
83 83 1 0.0 75.72424512035698 118.39711897954777 186.92896813401765 # Ar
84 84 1 0.0 176.99135508423504 183.26632461495745 27.329832115109586 # Ar
85 85 1 0.0 117.90904032913038 170.280288377974 88.55242803865112 # Ar
86 86 1 0.0 8.983101577584817 102.29910548103214 147.97831717926945 # Ar
87 87 1 0.0 98.31650024382006 182.70811684569208 4.424076631846581 # Ar
88 88 1 0.0 65.03385926619202 53.101955449877366 189.11357364769995 # Ar
89 89 1 0.0 171.33900173454933 64.03284289435572 115.50280914536594 # Ar
90 90 1 0.0 16.615925349810972 64.56183012017564 119.57954744350859 # Ar
91 91 1 0.0 33.45207869148998 64.27154899192105 31.80336735632395 # Ar
92 92 1 0.0 143.15270993243544 61.81227055098759 182.71866980034744 # Ar
93 93 1 0.0 26.564560575990956 158.291010557763 149.6910901765314 # Ar
94 94 1 0.0 125.20277726168206 128.0792158185326 9.330030432403124 # Ar
95 95 1 0.0 90.1887197512104 83.20093979246008 97.69209875252348 # Ar
96 96 1 0.0 89.52241479424438 104.49606919652012 63.80813319447312 # Ar
97 97 1 0.0 79.09503793637947 120.16069100527493 150.51405875162448 # Ar
98 98 1 0.0 126.66337430810937 52.86812613563898 146.3732823955696 # Ar
99 99 1 0.0 19.292113107790307 124.45811683032203 167.95696143651327 # Ar
100 100 1 0.0 186.25559774772356 28.17582414228199 129.56992754643377 # Ar
101 101 1 0.0 189.9243180002448 15.401264820118548 15.387947091303559 # Ar
102 102 1 0.0 1.3556652183368607 47.16997066105874 149.67930250087602 # Ar
103 103 1 0.0 88.20179052555378 163.22053915068287 101.57701779338022 # Ar
104 104 1 0.0 31.748526881144528 74.51089874449129 92.23033224600746 # Ar
105 105 1 0.0 63.6613312617806 94.19712586279421 156.9013897958815 # Ar
106 106 1 0.0 181.5873974365063 124.29280744213669 154.49023010124853 # Ar
107 107 1 0.0 32.98028121325324 54.38640495430258 51.04401619326589 # Ar
108 108 1 0.0 8.844671725442227 60.49807432503496 164.40290766746605 # Ar
109 109 1 0.0 162.03654173619466 45.592715028445255 70.59452506104007 # Ar
110 110 1 0.0 49.61250930127532 100.04306170393235 183.24863733948337 # Ar
111 111 1 0.0 49.83788475257342 116.39173767342282 15.509329942850904 # Ar
112 112 1 0.0 42.04839043334527 49.35782784961194 164.59020868281615 # Ar
113 113 1 0.0 23.009635345278255 174.47579155913593 131.67771481436043 # Ar
114 114 1 0.0 33.78704059542681 159.00632746061027 4.118451099179271 # Ar
115 115 1 0.0 27.792480336433275 37.86554519585603 178.53355394017115 # Ar
116 116 1 0.0 72.14131567703566 37.38718902667176 163.60296664833336 # Ar
117 117 1 0.0 139.58017699707113 132.33491248827303 65.34384193823158 # Ar
118 118 1 0.0 165.55387207746728 58.45218690671968 72.89867500579088 # Ar
119 119 1 0.0 117.98380482731508 192.12956839910953 114.32517835127076 # Ar
120 120 1 0.0 146.00559559544155 63.31290848720657 13.546074682589976 # Ar
121 121 1 0.0 164.29805893655342 132.11482413688952 61.39461897367997 # Ar
122 122 1 0.0 64.3067289484353 30.622792545866645 141.78650462196637 # Ar
123 123 1 0.0 176.01717104214012 63.75806610545708 132.44157582862482 # Ar
124 124 1 0.0 106.6603809664088 126.6957359635227 69.56960277013988 # Ar
125 125 1 0.0 44.38857336238986 56.29679443242674 24.817942457107648 # Ar
126 126 1 0.0 70.2467792270384 128.81962335065563 45.667918298180595 # Ar
127 127 1 0.0 49.11253388219113 60.58211842415869 18.381645139017866 # Ar
128 128 1 0.0 68.08366569954597 178.8589394908349 166.22655034247978 # Ar
129 129 1 0.0 50.515575806616575 178.4363829366372 31.401466804164727 # Ar
130 130 1 0.0 24.348735711422442 149.41287242666186 146.9090950419419 # Ar
131 131 1 0.0 27.146576529677215 7.7219358023914495 30.054917018939456 # Ar
132 132 1 0.0 112.09043747752453 135.03843898834995 170.46185029377696 # Ar
133 133 1 0.0 73.58643896804023 190.60788479444295 25.039640387354076 # Ar
134 134 1 0.0 142.07938452658328 164.39637464518879 176.23319797467076 # Ar
135 135 1 0.0 47.41599640255272 140.1077961804378 171.11114607828847 # Ar
136 136 1 0.0 160.49024613121972 123.19260966005606 160.76945207776237 # Ar
137 137 1 0.0 26.54122211800302 187.7425871866707 89.1079840743492 # Ar
138 138 1 0.0 122.60933777127669 129.7082141544126 140.69552038846695 # Ar
139 139 1 0.0 98.68514225505947 49.80698483817625 66.08160361543119 # Ar
140 140 1 0.0 155.94865878285478 92.43016475448141 138.61448212009876 # Ar
141 141 1 0.0 151.1151112523045 189.90589906097088 124.00791061869967 # Ar
142 142 1 0.0 46.68741628113478 20.450168591971803 121.20833824130908 # Ar
143 143 2 0.0 39.8312025047541 68.00274661644967 139.60959760098697 # Ar+
144 144 2 0.0 41.51201894458539 182.13901963635752 26.5283940006962 # Ar+
145 145 2 0.0 99.81141448603924 124.1045841952361 168.77777437057023 # Ar+
146 146 2 0.0 118.1798812380109 92.05226700495687 58.47276193476081 # Ar+
147 147 2 0.0 178.41572429397775 19.19046795402211 22.95149606789927 # Ar+
148 148 2 0.0 39.25274229313281 47.5068554210179 13.275884695067026 # Ar+
149 149 2 0.0 97.69216189579619 145.56456463504944 47.477513594563206 # Ar+
150 150 2 0.0 188.9146653177191 86.05979779044992 3.4627507494374905 # Ar+
