LAMMPS data file -- atom_style full -- generated by chemfiles
2000 atoms
0 bonds
0 angles
0 dihedrals
0 impropers
1 atom types
0 bond types
0 angle types
0 dihedral types
0 improper types
0.00000000 1178.10131 xlo xhi
0.00000000 1178.10131 ylo yhi
0.00000000 1178.10131 zlo zhi

# Pair Coeffs
# 1 Ar

Masses

1 39.948 # Ar

Atoms # full

1 1 1 0.0 106.46253093310148 546.8749699179178 781.8922682534595 # Ar
2 2 1 0.0 460.52331105448644 1170.1417921663156 718.590459311928 # Ar
3 3 1 0.0 1048.978502055529 50.35366705749492 371.78649745561245 # Ar
4 4 1 0.0 900.8536865104516 982.1686547763451 64.44284225376904 # Ar
5 5 1 0.0 757.4561777409035 476.68758451994785 141.105095351337 # Ar
6 6 1 0.0 407.3789049085155 870.388476600025 450.883374029471 # Ar
7 7 1 0.0 1035.1923819678334 1062.7695872175782 270.6608883500049 # Ar
8 8 1 0.0 277.35246153749097 819.1298318909804 469.9925169563868 # Ar
9 9 1 0.0 1081.3448753315458 917.2246578080153 209.15145888904766 # Ar
10 10 1 0.0 425.68798220869246 676.5048649506153 627.8441855775678 # Ar
11 11 1 0.0 407.8607874640184 18.99885863946196 10.446401601007908 # Ar
12 12 1 0.0 1171.627894676369 699.6787089665876 731.4107782556509 # Ar
13 13 1 0.0 604.7475608186527 492.38528553703264 269.57125027344586 # Ar
14 14 1 0.0 1126.6054958236673 140.65543320588753 54.23654295838427 # Ar
15 15 1 0.0 280.8194311564723 312.3232832767107 456.0914087838794 # Ar
16 16 1 0.0 403.38707583438855 130.85056186073115 1116.0428138276775 # Ar
17 17 1 0.0 34.375028060473575 690.6420127230456 31.655730688622388 # Ar
18 18 1 0.0 109.99375192607775 161.96530554672313 31.752513873010805 # Ar
19 19 1 0.0 255.69193375317855 837.5174699518219 464.16318889998917 # Ar
20 20 1 0.0 356.1618375146609 366.713248650922 1028.8156735847897 # Ar
21 21 1 0.0 447.284633719434 1129.952695396779 784.3762900255099 # Ar
22 22 1 0.0 1100.1902950988172 417.6432940779508 709.124599016164 # Ar
23 23 1 0.0 493.18248644007645 1092.0323261227927 1152.4983714732655 # Ar
24 24 1 0.0 952.7340736349278 707.7346643797264 723.2048925546251 # Ar
25 25 1 0.0 615.5955674684998 767.5896804659174 295.38488870174456 # Ar
26 26 1 0.0 1019.7066972290412 439.62176831827605 1142.493774598075 # Ar
27 27 1 0.0 934.9613720343749 552.1748715972171 772.4268811654906 # Ar
28 28 1 0.0 444.807029993364 655.2830038146645 306.3365088082614 # Ar
29 29 1 0.0 554.7217645435029 295.3222051703987 592.1337487227045 # Ar
30 30 1 0.0 893.293362020537 974.0458595585662 591.6849534669909 # Ar
31 31 1 0.0 852.8089245180355 872.2517081789558 779.0979661882726 # Ar
32 32 1 0.0 997.9178754413014 483.8024149921695 952.0164579763035 # Ar
33 33 1 0.0 435.74011872150606 80.53294387237186 849.555748782579 # Ar
34 34 1 0.0 563.200153575836 1134.4510561310024 998.8259177053791 # Ar
35 35 1 0.0 403.04228232339676 228.67699746142068 1115.0514159844688 # Ar
36 36 1 0.0 572.3959632497161 302.01748218994544 7.766116122950374 # Ar
37 37 1 0.0 739.8561518064497 413.7893718539699 570.5989663708293 # Ar
38 38 1 0.0 195.0306936909321 335.0403169647748 916.4881016537465 # Ar
39 39 1 0.0 865.8561437344503 533.8759728139175 1100.5746488886741 # Ar
40 40 1 0.0 769.2913632830699 257.66907382663646 1121.2425263988637 # Ar
41 41 1 0.0 553.9970743865676 893.6086732209741 258.60021403165246 # Ar
42 42 1 0.0 201.34546859515166 385.38936026788105 87.61561271655914 # Ar
43 43 1 0.0 1110.3859081214946 1128.0566951132228 650.7755132467696 # Ar
44 44 1 0.0 514.7272718808658 323.6996924009051 1129.273283488885 # Ar
45 45 1 0.0 1148.7884598619523 762.5411467333699 562.6717254633697 # Ar
46 46 1 0.0 606.3278360570952 282.36600483770343 142.01454547005474 # Ar
47 47 1 0.0 320.208218000171 693.5716453312225 1019.5992782914875 # Ar
48 48 1 0.0 690.5447162163114 759.5292238783586 464.18252742324734 # Ar
49 49 1 0.0 54.51561899169907 28.448695102311746 926.9525688333389 # Ar
50 50 1 0.0 51.193193014817965 947.455225867785 705.4916295371769 # Ar
51 51 1 0.0 917.6101139472887 984.7034006695928 320.3660806423608 # Ar
52 52 1 0.0 686.3624653481237 598.6754260333847 455.44548549048545 # Ar
53 53 1 0.0 966.5975265076362 825.8064754328168 212.8367931611104 # Ar
54 54 1 0.0 103.65755529875689 1045.7487055192444 778.931971981097 # Ar
55 55 1 0.0 1078.1910002025477 80.7546972414689 801.4963318184409 # Ar
56 56 1 0.0 323.31241534448077 1055.17648035122 478.5256074822729 # Ar
57 57 1 0.0 343.30264679638356 6.1931866229009795 722.6660605555331 # Ar
58 58 1 0.0 656.5250438227207 769.3977795685512 366.47967757924346 # Ar
59 59 1 0.0 167.45335326924882 580.3553719069804 238.56016452366237 # Ar
60 60 1 0.0 608.5165564520998 293.1670288216236 561.76599928014 # Ar
61 61 1 0.0 783.4572192832297 1105.1627168205657 734.966811251068 # Ar
62 62 1 0.0 773.8790485696844 1088.1704894995157 354.7398196902607 # Ar
63 63 1 0.0 1050.7977163932605 228.42493753473266 829.0758479636783 # Ar
64 64 1 0.0 152.954245493672 380.7858586795519 1040.7517754410276 # Ar
65 65 1 0.0 843.5672879542052 1067.0517017034895 442.35741184883346 # Ar
66 66 1 0.0 773.3258908386001 1017.3669391560683 362.26210687187285 # Ar
67 67 1 0.0 921.8575276774853 661.56399391021 1056.17470631116 # Ar
68 68 1 0.0 438.2912213559357 562.2761196860998 684.6170701458858 # Ar
69 69 1 0.0 571.3647866963577 201.63199519531838 503.1568071088953 # Ar
70 70 1 0.0 140.32458080784662 715.119238027857 792.3917047379459 # Ar
71 71 1 0.0 704.5916946944507 748.0941014286316 823.3715766826735 # Ar
72 72 1 0.0 683.9434244843053 729.0566475218155 1108.8136043178765 # Ar
73 73 1 0.0 38.13174066444482 627.8798935354245 641.0854273639185 # Ar
74 74 1 0.0 304.19976802435394 1021.4874031504831 794.3367037894319 # Ar
75 75 1 0.0 129.9614406349824 1043.371111895449 318.76026961840023 # Ar
76 76 1 0.0 579.2782859497569 912.0257030910659 226.19402734617452 # Ar
77 77 1 0.0 477.05542785251015 198.4194668719333 370.92967447091024 # Ar
78 78 1 0.0 659.9162637025801 708.6960764468782 182.07508071564072 # Ar
79 79 1 0.0 1034.6627547411313 369.836501269364 1.1164975953213334 # Ar
80 80 1 0.0 428.52401459437897 595.6073082961963 1050.083791137429 # Ar
81 81 1 0.0 295.59653550804734 857.4826746993753 96.25997715154234 # Ar
82 82 1 0.0 324.5647368758303 568.686966932722 228.29796999975852 # Ar
83 83 1 0.0 105.13163819149955 8.727049025353374 808.1223077492086 # Ar
84 84 1 0.0 803.1002455641762 476.3179973431025 595.7335353648839 # Ar
85 85 1 0.0 970.7501942451697 289.27897121302533 235.01122687052887 # Ar
86 86 1 0.0 851.4932974487363 162.93378401780427 352.1576438735549 # Ar
87 87 1 0.0 14.779169150840303 289.92620961975354 925.8052185886378 # Ar
88 88 1 0.0 1005.0889068253946 567.2323494674241 364.3832220430844 # Ar
89 89 1 0.0 140.0275100414312 1153.3667728604282 246.25915283380667 # Ar
90 90 1 0.0 396.13487301101395 833.1640526895276 658.9255337159308 # Ar
91 91 1 0.0 820.2941859463363 101.44420398435962 1173.336625044191 # Ar
92 92 1 0.0 175.7395170883343 334.7160081099577 219.51864843947587 # Ar
93 93 1 0.0 911.5786989943921 675.6695547589022 392.1530049742955 # Ar
94 94 1 0.0 529.9384535820258 692.4840765399539 958.1916396571362 # Ar
95 95 1 0.0 448.3556899186932 161.5923332825677 862.3891059402686 # Ar
96 96 1 0.0 631.1574430622662 707.5529851677645 1097.4421743463142 # Ar
97 97 1 0.0 448.89885267519975 302.19625298863457 764.463672041937 # Ar
98 98 1 0.0 123.25660975098472 42.36444171997372 205.07940018429278 # Ar
99 99 1 0.0 649.2677481199257 316.87833244275834 319.55879621384247 # Ar
100 100 1 0.0 1138.356161935124 476.75520806587576 407.86612794281274 # Ar
101 101 1 0.0 849.058932873273 94.52737759526084 1022.6498323530178 # Ar
102 102 1 0.0 742.3169836698983 359.02093290354026 1029.3617061411894 # Ar
103 103 1 0.0 1073.5660194766103 601.2232985222754 10.547767843971938 # Ar
104 104 1 0.0 549.4644972972632 10.087621045821372 598.6823412619744 # Ar
105 105 1 0.0 931.5263340746435 642.7832372054627 41.52635192556169 # Ar
106 106 1 0.0 522.4612411890239 1111.4410979150312 1085.4128597232523 # Ar
107 107 1 0.0 944.2406691422949 297.61879351476273 194.03847979049846 # Ar
108 108 1 0.0 881.3104072630193 153.0845552345643 1038.596961544722 # Ar
109 109 1 0.0 727.4445253791378 661.2871940955309 1023.0640895726573 # Ar
110 110 1 0.0 992.6649522784161 56.47768009332278 15.288078083650282 # Ar
111 111 1 0.0 959.1692663979683 477.61465507725643 448.04271625438184 # Ar
112 112 1 0.0 209.518954304623 1177.118573927342 656.0233116880918 # Ar
113 113 1 0.0 36.88159998869086 559.5485462800857 860.2013724273204 # Ar
114 114 1 0.0 618.8686956189882 635.5871025199598 490.87501426717137 # Ar
115 115 1 0.0 825.0605549842013 931.3292016537563 1012.8126868333095 # Ar
116 116 1 0.0 1054.8517024955763 1110.723864294363 226.98196414941688 # Ar
117 117 1 0.0 26.174914730924772 156.96359451889566 765.327620057041 # Ar
118 118 1 0.0 862.3304215275155 101.73320979498223 908.9017486425594 # Ar
119 119 1 0.0 1062.3730448380586 62.27639074133728 150.43031569679195 # Ar
120 120 1 0.0 6.894009740853855 597.0602726103692 331.6369405939709 # Ar
121 121 1 0.0 213.9165795926794 60.553688419186656 164.56795055023787 # Ar
122 122 1 0.0 647.1194506650071 928.7493355732715 558.6579278486087 # Ar
123 123 1 0.0 214.20629698623952 509.69037374653107 107.08057953380472 # Ar
124 124 1 0.0 774.144197682313 408.0107529260371 40.82213348861359 # Ar
125 125 1 0.0 305.1380538634681 773.117361564231 118.22329505904204 # Ar
126 126 1 0.0 387.2369199177603 32.4337116614049 730.5217743599912 # Ar
127 127 1 0.0 978.594777713555 81.29831991109994 1157.7321866801287 # Ar
128 128 1 0.0 1173.1005585708776 361.3385809258673 790.4082881216842 # Ar
129 129 1 0.0 1165.3275864312768 533.6450740084701 494.7936782231766 # Ar
130 130 1 0.0 519.7147924557871 398.81944063941836 501.81878635637474 # Ar
131 131 1 0.0 493.2681049900617 998.1753782499918 524.9718007361827 # Ar
132 132 1 0.0 1124.995129566237 910.189114351986 764.0714418486434 # Ar
133 133 1 0.0 142.91653211429886 912.3746738497217 1106.0153341292826 # Ar
134 134 1 0.0 517.4561449414228 972.408468554735 780.5922927884941 # Ar
135 135 1 0.0 22.38267328339162 522.4442521781657 539.4459483621263 # Ar
136 136 1 0.0 736.623511349531 85.16581348398002 130.09250788928665 # Ar
137 137 1 0.0 442.6784322960621 1008.6609434018415 849.3139950820579 # Ar
138 138 1 0.0 448.9337450067066 252.24658924530834 707.1098706809114 # Ar
139 139 1 0.0 194.86562866281946 733.7406504381933 52.412302144636094 # Ar
140 140 1 0.0 79.3240764292855 242.02890142823634 388.63202830767165 # Ar
141 141 1 0.0 770.0766043020476 743.0879270576 4.353469141926648 # Ar
142 142 1 0.0 895.2426384516172 376.8243297796233 598.3329141068107 # Ar
143 143 1 0.0 1158.5507769687765 1048.117700831196 812.4879045570665 # Ar
144 144 1 0.0 953.5463514294009 297.2442994605881 896.955014618079 # Ar
145 145 1 0.0 1152.055948911106 957.4896832022229 1049.0888601093234 # Ar
146 146 1 0.0 1106.5830584161095 244.66673702846117 1071.290385050924 # Ar
147 147 1 0.0 512.0466070665149 466.86335426095843 967.5272582440555 # Ar
148 148 1 0.0 1043.476033205882 787.250880975853 220.5200337639077 # Ar
149 149 1 0.0 449.1043601958455 354.4890585682648 328.7768791304105 # Ar
150 150 1 0.0 483.1008964391249 198.9061213473128 511.69884776209364 # Ar
151 151 1 0.0 65.04496193601545 776.4810085339423 928.9651362740254 # Ar
152 152 1 0.0 328.7428682387484 352.58730221764256 425.5026319654916 # Ar
153 153 1 0.0 1085.358055837312 116.4892042388812 590.7207290957897 # Ar
154 154 1 0.0 118.32878367286311 513.754739481895 317.91992259734684 # Ar
155 155 1 0.0 161.4209271454234 365.2510845379887 355.2767303383658 # Ar
156 156 1 0.0 168.0800932256701 784.5844175612851 880.4162120846734 # Ar
157 157 1 0.0 1095.9586646118662 1126.9011521921138 458.6072421971795 # Ar
158 158 1 0.0 500.128162828918 548.0439854877194 201.19756827855633 # Ar
159 159 1 0.0 220.38998932967073 834.4024105598393 1164.5961914247675 # Ar
160 160 1 0.0 762.0297842368245 957.1273133002909 1163.4634486612663 # Ar
161 161 1 0.0 1122.52764271873 145.4645581983717 480.14640183021163 # Ar
162 162 1 0.0 216.08932964292657 1169.5682158272564 1016.3768102121927 # Ar
163 163 1 0.0 645.12269004996 96.2461075402583 849.9998454974445 # Ar
164 164 1 0.0 858.2526847504095 511.51914885008415 1159.2258858346336 # Ar
165 165 1 0.0 564.0548336250317 452.9094385041589 680.7996309903078 # Ar
166 166 1 0.0 1034.8543390159352 1047.6605341850482 1043.6111013832863 # Ar
167 167 1 0.0 1129.9308227844579 328.9885340872666 822.6627119695261 # Ar
168 168 1 0.0 263.4136503301907 430.6611584290906 565.7283503046992 # Ar
169 169 1 0.0 572.6626331202203 1128.468107268574 966.6820817448911 # Ar
170 170 1 0.0 945.0694597464261 383.54985309714823 1052.3814673150991 # Ar
171 171 1 0.0 674.6398750175325 354.18438189452996 1043.9625026594808 # Ar
172 172 1 0.0 840.1094530520039 107.88464602563178 783.7253914646321 # Ar
173 173 1 0.0 957.2439313548394 860.0322967282062 423.8663779340347 # Ar
174 174 1 0.0 715.4597410773797 1077.2980700438927 888.896007080452 # Ar
175 175 1 0.0 566.2056807651952 150.37668516072372 827.1447770123992 # Ar
176 176 1 0.0 607.1205554033423 310.8314387496454 167.92120210430272 # Ar
177 177 1 0.0 1132.49618854642 511.7944912190331 12.706228811854551 # Ar
178 178 1 0.0 989.3163343743065 595.667276814411 958.2834345290264 # Ar
179 179 1 0.0 305.52305421793665 10.093110054913378 584.7767852867212 # Ar
180 180 1 0.0 1083.4143004069113 741.5578660380331 225.87954857392668 # Ar
181 181 1 0.0 997.7732170656852 739.8003672707033 1133.403051053985 # Ar
182 182 1 0.0 1031.4538686989922 43.4756162854896 886.4231749312615 # Ar
183 183 1 0.0 473.76598683567096 1016.8239306379469 620.1394692178754 # Ar
184 184 1 0.0 351.96934192646466 553.6152966886541 344.15495851126906 # Ar
185 185 1 0.0 602.1126272733618 308.858980190105 854.131880373311 # Ar
186 186 1 0.0 672.5689195175642 855.6039669378725 930.3384555116891 # Ar
187 187 1 0.0 597.2927717419075 734.8076517208491 470.1692445593699 # Ar
188 188 1 0.0 781.5854907791075 193.48720963418114 653.4287353855489 # Ar
189 189 1 0.0 317.49875786870876 1177.74403863721 173.7615488021553 # Ar
190 190 1 0.0 655.0216716442497 336.3939791261521 44.78347508887454 # Ar
191 191 1 0.0 152.81853874659933 1109.3794094968005 945.2208424581154 # Ar
192 192 1 0.0 30.597014088729168 661.6832848729333 436.118477117166 # Ar
193 193 1 0.0 733.315974840346 996.9651226424256 401.4012360549394 # Ar
194 194 1 0.0 1079.3902871949774 326.8375306008492 869.8157261031134 # Ar
195 195 1 0.0 992.4471881091721 1130.8470962313618 343.20012898588453 # Ar
196 196 1 0.0 657.0522599142143 1045.0863788171177 56.19705042368238 # Ar
197 197 1 0.0 130.02006651960818 457.44892804184315 138.90738693654126 # Ar
198 198 1 0.0 1062.1693721811191 295.7106354598199 615.5861964878225 # Ar
199 199 1 0.0 224.008220735014 38.05872043484661 112.89798538487199 # Ar
200 200 1 0.0 732.3014852414198 978.5860632809449 721.1399156282098 # Ar
201 201 1 0.0 399.38450377902626 1113.7964050053463 296.98826968991665 # Ar
202 202 1 0.0 992.1852410552992 854.0802691443645 972.4001512570591 # Ar
203 203 1 0.0 497.6227026616126 92.18113641301234 622.1616373355143 # Ar
204 204 1 0.0 750.4817137179521 496.17050173567026 340.64048911336033 # Ar
205 205 1 0.0 386.4115151672001 344.96550218807863 235.32704594585837 # Ar
206 206 1 0.0 607.5241698283247 822.0649736938764 1.3846855995614706 # Ar
207 207 1 0.0 256.0033172057273 685.6373158228017 46.42033156320925 # Ar
208 208 1 0.0 464.3784056159313 65.80788232741276 438.48925712123355 # Ar
209 209 1 0.0 22.90698535351271 934.7130971015368 725.3332765022841 # Ar
210 210 1 0.0 377.8630296739821 795.3691298932796 109.46788278419844 # Ar
211 211 1 0.0 363.49789418704836 255.26335435521221 848.5221444276768 # Ar
212 212 1 0.0 334.0337397740519 198.6837753528148 1.4115595193812018 # Ar
213 213 1 0.0 897.5322081832892 716.3119924134033 227.96617229033254 # Ar
214 214 1 0.0 499.61861402376576 687.4822001201402 752.347941663147 # Ar
215 215 1 0.0 194.43315135946125 999.1592320712534 1143.383041250525 # Ar
216 216 1 0.0 263.8588247881022 577.9350694184924 915.2326173989857 # Ar
217 217 1 0.0 467.0638626756241 571.5103515573845 597.9390605122798 # Ar
218 218 1 0.0 845.7746952650806 879.4017797705433 946.3774654562505 # Ar
219 219 1 0.0 492.7099077139251 1101.0137361150278 323.82329000759404 # Ar
220 220 1 0.0 1043.233148405385 47.16088899945495 579.7215219387047 # Ar
221 221 1 0.0 422.2964730210554 1006.0267496007136 598.4123637775398 # Ar
222 222 1 0.0 1118.4473846635933 355.74376536052944 552.5471562720635 # Ar
223 223 1 0.0 46.25326833927495 754.9681329939548 554.6617419804004 # Ar
224 224 1 0.0 432.57424354787224 28.982797958801545 1148.9948305358507 # Ar
225 225 1 0.0 976.7496627949217 815.4467314346819 972.779142774917 # Ar
226 226 1 0.0 243.75544753558543 960.8248672460603 718.3191766698295 # Ar
227 227 1 0.0 283.1351023364045 1015.9242696803555 680.7741793935867 # Ar
228 228 1 0.0 489.2972108520955 991.4143087317204 229.86513405765209 # Ar
229 229 1 0.0 474.9317504990225 417.501595745353 764.2215066878515 # Ar
230 230 1 0.0 610.2889333572599 469.8408700135994 1020.3604208287652 # Ar
231 231 1 0.0 319.0731362482802 1092.098190157748 298.0821224821746 # Ar
232 232 1 0.0 961.9423720609647 870.8129093090089 624.5071564853529 # Ar
233 233 1 0.0 1012.7810348518847 932.9190008374416 1144.9779005707826 # Ar
234 234 1 0.0 851.0148453173758 1077.5894415462617 844.7664915156736 # Ar
235 235 1 0.0 323.45432390357837 825.454088993524 615.5879512572026 # Ar
236 236 1 0.0 1008.809613759936 515.200684053084 288.26411291513864 # Ar
237 237 1 0.0 343.33118725143476 355.99912116634096 737.570203662504 # Ar
238 238 1 0.0 127.30518898282787 939.3725159199273 808.7245355508104 # Ar
239 239 1 0.0 889.2552846552566 599.2733187610938 1130.3778967694268 # Ar
240 240 1 0.0 724.0262169661139 186.64493856902047 1046.6010533032622 # Ar
241 241 1 0.0 334.56963502290427 218.59972669398027 1139.8254768505244 # Ar
242 242 1 0.0 629.4737403850929 803.0149878519564 757.6768745390813 # Ar
243 243 1 0.0 709.0429659627148 810.8670074057541 671.0825194373065 # Ar
244 244 1 0.0 138.96583809898092 501.28992718230546 285.0224163382498 # Ar
245 245 1 0.0 993.9680462230071 588.4818833965202 62.30143668191753 # Ar
246 246 1 0.0 48.34099221653659 280.09778654730854 1110.3471631228517 # Ar
247 247 1 0.0 1155.7867177303763 831.8509454736771 759.7393668389988 # Ar
248 248 1 0.0 950.1467273811876 362.2668361640809 1033.0873796543372 # Ar
249 249 1 0.0 470.45482250555926 610.299029538885 877.9598313762162 # Ar
250 250 1 0.0 1034.9957967565554 817.5316838442042 521.8136432669745 # Ar
251 251 1 0.0 828.8883434763364 91.99114385921038 618.1513724948192 # Ar
252 252 1 0.0 298.64097599430585 1038.0153363043037 1104.2698979743504 # Ar
253 253 1 0.0 454.742126616791 83.8238893471752 929.8021045937724 # Ar
254 254 1 0.0 1177.4029246402183 198.10757158699673 344.8938835494198 # Ar
255 255 1 0.0 191.7207920489141 86.91047680879005 1160.9165623510696 # Ar
256 256 1 0.0 404.1995039875424 929.5287185665925 627.9013059900287 # Ar
257 257 1 0.0 730.466600434357 693.9366728473545 241.2640104770186 # Ar
258 258 1 0.0 441.1021119226214 840.876732649933 328.88653341076224 # Ar
259 259 1 0.0 439.9212783636577 22.682661290261667 1074.5064129276288 # Ar
260 260 1 0.0 575.420937927642 473.03811119451206 984.5319189463379 # Ar
261 261 1 0.0 909.0957987389145 1159.9665304240712 447.0237650919864 # Ar
262 262 1 0.0 474.2640319417482 461.5441633629635 1145.9849918798727 # Ar
263 263 1 0.0 421.326699616557 488.58583931675963 802.371845769116 # Ar
264 264 1 0.0 87.10046505414206 810.4787599327385 5.148990492000664 # Ar
265 265 1 0.0 645.5959204227369 240.12844099723893 409.3388411187046 # Ar
266 266 1 0.0 1054.1970733669737 752.6879745199581 1.861121206923387 # Ar
267 267 1 0.0 146.65387745201537 1000.117620103367 753.0282368007735 # Ar
268 268 1 0.0 114.82026451067992 97.3879388972404 886.9226027817945 # Ar
269 269 1 0.0 1027.8872357404248 551.432633552663 693.2854392729224 # Ar
270 270 1 0.0 808.2733181432236 645.1225498338114 123.12409030750844 # Ar
271 271 1 0.0 797.0150016340227 1066.4275796429927 1011.1582761482262 # Ar
272 272 1 0.0 42.20534318524542 442.7115835853518 856.4881936930229 # Ar
273 273 1 0.0 559.7158378531824 860.9750823547315 16.00586517922782 # Ar
274 274 1 0.0 555.4445264093587 161.23684211613522 58.5376237137937 # Ar
275 275 1 0.0 1087.9937072005885 880.0740027763477 737.3482299123336 # Ar
276 276 1 0.0 1.57062170055484 709.8008452220932 380.0111594691914 # Ar
277 277 1 0.0 87.37746330397209 324.87659740685206 527.2241820584485 # Ar
278 278 1 0.0 512.8727927879254 1062.4382713970726 201.926151482306 # Ar
279 279 1 0.0 941.8660152201505 1050.0750517582185 532.4193663829807 # Ar
280 280 1 0.0 494.4406268144186 252.55464973562047 769.0320631010636 # Ar
281 281 1 0.0 690.4391934489042 311.818921966841 191.48610532923945 # Ar
282 282 1 0.0 262.10871094175917 638.2211755838141 131.01539804561557 # Ar
283 283 1 0.0 198.39328476962254 633.6396218940097 907.0947718380114 # Ar
284 284 1 0.0 453.62496537077794 40.79421167011235 35.263232114381445 # Ar
285 285 1 0.0 799.739197426187 568.2137133232056 554.0979694386609 # Ar
286 286 1 0.0 1019.6942567643946 17.700194594663394 194.62119594677247 # Ar
287 287 1 0.0 973.1034590873322 1146.5411590825083 471.7160455537934 # Ar
288 288 1 0.0 1003.2804125616232 16.459837688010733 380.48506793521955 # Ar
289 289 1 0.0 79.41043068925596 678.276404894737 933.4138430742963 # Ar
290 290 1 0.0 1063.0271236648339 326.2171922360008 1009.6557307520358 # Ar
291 291 1 0.0 108.94778649243973 927.9329086230476 851.4429168442298 # Ar
292 292 1 0.0 473.3193959100185 912.4898333392762 518.6375645314362 # Ar
293 293 1 0.0 563.2190931501609 123.691137022188 24.07084073610034 # Ar
294 294 1 0.0 1096.064768942185 634.0933993630031 630.317705424608 # Ar
295 295 1 0.0 754.6027162405807 68.16359831131662 500.53422757234983 # Ar
296 296 1 0.0 928.5547263316186 443.62182677479944 341.3514799367937 # Ar
297 297 1 0.0 1060.496830318512 700.3530226656894 669.2442515286663 # Ar
298 298 1 0.0 1084.1743063480103 638.9021454650845 82.50033564714681 # Ar
299 299 1 0.0 557.1699489381135 263.2243340637083 59.994956520618 # Ar
300 300 1 0.0 1146.447101467281 19.06364170625691 1115.8072183050667 # Ar
301 301 1 0.0 1107.126210928873 1101.5039622309685 1155.634157835324 # Ar
302 302 1 0.0 545.5776086728574 572.1536554462192 689.3429153731753 # Ar
303 303 1 0.0 1109.8064344450502 444.6511097167219 699.0112456065638 # Ar
304 304 1 0.0 753.249692730903 315.99849740118606 346.19036894332123 # Ar
305 305 1 0.0 916.9886535003509 907.8005634891025 157.03064645282927 # Ar
306 306 1 0.0 76.43461580645003 1108.3279042417669 636.9681251237803 # Ar
307 307 1 0.0 735.7471236036616 1137.9430318662298 553.5571390131977 # Ar
308 308 1 0.0 783.7583727754844 788.233731748706 974.9507315133803 # Ar
309 309 1 0.0 517.7446181307964 529.571504111944 394.11243391416724 # Ar
310 310 1 0.0 1157.4876554691743 105.69750269436871 861.7721866295756 # Ar
311 311 1 0.0 290.72156649452404 487.10940030572584 124.41487069047804 # Ar
312 312 1 0.0 252.1974596471073 560.293142176928 141.3565690547154 # Ar
313 313 1 0.0 971.0421107228951 311.8559374303415 402.2023857922925 # Ar
314 314 1 0.0 895.6300001643298 517.0680334769017 282.5418266045639 # Ar
315 315 1 0.0 1050.2064837671667 130.11522646632287 346.40340332530053 # Ar
316 316 1 0.0 67.82370742468765 217.44355612092113 1172.2787399474896 # Ar
317 317 1 0.0 223.66909831313558 48.824093942428696 91.96744998352429 # Ar
318 318 1 0.0 946.7885504637555 591.0452276000111 128.0298362637494 # Ar
319 319 1 0.0 152.02323888635732 1057.4463537444517 128.54792900049972 # Ar
320 320 1 0.0 20.22904333553116 682.2103012982591 797.4109021091069 # Ar
321 321 1 0.0 173.16529286847427 516.8003823427546 936.0396553326882 # Ar
322 322 1 0.0 827.8445888704715 551.5473571021037 26.501379561600274 # Ar
323 323 1 0.0 640.5413645674051 167.27979882661964 613.0320445330843 # Ar
324 324 1 0.0 1158.6074948272653 91.65728885485645 1177.1552648651539 # Ar
325 325 1 0.0 981.0745858483859 143.18591856616902 789.9427315123189 # Ar
326 326 1 0.0 694.9375516622381 648.6633777504969 1096.9756088393835 # Ar
327 327 1 0.0 287.2992909543598 895.7033035764814 677.7847808626719 # Ar
328 328 1 0.0 850.5099703284274 633.82610439047 269.70262549138096 # Ar
329 329 1 0.0 617.2182770711642 99.54348654161176 620.1178584207337 # Ar
330 330 1 0.0 21.254710196895207 258.38809948820125 241.6536607167337 # Ar
331 331 1 0.0 290.6178073212831 108.12917283456662 30.197617176142032 # Ar
332 332 1 0.0 397.623485347572 606.4663544230397 721.0878610077946 # Ar
333 333 1 0.0 324.83808512935104 875.9032160030656 18.027094270359484 # Ar
334 334 1 0.0 271.14896074009755 658.8346393645488 528.2505053336716 # Ar
335 335 1 0.0 252.67496313359376 926.207732824514 858.7797399303939 # Ar
336 336 1 0.0 383.6983559453312 322.714887374231 875.5270447149874 # Ar
337 337 1 0.0 388.869845166403 358.08902144157946 573.1503670790826 # Ar
338 338 1 0.0 408.333797621457 209.92988546297101 81.18375856267508 # Ar
339 339 1 0.0 941.681415447489 450.83992582217996 55.978345951888556 # Ar
340 340 1 0.0 1053.0384372443 933.4258117129372 578.8018754073973 # Ar
341 341 1 0.0 1152.5536756341305 536.0750301102337 187.854335302014 # Ar
342 342 1 0.0 311.4449285019293 706.5391514463945 611.1304134893268 # Ar
343 343 1 0.0 961.7714207607207 344.75642960462255 1066.3398281990908 # Ar
344 344 1 0.0 396.97089795802543 37.10117460550906 852.7996170340402 # Ar
345 345 1 0.0 241.02372931418068 439.0617850320434 389.6396928425024 # Ar
346 346 1 0.0 74.22039711465163 285.460578274342 969.5964282558296 # Ar
347 347 1 0.0 687.2238198430008 822.2993652565364 1062.9553497219647 # Ar
348 348 1 0.0 559.6865966151474 547.3142570959594 350.6517378128974 # Ar
349 349 1 0.0 230.54225156993166 403.7169923023533 129.42513773571704 # Ar
350 350 1 0.0 594.9592577915968 137.90794384814706 517.7846569336461 # Ar
351 351 1 0.0 752.7923927838638 425.54578914905164 759.7986711622098 # Ar
352 352 1 0.0 342.02425841975696 1002.8315994131017 9.819033041427442 # Ar
353 353 1 0.0 794.0475954029222 991.9113554561415 62.394028055937724 # Ar
354 354 1 0.0 68.85242251331367 902.6021967331418 268.0319771295986 # Ar
355 355 1 0.0 95.78911495292876 574.8042558174119 902.8493205193585 # Ar
356 356 1 0.0 453.0883608413623 1118.4251337976443 487.9338239244407 # Ar
357 357 1 0.0 4.784449900919367 134.4458171403686 834.6012275468954 # Ar
358 358 1 0.0 977.4424760092322 1092.5258126022118 489.50377262801305 # Ar
359 359 1 0.0 186.6184928765516 1067.5056140684194 405.2326823273733 # Ar
360 360 1 0.0 672.6969923867639 781.0812649455759 433.72568442524175 # Ar
361 361 1 0.0 337.5894983207032 543.5356031420262 216.5881818542687 # Ar
362 362 1 0.0 427.1228252693306 195.21359093950733 463.87734759043656 # Ar
363 363 1 0.0 308.2713078683616 837.7907401280091 314.1158874754034 # Ar
364 364 1 0.0 44.02760367440434 1104.1597057393776 970.2787100853541 # Ar
365 365 1 0.0 385.3267645499987 964.0086731649923 605.383007686421 # Ar
366 366 1 0.0 803.0847844148265 607.6640927037785 884.5294730428715 # Ar
367 367 1 0.0 639.9683537516966 364.63661596998946 544.9987998406073 # Ar
368 368 1 0.0 1109.2608010790173 676.556450405982 103.64151412766829 # Ar
369 369 1 0.0 1071.8711864876555 26.14082500924563 766.4251041421987 # Ar
370 370 1 0.0 1156.0879409358636 355.94188633530683 778.9789586123102 # Ar
371 371 1 0.0 246.6326128609376 480.88511467698436 1041.8000370151876 # Ar
372 372 1 0.0 623.8781798396134 140.82597850990211 280.50898511907377 # Ar
373 373 1 0.0 1005.9141730556536 760.6308468059867 258.98623687669505 # Ar
374 374 1 0.0 649.59236240854 869.4167641478674 1085.149077346762 # Ar
375 375 1 0.0 543.1795323323826 1000.2887344116322 1140.599867764372 # Ar
376 376 1 0.0 1088.237803914471 390.2314618813252 924.2586854662579 # Ar
377 377 1 0.0 265.79229350548553 527.1583735908271 1105.6964147001477 # Ar
378 378 1 0.0 17.897313258529586 578.1875922292112 289.85975658944704 # Ar
379 379 1 0.0 694.7763218197613 645.105010893361 467.665718970144 # Ar
380 380 1 0.0 540.3408593343846 597.6552962745801 751.5526657653328 # Ar
381 381 1 0.0 58.130002138635646 405.7761497215243 609.0174183488969 # Ar
382 382 1 0.0 1142.7926275410287 381.1545183144573 430.107619297374 # Ar
383 383 1 0.0 1098.1533848143674 684.0922556851557 130.1343906216915 # Ar
384 384 1 0.0 580.5561079095487 6.4745302643925 109.28468296873515 # Ar
385 385 1 0.0 752.6160552816323 391.8100716068477 605.6898967450577 # Ar
386 386 1 0.0 666.0913075621515 49.53500017500507 930.3583708253406 # Ar
387 387 1 0.0 507.78713531258575 418.5988143299762 601.9941223106207 # Ar
388 388 1 0.0 216.8295330142425 179.88059024766022 181.95403538642591 # Ar
389 389 1 0.0 657.654167164314 919.654136588078 671.5764510659852 # Ar
390 390 1 0.0 596.9932831450692 337.10677892222805 168.77861662192203 # Ar
391 391 1 0.0 131.27844643611277 719.1467167050074 209.89792414533568 # Ar
392 392 1 0.0 564.7488760118657 646.5153152357943 232.12368523106832 # Ar
393 393 1 0.0 365.259026115386 533.500585652296 722.9800213715595 # Ar
394 394 1 0.0 925.0525027698139 1125.3537636027977 677.7325706992883 # Ar
395 395 1 0.0 353.61416655944953 216.761080210413 962.9272176902721 # Ar
396 396 1 0.0 315.5161411610089 374.9781609720653 1125.905680048465 # Ar
397 397 1 0.0 807.162477481506 1116.6608314779467 841.0905833398183 # Ar
398 398 1 0.0 1135.4167215643238 285.17558060555785 231.5522849702225 # Ar
399 399 1 0.0 1072.8169558442662 1122.703289890722 907.1393253605423 # Ar
400 400 1 0.0 235.27643065410794 800.27632936777 363.28962296884384 # Ar
401 401 1 0.0 150.1617515494225 144.51190985504013 839.0334739735551 # Ar
402 402 1 0.0 1089.4627418452903 265.1944335335802 479.31859278185465 # Ar
403 403 1 0.0 7.391515695704203 470.189253418129 56.864474328182574 # Ar
404 404 1 0.0 687.2273548065745 643.6557917360243 197.96331142141125 # Ar
405 405 1 0.0 936.498859972001 208.72449894250101 362.7179631282094 # Ar
406 406 1 0.0 991.6983944958582 715.95857711219 651.5021297502487 # Ar
407 407 1 0.0 129.55143324598964 637.6970490873458 887.1298710500683 # Ar
408 408 1 0.0 1173.383362106265 705.2043905333661 990.3409059383711 # Ar
409 409 1 0.0 924.4503803297205 666.783408927024 312.7301623905678 # Ar
410 410 1 0.0 168.233897460553 728.7671893193658 305.94877767751296 # Ar
411 411 1 0.0 376.5302072041158 104.1699495207074 323.6564250947638 # Ar
412 412 1 0.0 333.22632210765727 1113.0491331539874 118.9628818297347 # Ar
413 413 1 0.0 102.77700313771173 513.0928470959312 248.78122856790776 # Ar
414 414 1 0.0 459.60361040856276 333.4075647443384 972.8398526834474 # Ar
415 415 1 0.0 1051.3368564960201 199.84199043427358 1164.7091003313049 # Ar
416 416 1 0.0 407.08225590499944 217.51756492166044 691.660935722469 # Ar
417 417 1 0.0 476.7279273208496 797.1168454965202 855.2615904852603 # Ar
418 418 1 0.0 294.31986731691177 874.1012685843244 590.0277166050696 # Ar
419 419 1 0.0 907.979231936891 171.60298442927484 1092.9366071015825 # Ar
420 420 1 0.0 110.84111824760794 454.1864998113353 871.017965424997 # Ar
421 421 1 0.0 200.26709231386997 791.7288674302656 48.46520250796168 # Ar
422 422 1 0.0 183.99896144360056 471.9550139386445 720.1289059739123 # Ar
423 423 1 0.0 448.2752204449491 97.86887638535364 469.265292900051 # Ar
424 424 1 0.0 266.9580653629386 360.6628487780294 434.61814521387413 # Ar
425 425 1 0.0 712.5091111027233 41.96053519192396 79.69453185974741 # Ar
426 426 1 0.0 138.2105507007519 412.98952289770654 1037.2222183211197 # Ar
427 427 1 0.0 485.19797723869686 311.03447797970466 147.72567828022392 # Ar
428 428 1 0.0 584.1186561480785 730.8320700715461 506.9605489560553 # Ar
429 429 1 0.0 220.30148386685954 861.1843088456247 607.3458549659945 # Ar
430 430 1 0.0 291.58190441921425 911.0270322940647 794.5140570591132 # Ar
431 431 1 0.0 1053.3882368750103 97.95607554394414 898.4546937623174 # Ar
432 432 1 0.0 368.7791651260394 1117.7695991932285 783.2743898852389 # Ar
433 433 1 0.0 289.61783716302097 349.9266914296527 908.1364951116698 # Ar
434 434 1 0.0 685.1131137040587 965.2775991580584 680.1394938126911 # Ar
435 435 1 0.0 904.1220901059232 870.3912277096473 115.7053101718649 # Ar
436 436 1 0.0 553.8414918175849 1059.3830950916758 83.31434440102235 # Ar
437 437 1 0.0 959.3346060602256 128.39073932913058 138.4349754346417 # Ar
438 438 1 0.0 1043.0520254522564 719.35048931809 94.6773821806445 # Ar
439 439 1 0.0 545.2518517696726 321.03401977735683 1076.2175867023054 # Ar
440 440 1 0.0 819.9885229039924 896.0470793422496 1147.8528317293335 # Ar
441 441 1 0.0 437.2059192849067 790.5454471090077 105.50795188886241 # Ar
442 442 1 0.0 353.4062937906408 282.76368471065155 284.53659808773455 # Ar
443 443 1 0.0 66.76508852769696 795.2810233922078 247.55064468861934 # Ar
444 444 1 0.0 714.7008605859511 828.235122478748 436.6843539674854 # Ar
445 445 1 0.0 145.47097900386962 179.96182889389047 500.9343786190264 # Ar
446 446 1 0.0 240.0468596589962 1132.242161204973 486.8751706884167 # Ar
447 447 1 0.0 359.3889219788517 752.735750766674 1070.2322082274486 # Ar
448 448 1 0.0 1043.4844547923594 869.2634201608513 471.1598060888967 # Ar
449 449 1 0.0 1050.7558340541868 570.4535824930364 80.29728273458579 # Ar
450 450 1 0.0 140.7431328526502 913.7212178246923 799.5826942322609 # Ar
451 451 1 0.0 721.9913818119572 325.4172915004309 798.8634938720554 # Ar
452 452 1 0.0 1103.994533241074 243.69053928920025 177.74963744697652 # Ar
453 453 1 0.0 696.0306361179285 620.7391701692226 79.07965970096429 # Ar
454 454 1 0.0 684.6148382316751 1007.4870280114536 935.8895838676623 # Ar
455 455 1 0.0 255.5468542260317 177.44976168328589 1067.2346943206696 # Ar
456 456 1 0.0 590.522637880188 102.88435061304337 1097.884390392361 # Ar
457 457 1 0.0 1144.9618774444764 252.6577976036121 566.2502500834726 # Ar
458 458 1 0.0 684.1256148634012 494.37507402709366 507.2226617682195 # Ar
459 459 1 0.0 770.8599833663558 433.88014414328995 212.34196737146507 # Ar
460 460 1 0.0 992.8103729049162 498.4674070540886 603.7255979358803 # Ar
461 461 1 0.0 615.5447176118145 548.6486182582213 528.8538418322343 # Ar
462 462 1 0.0 742.7919870730307 370.246048512237 444.6192595364744 # Ar
463 463 1 0.0 1091.6760248147539 848.8477767619005 751.8645727501597 # Ar
464 464 1 0.0 1099.348074710012 1106.8324584141365 1125.6371191239289 # Ar
465 465 1 0.0 155.20252750629803 790.5680208887117 141.52984199035922 # Ar
466 466 1 0.0 486.0013659069227 850.7166753191328 313.9230132016522 # Ar
467 467 1 0.0 79.23586947710753 1162.0644115496 238.5925993179359 # Ar
468 468 1 0.0 1087.8363284868115 435.0542579419631 878.8537862964354 # Ar
469 469 1 0.0 199.2873515991423 313.86646308524877 861.6486431668358 # Ar
470 470 1 0.0 1068.932896388258 762.005926506821 444.33946155345234 # Ar
471 471 1 0.0 351.6095067975579 162.24140610080443 964.2513647799013 # Ar
472 472 1 0.0 493.3045401407013 90.50330450468553 1131.975982819211 # Ar
473 473 1 0.0 893.2491111918176 715.9312267753621 375.6435438869036 # Ar
474 474 1 0.0 614.7371426286563 816.0641271672393 400.64457790282074 # Ar
475 475 1 0.0 141.2088447865025 1083.7282436732578 138.59884950026745 # Ar
476 476 1 0.0 726.0987760497179 1005.9676591984307 1029.9908518137418 # Ar
477 477 1 0.0 772.0961402303063 1072.3906841634043 575.9330138464264 # Ar
478 478 1 0.0 827.1548083311784 75.33480077914587 38.295499605285094 # Ar
479 479 1 0.0 887.3284232219931 423.883840509041 755.0406006068986 # Ar
480 480 1 0.0 112.89577651615966 88.83342764265768 765.3367621927123 # Ar
481 481 1 0.0 246.06079067981938 246.28400364722378 1003.2138321031968 # Ar
482 482 1 0.0 774.4842484732146 1090.6238468584793 961.9747977025247 # Ar
483 483 1 0.0 795.6647028055371 1173.1501967647112 1030.1080891605445 # Ar
484 484 1 0.0 1161.8454869949055 98.20241711910049 733.4726437249848 # Ar
485 485 1 0.0 1051.71266552246 109.96343487555194 1061.8426063981485 # Ar
486 486 1 0.0 1064.734360049307 1033.741686177879 531.8394303194797 # Ar
487 487 1 0.0 110.54303468710175 398.1796017916606 528.1259928031795 # Ar
488 488 1 0.0 600.7377702582415 514.4341869829718 586.8891768354557 # Ar
489 489 1 0.0 933.9528324204896 1.138467011580826 719.9329486722668 # Ar
490 490 1 0.0 792.462822593837 655.5564652591927 995.6374985631679 # Ar
491 491 1 0.0 252.46496117192643 57.289852722109586 1126.7900403477215 # Ar
492 492 1 0.0 383.60566402144997 992.5567124168838 54.03607870143777 # Ar
493 493 1 0.0 367.19857462489875 38.24284794350066 1121.380465195459 # Ar
494 494 1 0.0 1136.838000119838 529.9689892064854 913.5698683015645 # Ar
495 495 1 0.0 1098.766021583354 189.89267066183996 632.0083919532387 # Ar
496 496 1 0.0 732.5015109724121 304.70817996565717 1030.4783793203787 # Ar
497 497 1 0.0 190.42134276718693 184.1818548543412 417.6271393540456 # Ar
498 498 1 0.0 118.93787355008163 4.772369684551153 741.7704247977347 # Ar
499 499 1 0.0 1060.8839300737914 661.2783728381168 533.9926287054404 # Ar
500 500 1 0.0 740.6053818034147 132.94347295067337 835.1942345860144 # Ar
501 501 1 0.0 495.7595036634244 406.7940849930619 746.6680823082195 # Ar
502 502 1 0.0 267.93861374639755 77.19149727865036 619.8064004798277 # Ar
503 503 1 0.0 1146.5252556659539 362.9701534843777 678.6184201399024 # Ar
504 504 1 0.0 467.8757019168409 1032.4741511835723 1170.6378530424793 # Ar
505 505 1 0.0 426.36794341803943 14.786641232461673 886.341742642263 # Ar
506 506 1 0.0 399.6691568500595 749.9281813632973 1140.5538894551546 # Ar
507 507 1 0.0 341.91649728539875 792.3316783106167 1108.793330802137 # Ar
508 508 1 0.0 1138.0646105846022 436.09475329615873 961.2360826872443 # Ar
509 509 1 0.0 965.4914028967737 1070.9450181532684 765.1857458033561 # Ar
510 510 1 0.0 205.4221940158803 1110.3552096485362 247.52521467348555 # Ar
511 511 1 0.0 764.6221620203802 849.1218475522803 324.2649247970868 # Ar
512 512 1 0.0 945.7086524554015 1107.9183829329313 445.0238532271494 # Ar
513 513 1 0.0 316.8569181418862 635.2386527730578 95.08057576778599 # Ar
514 514 1 0.0 196.35443093418306 267.7582283996639 333.2136667311911 # Ar
515 515 1 0.0 776.1954913196175 868.1249167352066 563.9757125533439 # Ar
516 516 1 0.0 602.3078143018187 762.1009972254144 91.58086266372533 # Ar
517 517 1 0.0 594.8979887442683 34.57529341302241 415.69894568357887 # Ar
518 518 1 0.0 870.7887890177295 402.4828212540973 927.0154271906086 # Ar
519 519 1 0.0 558.1298162309818 822.1998706180306 285.14679793872426 # Ar
520 520 1 0.0 593.1965447767739 494.8295501380388 638.2835640105159 # Ar
521 521 1 0.0 255.39277545670214 169.1904081442906 1139.6215579611683 # Ar
522 522 1 0.0 715.7894922895134 1030.2064920304415 389.1716534375436 # Ar
523 523 1 0.0 231.585018078471 960.604985536034 591.6546205520536 # Ar
524 524 1 0.0 1105.0686437137213 997.0925439547846 720.0167172853853 # Ar
525 525 1 0.0 53.82118366321391 542.8830534313515 440.52194707284735 # Ar
526 526 1 0.0 711.4978256250682 1133.4891037982327 337.04021593997277 # Ar
527 527 1 0.0 515.224792218569 733.3946839980681 71.57111670756144 # Ar
528 528 1 0.0 375.0041626270493 1033.3441260960906 913.0763441084603 # Ar
529 529 1 0.0 414.7709332492735 273.06236997741706 795.7026068988541 # Ar
530 530 1 0.0 799.3346759184764 845.765646416846 855.6951141169088 # Ar
531 531 1 0.0 1047.4598355417918 50.56016377448462 254.53054313320584 # Ar
532 532 1 0.0 506.43360591093113 743.1435979232863 1064.0626754280427 # Ar
533 533 1 0.0 231.41860529392213 18.415080755935055 499.8383653413961 # Ar
534 534 1 0.0 601.4306513416798 691.1951019241351 66.32806902733371 # Ar
535 535 1 0.0 708.7871558858801 877.5178622210613 696.8043888977626 # Ar
536 536 1 0.0 86.30164513042841 580.9690099461185 834.9224449402483 # Ar
537 537 1 0.0 695.2344871665564 320.65018354115927 899.8617261257799 # Ar
538 538 1 0.0 254.92428965494773 324.56097311046364 421.31002781775453 # Ar
539 539 1 0.0 368.964996357758 669.2789151598877 1140.658576087515 # Ar
540 540 1 0.0 1052.7892401039028 485.12071432751173 1139.4086433441869 # Ar
541 541 1 0.0 420.2728887996243 771.3727939240057 301.1720240764408 # Ar
542 542 1 0.0 698.5029625345973 717.7683307062507 260.4902562706616 # Ar
543 543 1 0.0 484.632617191029 770.8687100644237 508.0980934036203 # Ar
544 544 1 0.0 1057.587990274969 753.9077383202507 1053.2486413572421 # Ar
545 545 1 0.0 822.4054917651341 847.0158137181361 132.3647222138443 # Ar
546 546 1 0.0 573.9468521966081 728.6382765647367 347.0434721059266 # Ar
547 547 1 0.0 42.17830513138467 533.8858492757757 857.3800297818786 # Ar
548 548 1 0.0 971.7316753095166 353.02966016749275 771.0702995250258 # Ar
549 549 1 0.0 608.4685103823015 325.8795613083015 238.44063046743494 # Ar
550 550 1 0.0 477.7882214923452 1043.1922129557634 249.96286206235476 # Ar
551 551 1 0.0 220.15267147172477 655.4166751839168 1050.1344733815984 # Ar
552 552 1 0.0 524.1153449217062 747.7093386066524 661.0937562877533 # Ar
553 553 1 0.0 95.20320681546129 542.8429644052768 222.986541630943 # Ar
554 554 1 0.0 540.3415247127338 605.8525509152058 1061.7391330169335 # Ar
555 555 1 0.0 191.7739791150361 1018.0843281090553 769.8195424897191 # Ar
556 556 1 0.0 1083.4484028987558 175.61479823725958 565.4028911459287 # Ar
557 557 1 0.0 265.1240666829908 885.5256435626984 379.4849605469333 # Ar
558 558 1 0.0 370.5571740451709 777.7315805270065 1066.6177298539787 # Ar
559 559 1 0.0 886.8033383307493 147.7915927464455 27.85969817515338 # Ar
560 560 1 0.0 552.1865893954573 962.1138419723349 570.6946286571363 # Ar
561 561 1 0.0 827.4495211493665 561.0779438446921 871.6039481926701 # Ar
562 562 1 0.0 886.6901118677009 1014.0356994087144 373.63381791611675 # Ar
563 563 1 0.0 841.9622842514575 386.10346529347265 29.143092599683975 # Ar
564 564 1 0.0 459.67314707047524 349.47502865116866 724.7618193951473 # Ar
565 565 1 0.0 724.308687926422 1166.2537822061272 1162.9955826956816 # Ar
566 566 1 0.0 1019.996702973196 223.62891146605324 59.16716403564312 # Ar
567 567 1 0.0 326.042657318765 444.656512646014 187.12320271771836 # Ar
568 568 1 0.0 357.33490544718796 808.5765036027844 423.45859282002897 # Ar
569 569 1 0.0 409.567911358516 627.2412077472487 747.845777008492 # Ar
570 570 1 0.0 1143.2185840620728 474.30054030844457 773.9258614438274 # Ar
571 571 1 0.0 255.52442683234491 8.159240220864598 660.4599375912633 # Ar
572 572 1 0.0 1149.869074699798 913.98710505417 760.974704567037 # Ar
573 573 1 0.0 855.4863223676349 1044.6653434469627 246.7083570450225 # Ar
574 574 1 0.0 944.373885034398 732.6783640079477 827.9771622460106 # Ar
575 575 1 0.0 942.6908205314929 113.60061218448352 342.2860597084216 # Ar
576 576 1 0.0 209.50171285011226 1005.1198612056326 995.9784175762842 # Ar
577 577 1 0.0 49.09129188402378 669.9631739701725 401.2968489085431 # Ar
578 578 1 0.0 729.1426583096577 210.71683949270246 654.3912561639318 # Ar
579 579 1 0.0 938.928357102918 570.3839894246399 290.4202943304988 # Ar
580 580 1 0.0 303.0760047151413 350.3175958100586 737.8026490944503 # Ar
581 581 1 0.0 233.61678533592575 315.9434462990001 373.1091708268371 # Ar
582 582 1 0.0 316.46330385178624 974.5375036137013 811.358843336719 # Ar
583 583 1 0.0 312.35271196296713 407.8371573958117 726.6119184754573 # Ar
584 584 1 0.0 151.6618762013016 899.7972289649348 513.3839848955296 # Ar
585 585 1 0.0 468.00041956036733 211.89874459041815 49.16888872475108 # Ar
586 586 1 0.0 3.801512335072213 183.48018096947138 891.087398336928 # Ar
587 587 1 0.0 1099.9414401160493 218.54726211033412 418.6158613308758 # Ar
588 588 1 0.0 1063.3428704950777 152.547061952624 322.65708172203625 # Ar
589 589 1 0.0 1061.1806674643983 1135.7071066293515 1063.6448393787919 # Ar
590 590 1 0.0 651.38980583797 244.98639362277288 81.75429454705487 # Ar
591 591 1 0.0 486.21260774600074 417.0808133759762 464.0428416493227 # Ar
592 592 1 0.0 1018.4087825806184 732.0973933056147 110.57405961019585 # Ar
593 593 1 0.0 813.4102602771582 653.3014081909508 553.9189511961945 # Ar
594 594 1 0.0 574.7892517878407 605.3370851443401 753.5722126773893 # Ar
595 595 1 0.0 407.65190605937863 870.169282106054 156.38028506192563 # Ar
596 596 1 0.0 129.8457486216669 1153.3692303586067 1153.5180614475914 # Ar
597 597 1 0.0 42.96319863129947 217.31455766322492 1015.3248599987512 # Ar
598 598 1 0.0 1072.812075894219 923.2200288858238 756.3016333097515 # Ar
599 599 1 0.0 367.65198140128894 697.337818163496 771.2730280441979 # Ar
600 600 1 0.0 368.5434136754061 73.28024497692067 952.5465535102182 # Ar
601 601 1 0.0 1060.4613086519669 101.40511126607622 859.2997296895273 # Ar
602 602 1 0.0 110.48787250750924 1129.3921748114394 64.78530896773873 # Ar
603 603 1 0.0 45.027562753831454 99.49734395418183 56.02024568367543 # Ar
604 604 1 0.0 889.5799335094878 183.474043924099 70.63944353149724 # Ar
605 605 1 0.0 926.9103804787237 525.8535176175409 128.37457933276784 # Ar
606 606 1 0.0 697.6029751534402 727.3738985105589 403.32209167083516 # Ar
607 607 1 0.0 1075.787760042534 46.41079043113399 622.6011981096176 # Ar
608 608 1 0.0 578.540451457634 183.84165104307988 825.8362756865608 # Ar
609 609 1 0.0 489.8389682844201 3.812496197384739 284.6299103920369 # Ar
610 610 1 0.0 395.21587542370656 538.4522843941108 811.041433345089 # Ar
611 611 1 0.0 292.19259455133 156.53481779282131 69.48418864467806 # Ar
612 612 1 0.0 605.3146279694245 1157.045582283066 38.575700666742385 # Ar
613 613 1 0.0 1029.7731585930917 352.9866091944056 769.897853800458 # Ar
614 614 1 0.0 46.92693799985374 203.1251572087534 528.2194349775046 # Ar
615 615 1 0.0 332.3717013685409 868.1589744956117 1070.0025594602373 # Ar
616 616 1 0.0 622.8807219502208 863.5113883994491 473.5074176818759 # Ar
617 617 1 0.0 745.8057548952271 263.0911193906055 274.484427294224 # Ar
618 618 1 0.0 810.7781964778018 1126.4873953219103 443.410597419711 # Ar
619 619 1 0.0 216.10931562985124 977.8966066991544 111.04104460898337 # Ar
620 620 1 0.0 205.10855691836292 541.3043602757031 584.1137223433011 # Ar
621 621 1 0.0 549.4657713869935 752.1249634323144 401.85965665695454 # Ar
622 622 1 0.0 522.398665468365 1030.4980943160533 1040.7829396086531 # Ar
623 623 1 0.0 723.9066818302724 149.69373843134613 1171.718849090393 # Ar
624 624 1 0.0 148.33446109747973 1138.0453505952114 888.1980172558382 # Ar
625 625 1 0.0 90.33518172453238 64.7404768494163 462.1514103338397 # Ar
626 626 1 0.0 216.95142742724767 367.16523208281444 357.0720539695312 # Ar
627 627 1 0.0 264.4853875843858 286.29724391803506 186.79851423349888 # Ar
628 628 1 0.0 626.9275353543995 539.7517226063042 44.081765908173146 # Ar
629 629 1 0.0 692.6857729866829 1087.8333487948883 1117.7004205048959 # Ar
630 630 1 0.0 747.1382936106511 759.8279369719468 811.7977431070108 # Ar
631 631 1 0.0 122.3345868348149 1081.6105285836013 655.0831816077232 # Ar
632 632 1 0.0 103.07595585310321 968.2582494526691 523.6633826234649 # Ar
633 633 1 0.0 767.9954285750676 820.1475335858206 944.9097589009823 # Ar
634 634 1 0.0 703.8011115843532 373.0803802790114 502.126304425021 # Ar
635 635 1 0.0 892.1483452907516 142.74001097211027 139.1945977301397 # Ar
636 636 1 0.0 838.6870808717432 1084.2605629491818 7.788179003479271 # Ar
637 637 1 0.0 102.39754086251604 884.0246419519311 89.69832008760885 # Ar
638 638 1 0.0 794.7474458807824 1066.1210887361954 13.890549576988759 # Ar
639 639 1 0.0 811.2955504062899 549.7769319057966 826.7736571255999 # Ar
640 640 1 0.0 733.5008076352951 1036.3384982129885 759.6001876689531 # Ar
641 641 1 0.0 1012.584210463499 374.0717167707012 1071.7980543722233 # Ar
642 642 1 0.0 698.6834312793052 785.5780577399032 836.2361707593303 # Ar
643 643 1 0.0 584.9967072488748 241.01988038156352 117.09582889706058 # Ar
644 644 1 0.0 867.6813791281033 1108.286241938711 1080.647366277728 # Ar
645 645 1 0.0 1086.1994973999422 1086.9507164469462 821.6397329143413 # Ar
646 646 1 0.0 466.92970482485583 62.802367134590604 955.7284843338526 # Ar
647 647 1 0.0 30.079157079854344 471.2696283192484 542.8016561184139 # Ar
648 648 1 0.0 1022.4846762802712 446.4084677621321 17.720558086919343 # Ar
649 649 1 0.0 404.93509581757934 1068.4882260384434 1099.2895422869942 # Ar
650 650 1 0.0 702.0806579258303 638.5896349329731 94.3780002211638 # Ar
651 651 1 0.0 537.4891800375775 230.83406123096285 934.8180260387109 # Ar
652 652 1 0.0 929.011863489222 844.7669658808439 81.08714788418203 # Ar
653 653 1 0.0 926.0368563243073 1094.9942689785873 294.2234438808563 # Ar
654 654 1 0.0 92.17397818912237 72.00821824061347 183.45041666102833 # Ar
655 655 1 0.0 556.485541358511 335.97831411225866 904.9463180949602 # Ar
656 656 1 0.0 1157.0005169657322 640.2066102965376 947.0498002779691 # Ar
657 657 1 0.0 552.8277979071985 759.674057575257 991.8318956275014 # Ar
658 658 1 0.0 665.2193630883917 547.559042479307 582.2002704160479 # Ar
659 659 1 0.0 333.4097918851655 22.049974498102927 1031.0393860843944 # Ar
660 660 1 0.0 836.1189283916408 742.898343912672 1132.9724966829267 # Ar
661 661 1 0.0 989.9579623381157 1035.1683162304728 771.799421025351 # Ar
662 662 1 0.0 197.58080419900688 49.470522424067376 872.529483013346 # Ar
663 663 1 0.0 856.6250415207259 969.7906017106392 312.77403258693647 # Ar
664 664 1 0.0 163.00091951488125 57.251913044369715 1149.825705474417 # Ar
665 665 1 0.0 619.9222443444312 405.15535193903304 14.88960374766801 # Ar
666 666 1 0.0 565.3242090249397 222.58007151271374 551.8696493880117 # Ar
667 667 1 0.0 340.2048969119114 17.347933594369128 110.57913759112614 # Ar
668 668 1 0.0 379.4757717211913 497.06591827513256 430.0554763732276 # Ar
669 669 1 0.0 259.0094224540123 820.717146305428 576.3767477172307 # Ar
670 670 1 0.0 635.5086866611244 659.4198653601671 136.54442130083805 # Ar
671 671 1 0.0 631.7207411950245 510.1950391141115 1036.939831867634 # Ar
672 672 1 0.0 359.26346000478793 53.40520183471507 1131.8413248555896 # Ar
673 673 1 0.0 1003.3323819349496 376.08986231726556 399.196594458515 # Ar
674 674 1 0.0 117.00275164491076 600.9713624816569 742.5960559196101 # Ar
675 675 1 0.0 322.5519393592651 52.138235495551825 126.44895507596537 # Ar
676 676 1 0.0 923.9519955383869 742.4334970811436 530.9144031473797 # Ar
677 677 1 0.0 662.4897896991641 522.1284087766455 687.5291312294906 # Ar
678 678 1 0.0 470.4965538370841 183.95446881244828 540.4871389316332 # Ar
679 679 1 0.0 512.4800173793996 447.9078564125589 602.7412280853661 # Ar
680 680 1 0.0 186.60541870915588 893.1303855047403 843.2451379810844 # Ar
681 681 1 0.0 429.10890057220877 1143.0336068199815 110.39786498427858 # Ar
682 682 1 0.0 516.2690791066569 342.0752393547131 1143.1359007184683 # Ar
683 683 1 0.0 1161.660734738119 1142.279807926873 446.99195488239184 # Ar
684 684 1 0.0 13.654681819277366 288.9978808963741 772.3893655956542 # Ar
685 685 1 0.0 1036.778984507445 29.325266893477988 453.83718540716626 # Ar
686 686 1 0.0 1044.7230104368286 770.7069880510031 583.0110503703335 # Ar
687 687 1 0.0 197.79981196900954 1108.488895159397 1142.9477670184463 # Ar
688 688 1 0.0 874.440871071019 998.0078494804972 1154.5119521403278 # Ar
689 689 1 0.0 449.73011786310883 928.2801806696615 845.9346800243485 # Ar
690 690 1 0.0 438.21776233181055 356.9498360295399 632.3564502364204 # Ar
691 691 1 0.0 1099.8639008537857 324.7907685190125 1055.0173901015562 # Ar
692 692 1 0.0 670.1091462671608 290.4522904544284 968.1651043133435 # Ar
693 693 1 0.0 596.4511822101517 896.9178316733987 582.9855868719347 # Ar
694 694 1 0.0 171.26885169023643 971.8255523922687 643.6297758434703 # Ar
695 695 1 0.0 512.0462610919112 125.73016330319393 616.9010481840661 # Ar
696 696 1 0.0 770.2627978503108 835.2616736191593 162.27144566303275 # Ar
697 697 1 0.0 1094.6832545535108 185.5019269030545 533.1646441372608 # Ar
698 698 1 0.0 266.9946013614417 801.6280959026196 609.2033435710837 # Ar
699 699 1 0.0 581.3945302166 417.07420553397696 540.0891525045649 # Ar
700 700 1 0.0 421.50788277549526 1116.8042154799598 655.7059583606117 # Ar
701 701 1 0.0 716.67872503041 214.6463770448171 556.5721997788803 # Ar
702 702 1 0.0 19.735518197418436 163.0459524142705 727.1497879963086 # Ar
703 703 1 0.0 675.7812918920579 1067.1436567469525 768.08588997637 # Ar
704 704 1 0.0 618.6339225874416 562.9915874799669 763.8433019774909 # Ar
705 705 1 0.0 529.9494294032812 383.99270687682093 913.4702740676279 # Ar
706 706 1 0.0 920.5991531875845 530.3714991621845 647.3253255792753 # Ar
707 707 1 0.0 625.8202466208357 601.4831431127193 755.223895270841 # Ar
708 708 1 0.0 1049.290630819699 1177.8017622130083 490.16357347117804 # Ar
709 709 1 0.0 578.9015377473494 961.5380764355523 1136.867074030028 # Ar
710 710 1 0.0 495.91479489538193 1174.506402438718 234.95013255176204 # Ar
711 711 1 0.0 110.42751996960085 29.51369661343104 1131.6043536847008 # Ar
712 712 1 0.0 311.54964265317585 1162.4612045439346 189.0757385494142 # Ar
713 713 1 0.0 107.46067892811175 334.82384001460457 522.3646152373012 # Ar
714 714 1 0.0 461.8009584049575 356.23164450304523 520.0992612202829 # Ar
715 715 1 0.0 644.2503039826266 609.0548732090413 168.17056089280976 # Ar
716 716 1 0.0 768.3509234941126 1042.3731191303655 503.6199870549507 # Ar
717 717 1 0.0 95.33875125809485 124.8046605009828 563.0621714546793 # Ar
718 718 1 0.0 256.97201424245236 1113.3072227732616 936.5418073561292 # Ar
719 719 1 0.0 657.9896510779325 597.8124094764258 771.6916711841869 # Ar
720 720 1 0.0 349.7131711974025 1042.0784243512785 687.992415408078 # Ar
721 721 1 0.0 453.9812814701578 210.91171871847232 245.30833386295464 # Ar
722 722 1 0.0 842.8872369495263 116.22407993477786 1130.8601042910846 # Ar
723 723 1 0.0 601.0633600601516 822.0887050752276 103.39494840792992 # Ar
724 724 1 0.0 621.6698381356073 253.4431348796615 51.9425109858323 # Ar
725 725 1 0.0 786.9421849744401 407.839666508556 996.261194051356 # Ar
726 726 1 0.0 644.5028276789584 594.3170500928095 835.0749479548912 # Ar
727 727 1 0.0 602.8230170668226 419.69801056542025 806.801803466501 # Ar
728 728 1 0.0 983.2010430317384 392.7203594789065 473.8128672229633 # Ar
729 729 1 0.0 218.8215319491454 1072.1484456074506 536.3518063799661 # Ar
730 730 1 0.0 548.6088253001393 80.45057910015281 580.7909659666094 # Ar
731 731 1 0.0 532.5635735437224 804.0833149559667 447.7341458751741 # Ar
732 732 1 0.0 1071.3999110860116 631.0831605957261 500.63829468009794 # Ar
733 733 1 0.0 136.3118927925455 294.29645957754883 1117.7231935077655 # Ar
734 734 1 0.0 581.5185140258201 340.67522058282805 401.37330264280394 # Ar
735 735 1 0.0 1053.875667041892 1064.9435068414725 1069.6265636689911 # Ar
736 736 1 0.0 203.12712124920168 653.6151228404448 1056.1148401311436 # Ar
737 737 1 0.0 1117.2435295469702 11.146061003713807 38.871837661617754 # Ar
738 738 1 0.0 1046.801299842846 496.52307127562057 1036.7887131920836 # Ar
739 739 1 0.0 507.54891289388246 527.0003156333657 215.24926986654648 # Ar
740 740 1 0.0 688.2855661264458 607.2756959994992 627.3409463848634 # Ar
741 741 1 0.0 474.40928833650304 78.81844477494224 933.602126843313 # Ar
742 742 1 0.0 212.89156189766732 445.37933686861385 450.1949358064661 # Ar
743 743 1 0.0 156.9408763160139 1095.938550173524 908.1753435529666 # Ar
744 744 1 0.0 338.05651723482436 204.80562161593778 1159.2936612962187 # Ar
745 745 1 0.0 826.5564323160183 1019.3287044170228 387.64329442587524 # Ar
746 746 1 0.0 1145.4770791902881 1069.9823392858475 624.7114807159649 # Ar
747 747 1 0.0 779.9988780847698 560.1541445566743 301.94149317958863 # Ar
748 748 1 0.0 138.73669441212897 245.21535903750802 992.2132402168453 # Ar
749 749 1 0.0 777.7262553722674 374.3156190425494 1003.4504975333163 # Ar
750 750 1 0.0 581.0754166858885 993.6791239487569 206.48263916021065 # Ar
751 751 1 0.0 377.8647025847468 70.3872598176002 206.50262715023797 # Ar
752 752 1 0.0 537.5564336426615 523.7032589820524 584.156332870805 # Ar
753 753 1 0.0 644.7236764211273 35.77794280600923 960.3321450801659 # Ar
754 754 1 0.0 758.5812020208142 472.2046084562821 1029.0331622180145 # Ar
755 755 1 0.0 957.1867451451518 873.0441896688774 1015.347560981162 # Ar
756 756 1 0.0 1166.1712410263438 946.0153599960507 941.6446124591597 # Ar
757 757 1 0.0 360.6803294759238 225.71749248032458 50.0855269012674 # Ar
758 758 1 0.0 1071.8225037612788 368.76455135085234 698.4782413311128 # Ar
759 759 1 0.0 785.6270423738642 106.20833946949439 325.0800670773694 # Ar
760 760 1 0.0 423.68876243800236 458.9394531240959 828.5358606194065 # Ar
761 761 1 0.0 948.9479090888078 311.4368738472324 312.79673863623145 # Ar
762 762 1 0.0 671.69083321625 509.1617854974548 262.40243714531226 # Ar
763 763 1 0.0 562.6966345203529 117.01998960310975 1087.6389688546403 # Ar
764 764 1 0.0 956.3116385422675 97.06477006126612 709.1084243864553 # Ar
765 765 1 0.0 17.93849212456662 937.8972864703526 138.36560177015457 # Ar
766 766 1 0.0 1086.0932444409004 97.3999875966549 1063.1540010979625 # Ar
767 767 1 0.0 397.5990923948145 723.4585970159904 915.9101842392025 # Ar
768 768 1 0.0 351.3145988694696 635.8375601133733 14.98285938984944 # Ar
769 769 1 0.0 400.3429939712045 669.2241298605633 572.5822334528152 # Ar
770 770 1 0.0 1131.1549612275276 521.7598074221688 410.54088477693887 # Ar
771 771 1 0.0 354.1394077293959 631.5165109778522 1071.123083918472 # Ar
772 772 1 0.0 230.85482553082213 742.2960528240575 279.392056262781 # Ar
773 773 1 0.0 527.1769379575655 532.3444377668861 383.67728683121965 # Ar
774 774 1 0.0 927.5341848905774 899.8641139320537 319.3868889103698 # Ar
775 775 1 0.0 864.4693804324686 90.43212008951119 298.740992947091 # Ar
776 776 1 0.0 622.9415099484561 757.6365238420653 629.1766732747606 # Ar
777 777 1 0.0 753.8643955418048 490.18760362743643 78.6062765804097 # Ar
778 778 1 0.0 975.3688019126364 935.7145344724538 773.4923289870814 # Ar
779 779 1 0.0 913.1541861743556 186.2853344912429 1169.0212093411917 # Ar
780 780 1 0.0 975.2170165163983 746.8087900305511 270.3743503018608 # Ar
781 781 1 0.0 959.6946453847851 518.5436834546375 253.68208140121234 # Ar
782 782 1 0.0 1118.0173928571264 1172.216813830489 24.584073458286948 # Ar
783 783 1 0.0 1123.7878057066816 121.07909774460262 649.6699466202988 # Ar
784 784 1 0.0 390.3255564419777 801.6007627732255 1112.3337755598461 # Ar
785 785 1 0.0 199.05761449932942 68.84950853936571 394.5938919161873 # Ar
786 786 1 0.0 42.60512915122704 356.54115331452067 882.4266819533569 # Ar
787 787 1 0.0 995.939121602648 111.24022719708996 1121.4806117558555 # Ar
788 788 1 0.0 488.1930714912356 655.9038138742787 262.82927388070476 # Ar
789 789 1 0.0 91.36318011155664 379.89392538519786 477.4011014075914 # Ar
790 790 1 0.0 999.9025727518264 670.0539682391993 607.7374616944651 # Ar
791 791 1 0.0 281.3387452940358 460.43518676218963 943.1382083598568 # Ar
792 792 1 0.0 321.16640483643664 312.3781538998877 806.2088418665447 # Ar
793 793 1 0.0 585.3000229590621 43.073665849334894 433.80899931711315 # Ar
794 794 1 0.0 780.8486529306541 95.22458645554549 224.23085096693745 # Ar
795 795 1 0.0 868.1965164319988 988.7727164699609 473.8779861486518 # Ar
796 796 1 0.0 252.72698292613967 6.155763364172023 452.11845947557845 # Ar
797 797 1 0.0 796.8975167400843 1148.4245297647399 983.8070510557789 # Ar
798 798 1 0.0 1122.5174178101786 1066.421568680705 86.481704838081 # Ar
799 799 1 0.0 347.98758931492824 922.6886469069309 296.76853493485964 # Ar
800 800 1 0.0 727.3800279720892 12.537619493722902 856.864084543877 # Ar
801 801 1 0.0 76.02797301292807 39.878107096351926 852.9360826749236 # Ar
802 802 1 0.0 604.1567643733291 1088.9146422541999 585.307145361968 # Ar
803 803 1 0.0 196.95290563186947 633.5499237226959 722.8834653544385 # Ar
804 804 1 0.0 1061.3899431812856 525.9174103410342 92.01720888295534 # Ar
805 805 1 0.0 806.7655405751714 949.5982125250766 222.64909535886966 # Ar
806 806 1 0.0 162.11299472478777 696.5107694185468 405.15211248292104 # Ar
807 807 1 0.0 1132.926848271016 978.7973590575663 354.348396332648 # Ar
808 808 1 0.0 78.71880933865346 314.4416754576994 342.52088782408805 # Ar
809 809 1 0.0 527.6218366719831 653.0939415371723 1060.960139329272 # Ar
810 810 1 0.0 371.23466478052075 690.8302746639754 475.2161037249955 # Ar
811 811 1 0.0 144.209097433018 711.6702443328038 307.47308722935355 # Ar
812 812 1 0.0 276.03027811038834 839.6634977477343 222.81957956239856 # Ar
813 813 1 0.0 290.0587036511239 779.9834166020344 1062.8681449320577 # Ar
814 814 1 0.0 1133.6863334646475 190.12058468313472 1103.1320663190077 # Ar
815 815 1 0.0 18.434942036011584 1162.6255276959264 114.36979608677765 # Ar
816 816 1 0.0 352.4015531478192 950.951886052354 545.5829684363994 # Ar
817 817 1 0.0 1157.2028154496907 1028.7643728130834 323.04504584867516 # Ar
818 818 1 0.0 511.03515894663695 1024.3185711210112 1040.0580364262748 # Ar
819 819 1 0.0 753.1938193666825 952.6892568638676 1143.9599008129117 # Ar
820 820 1 0.0 318.9677203118844 607.8385349065346 558.5691770917667 # Ar
821 821 1 0.0 612.6570221511055 364.0099632813806 253.64830003836497 # Ar
822 822 1 0.0 140.71528440957186 716.6246981885998 751.497663939893 # Ar
823 823 1 0.0 1118.2482527212371 360.4702640497498 901.2332052357575 # Ar
824 824 1 0.0 1070.5925497463043 1117.354399818711 159.0921524586719 # Ar
825 825 1 0.0 497.3402159882519 248.11053513666775 544.4562614502348 # Ar
826 826 1 0.0 828.7063338576471 495.95184576693447 331.84303092160746 # Ar
827 827 1 0.0 1084.5262986333412 774.8160281640386 1015.3249639329449 # Ar
828 828 1 0.0 441.3274020291961 133.37978210778505 56.41449299633571 # Ar
829 829 1 0.0 1149.465045613141 368.8898030702529 819.96630684547 # Ar
830 830 1 0.0 785.8194829585034 102.74227945079885 583.0712121464438 # Ar
831 831 1 0.0 988.0166346660272 999.5992120013725 385.0875001632868 # Ar
832 832 1 0.0 169.59684138336718 1032.7147689239425 220.51350756606087 # Ar
833 833 1 0.0 782.183852072388 950.0196140056806 242.89428756385908 # Ar
834 834 1 0.0 178.48302384054426 249.9438110928418 1157.6402815125568 # Ar
835 835 1 0.0 391.9374485887087 29.740322383991412 70.11940015554376 # Ar
836 836 1 0.0 601.8324356654582 259.34749207923676 518.9425623679441 # Ar
837 837 1 0.0 1137.2240440452329 645.3517112872876 932.7759440139505 # Ar
838 838 1 0.0 909.6239895176558 27.04696157774699 598.057702007043 # Ar
839 839 1 0.0 294.7094108626169 413.9353555686024 59.990602228912834 # Ar
840 840 1 0.0 450.3666050801437 31.422728136356124 693.4941342680452 # Ar
841 841 1 0.0 1048.3503824694312 563.1178763967172 258.9783009077622 # Ar
842 842 1 0.0 209.18307197501565 454.37547887968685 108.15347319051102 # Ar
843 843 1 0.0 1086.599344511452 598.2894256002637 352.8974775034481 # Ar
844 844 1 0.0 1012.7645621666032 310.87848362777345 984.0012075101276 # Ar
845 845 1 0.0 873.1965079348099 225.42063253876972 188.7866317944669 # Ar
846 846 1 0.0 231.58662376850373 12.766104091444449 1122.8035935037046 # Ar
847 847 1 0.0 843.651858627143 1142.8032103315932 23.84829659473793 # Ar
848 848 1 0.0 894.9218333815343 1065.8405364104556 1120.6810997365617 # Ar
849 849 1 0.0 993.6394449697427 334.1555403847082 1074.7762833205052 # Ar
850 850 1 0.0 447.8327325724789 973.1488379628121 422.4382875116079 # Ar
851 851 1 0.0 136.42264597876098 992.46405695858 810.0862370547854 # Ar
852 852 1 0.0 1087.3597363535632 725.5503186862531 306.8260459672157 # Ar
853 853 1 0.0 555.519863608809 1083.1614537774037 1151.4724596331964 # Ar
854 854 1 0.0 141.50998950544286 432.4579990936589 343.1979704938377 # Ar
855 855 1 0.0 693.5948474809813 461.57259624594667 408.80127386486055 # Ar
856 856 1 0.0 1164.9835455780697 78.57467954123487 813.0628073610183 # Ar
857 857 1 0.0 333.8802677974654 896.9716013465929 535.4003503382602 # Ar
858 858 1 0.0 692.8341446650255 816.0006106710847 394.12393944976924 # Ar
859 859 1 0.0 1033.8974096379552 806.1300678479731 214.0724097319934 # Ar
860 860 1 0.0 420.4042054227193 280.89004722176105 59.87187276774271 # Ar
861 861 1 0.0 156.40916563355412 1135.67355183669 903.5698831660007 # Ar
862 862 1 0.0 754.218724553729 334.7421795108257 426.68280932483697 # Ar
863 863 1 0.0 748.7118836418972 7.9918520399427475 799.1679385727866 # Ar
864 864 1 0.0 1023.9914769285322 830.8301398219894 868.0211728904267 # Ar
865 865 1 0.0 299.42124270225986 974.2263974830935 1172.5609707354174 # Ar
866 866 1 0.0 440.5358830631867 280.76011072519265 116.31870600427429 # Ar
867 867 1 0.0 107.57966675590387 764.3576414928943 440.1710476048442 # Ar
868 868 1 0.0 1106.0898381806724 397.8031441700971 331.9284254700928 # Ar
869 869 1 0.0 20.00632526843073 268.3918259942292 894.5221135013448 # Ar
870 870 1 0.0 413.8637387803961 443.0556900727276 32.90365644706379 # Ar
871 871 1 0.0 260.1453722477068 1148.2104628891184 526.7449750142671 # Ar
872 872 1 0.0 1067.851591124685 624.7295722657439 799.6514129700137 # Ar
873 873 1 0.0 229.8115358286665 787.2561939853529 423.0845651255544 # Ar
874 874 1 0.0 1155.9824159893321 935.4560543700476 1063.1669699405404 # Ar
875 875 1 0.0 259.87081546544823 273.3223350542019 309.2796247864038 # Ar
876 876 1 0.0 577.8767863741833 1136.8379124835762 937.3112620498175 # Ar
877 877 1 0.0 712.1062152098714 320.7985024365655 827.3470148636393 # Ar
878 878 1 0.0 511.74119601509216 878.5120240037121 835.0030548783071 # Ar
879 879 1 0.0 88.82327135714736 94.32732812537253 135.12636770271098 # Ar
880 880 1 0.0 624.3326028179374 962.0751581514936 148.17470524444076 # Ar
881 881 1 0.0 375.68016868836156 1153.3008320960419 138.71400236095198 # Ar
882 882 1 0.0 1102.2507267787082 1059.091077028042 553.77613667653 # Ar
883 883 1 0.0 732.4899404057965 396.49224054406096 991.6453666125948 # Ar
884 884 1 0.0 832.5688766460485 266.8607425739167 891.2332020642041 # Ar
885 885 1 0.0 239.53633235911622 1059.2999363251292 535.9029815620506 # Ar
886 886 1 0.0 900.8516741506961 289.3631127222519 496.47200377524933 # Ar
887 887 1 0.0 944.3165816401114 889.0557809263059 395.4987687248788 # Ar
888 888 1 0.0 159.1280453911651 638.8074231879668 667.8151735250995 # Ar
889 889 1 0.0 1068.8325736264435 316.80674758590885 272.52206918628104 # Ar
890 890 1 0.0 403.4849015459399 1063.032958645227 763.2724994539375 # Ar
891 891 1 0.0 305.7334184653724 800.9852130768829 702.8646470955185 # Ar
892 892 1 0.0 365.6458585697946 112.98677459880604 187.7682455060759 # Ar
893 893 1 0.0 499.47238376575984 810.1233608028999 452.3287098569177 # Ar
894 894 1 0.0 645.4966643906761 1176.6545257243824 432.8624921091817 # Ar
895 895 1 0.0 95.58867360609871 87.78299915231077 1055.3792516674316 # Ar
896 896 1 0.0 746.0542375194773 167.60238622197136 672.8182556346317 # Ar
897 897 1 0.0 849.618679829759 599.0902318611031 449.98643654777544 # Ar
898 898 1 0.0 106.51477043605709 165.21720852090155 512.8339528210012 # Ar
899 899 1 0.0 635.0203005802263 959.0134513314825 69.07956088726665 # Ar
900 900 1 0.0 129.7009371876218 976.0976629351552 491.1278443177698 # Ar
901 901 1 0.0 972.1760529680581 68.50739557302646 1114.4000912241738 # Ar
902 902 1 0.0 317.83696262090194 989.6701985461922 672.4893937549375 # Ar
903 903 1 0.0 215.58646294993034 781.2972218458926 466.0933374564783 # Ar
904 904 1 0.0 418.92980191484804 1081.4251000532233 1061.000827537268 # Ar
905 905 1 0.0 178.8474215776006 397.41544483765745 1025.0614583212846 # Ar
906 906 1 0.0 982.208305137035 555.4306359777531 425.51633725776674 # Ar
907 907 1 0.0 954.1512447046983 71.34428846894946 208.28361350391555 # Ar
908 908 1 0.0 828.1863002614012 1028.5754165333587 561.4097229654185 # Ar
909 909 1 0.0 41.59501851909514 192.35853709351963 150.41952423254548 # Ar
910 910 1 0.0 1025.7894301928382 51.416802693499946 952.4279913057602 # Ar
911 911 1 0.0 843.9727179821567 874.4755296324181 604.8562001622511 # Ar
912 912 1 0.0 410.8156987635348 54.225125455764875 315.8116855067066 # Ar
913 913 1 0.0 433.5033972075368 792.5167257995195 43.55758315954258 # Ar
914 914 1 0.0 912.1726414476132 113.94801279603999 315.27412775914456 # Ar
915 915 1 0.0 977.360755485806 288.0726671701088 891.8108251570725 # Ar
916 916 1 0.0 848.3299935002302 91.52473722965037 444.558267018209 # Ar
917 917 1 0.0 616.814787792439 1175.1299855545547 87.79661290832591 # Ar
918 918 1 0.0 380.8503449703828 169.56298173580726 351.4053735569565 # Ar
919 919 1 0.0 191.8889298686742 743.8914816443746 17.400784171638627 # Ar
920 920 1 0.0 159.68166442609947 388.54688625489786 272.4504350543454 # Ar
921 921 1 0.0 601.4954402912055 386.62115529437074 616.7162766913302 # Ar
922 922 1 0.0 205.90310440798515 113.23733374343193 1118.680223568244 # Ar
923 923 1 0.0 244.18182536498892 1165.6845653940877 943.7067121094448 # Ar
924 924 1 0.0 768.2336513488971 250.72248577117838 540.9140275908694 # Ar
925 925 1 0.0 841.804920343542 132.80554938943172 345.52748316415773 # Ar
926 926 1 0.0 118.82133780835895 1065.2583390940515 1055.5640123127366 # Ar
927 927 1 0.0 155.36999361485175 1149.5406841520587 672.800570275136 # Ar
928 928 1 0.0 867.259917342433 553.3432657543019 940.0058468852403 # Ar
929 929 1 0.0 489.54102162981775 1125.4969192551523 159.7805062762294 # Ar
930 930 1 0.0 1.8506833068191766 312.07129364792866 1099.453329466462 # Ar
931 931 1 0.0 297.9126208456883 943.8667864206794 780.2195397820323 # Ar
932 932 1 0.0 614.9843879240523 787.3431299421751 213.72713509221967 # Ar
933 933 1 0.0 52.15804015220135 179.84797873383596 1020.9468721296149 # Ar
934 934 1 0.0 758.573838467618 635.3043309423067 1173.404448598424 # Ar
935 935 1 0.0 1011.4757395318051 430.85096089123397 620.7552850825116 # Ar
936 936 1 0.0 323.22713146236555 743.2370649016817 779.9390386236895 # Ar
937 937 1 0.0 87.89363423855796 41.18505493604688 151.0866106005616 # Ar
938 938 1 0.0 430.2774112035101 19.375413926472504 860.3745094506902 # Ar
939 939 1 0.0 144.16943125620566 144.20823908953122 544.9484178693631 # Ar
940 940 1 0.0 83.05497730853867 925.1387286291776 272.69735518920027 # Ar
941 941 1 0.0 102.09278482952159 644.2661186825966 303.0131307884803 # Ar
942 942 1 0.0 269.32772199309386 641.4953825633376 354.4867902418959 # Ar
943 943 1 0.0 1136.7666953354526 938.1590038477934 451.7436832927389 # Ar
944 944 1 0.0 1057.221995933991 925.5111850516197 830.3645404206959 # Ar
945 945 1 0.0 852.8290018837738 101.42335923508284 203.44789245245101 # Ar
946 946 1 0.0 319.83445917555383 1147.7343287258432 399.2324133869091 # Ar
947 947 1 0.0 442.47137213635887 486.07713096514755 109.59350042033397 # Ar
948 948 1 0.0 696.220257393906 265.85877933187885 308.5358498736702 # Ar
949 949 1 0.0 789.5837486896171 1007.5340583770284 246.68631937612074 # Ar
950 950 1 0.0 719.3603882392091 789.5062496404385 422.9347243562431 # Ar
951 951 1 0.0 639.4822177552062 1035.2005248860949 1010.6550599430568 # Ar
952 952 1 0.0 332.5853489716928 1097.9096266975312 911.0151680335795 # Ar
953 953 1 0.0 163.7602480505403 1024.9964841864967 518.1947968157829 # Ar
954 954 1 0.0 522.4584561169022 374.87936426461994 746.491646788254 # Ar
955 955 1 0.0 667.9004991704036 868.4617860051455 910.7215855405826 # Ar
956 956 1 0.0 626.0305108454146 458.83335305194976 419.43309366491565 # Ar
957 957 1 0.0 728.0990338610902 1151.8619021495144 365.1346742904346 # Ar
958 958 1 0.0 233.69195153842512 775.5380497159771 506.4470884767917 # Ar
959 959 1 0.0 188.48949582556517 211.10220843671635 417.8520463867206 # Ar
960 960 1 0.0 568.5166052702564 360.8610096969151 116.18205555859943 # Ar
961 961 1 0.0 18.466033847967655 592.8866824410335 1015.4643079664031 # Ar
962 962 1 0.0 802.9378850327429 182.83551702499966 1048.780655447187 # Ar
963 963 1 0.0 964.780466713262 102.26027308463318 64.88190847509027 # Ar
964 964 1 0.0 797.4639261396521 518.6130661226963 832.3444666642511 # Ar
965 965 1 0.0 417.6214575937826 440.9382911339359 920.4819364259884 # Ar
966 966 1 0.0 953.4509765789469 333.75956389741066 387.5207148697794 # Ar
967 967 1 0.0 941.2857836683722 266.20895962408315 553.1161865716157 # Ar
968 968 1 0.0 293.31665237282004 7.020787973457211 707.6487298019912 # Ar
969 969 1 0.0 835.4042429438946 936.2496321939979 110.24456689496485 # Ar
970 970 1 0.0 549.4048133741201 147.18871080210198 1085.6382568850004 # Ar
971 971 1 0.0 429.1330978131115 295.31420983301007 458.29008254560625 # Ar
972 972 1 0.0 335.10471416957034 503.01257558269623 474.8286784669953 # Ar
973 973 1 0.0 483.03263877833524 569.3668806522171 438.6148977875511 # Ar
974 974 1 0.0 1037.2692936280114 1019.602508730989 53.879758703733316 # Ar
975 975 1 0.0 445.9566634142977 374.78006228627567 683.9017145597697 # Ar
976 976 1 0.0 126.76705781314486 907.8672689690044 149.74952105957817 # Ar
977 977 1 0.0 496.6721544764755 796.9890897824922 221.4713346993345 # Ar
978 978 1 0.0 85.00790413864839 578.544170341839 488.1940370510263 # Ar
979 979 1 0.0 805.3913804691114 43.357779527478975 68.29048875824746 # Ar
980 980 1 0.0 1100.0921456123701 868.7798254726055 242.37736920869858 # Ar
981 981 1 0.0 961.9542029819131 393.1417951055509 1116.7090315890443 # Ar
982 982 1 0.0 190.40168593258977 1013.004526006766 1003.2625056598763 # Ar
983 983 1 0.0 602.7442831821197 916.2000094542519 610.6509076635733 # Ar
984 984 1 0.0 1098.579671684107 107.06178843913234 598.3871708389294 # Ar
985 985 1 0.0 237.09114865300478 786.3563064271673 423.07844857510815 # Ar
986 986 1 0.0 1145.9595492394342 754.6175308906884 845.8233362858273 # Ar
987 987 1 0.0 45.40064675213239 1032.8578956158622 338.4631156977903 # Ar
988 988 1 0.0 880.6502233968369 393.1984653146154 726.4448305695607 # Ar
989 989 1 0.0 1122.7103987741807 480.01426475935745 927.1412289656972 # Ar
990 990 1 0.0 286.78435073538594 8.084960435393047 714.5883882520094 # Ar
991 991 1 0.0 515.150971970609 299.98355744684966 540.2445793220719 # Ar
992 992 1 0.0 189.2875718749868 1087.7097506174202 696.962560632842 # Ar
993 993 1 0.0 706.8789867147594 696.0039278040771 692.7361888753591 # Ar
994 994 1 0.0 811.5330741865339 787.0484529294331 1011.728126837545 # Ar
995 995 1 0.0 176.6206967580925 487.47048519734767 202.36047193038618 # Ar
996 996 1 0.0 427.7601949527088 759.2979661049325 568.5823094419097 # Ar
997 997 1 0.0 327.5762629292588 277.4216077943264 875.9579777906413 # Ar
998 998 1 0.0 680.1385392340399 124.53036800151783 596.3324210500616 # Ar
999 999 1 0.0 1045.3880214216483 444.93070045610034 782.2608538117576 # Ar
1000 1000 1 0.0 349.8666855996866 1070.7078011408485 972.7261829086923 # Ar
1001 1001 1 0.0 529.483037976074 993.4894285606603 1095.368716942657 # Ar
1002 1002 1 0.0 79.83072887091733 480.8640850196954 457.69062536934 # Ar
1003 1003 1 0.0 897.7872446287081 378.6149252335088 1055.2892147481737 # Ar
1004 1004 1 0.0 1109.315255681379 608.854605439322 466.589362002264 # Ar
1005 1005 1 0.0 292.1680264053223 241.36813545616386 1005.7325221235716 # Ar
1006 1006 1 0.0 427.72803819112806 115.7665400960796 630.6814288009102 # Ar
1007 1007 1 0.0 393.04275641788604 839.2420154602449 30.55237628587065 # Ar
1008 1008 1 0.0 180.14185959590074 625.1726014098774 1169.8823138964226 # Ar
1009 1009 1 0.0 1116.408012969494 775.5121563336717 1119.8992873517602 # Ar
1010 1010 1 0.0 263.18809094800537 1013.7974051647658 200.04373059487688 # Ar
1011 1011 1 0.0 121.2967496943345 1105.8468473516218 143.1777352243656 # Ar
1012 1012 1 0.0 482.16245123167334 875.2509012616304 588.4336887313483 # Ar
1013 1013 1 0.0 299.7364703086012 244.55694253475485 849.6610934478939 # Ar
1014 1014 1 0.0 1015.5325883602986 1088.684420247447 377.3498863722869 # Ar
1015 1015 1 0.0 931.2625504274503 554.852103229466 359.3506284015106 # Ar
1016 1016 1 0.0 122.63501967221234 27.033123029114915 1083.3267518957791 # Ar
1017 1017 1 0.0 1122.554006601797 236.04048322158079 137.75984906163848 # Ar
1018 1018 1 0.0 549.1546454032882 952.4857194513761 575.1213295705485 # Ar
1019 1019 1 0.0 622.0733811249348 1066.7900363474398 419.758094120192 # Ar
1020 1020 1 0.0 615.9574955594775 953.8885107938648 655.8847694647411 # Ar
1021 1021 1 0.0 706.1075549952425 387.11789616191356 734.4440265836167 # Ar
1022 1022 1 0.0 101.24897743941486 138.6840442144586 862.7953870291806 # Ar
1023 1023 1 0.0 617.6841645115791 519.7565142198371 553.9451332699915 # Ar
1024 1024 1 0.0 1134.8447686599754 1114.2169191625283 267.01624982034684 # Ar
1025 1025 1 0.0 244.29147513325347 368.5607050460812 458.390424701172 # Ar
1026 1026 1 0.0 1069.4711017811203 446.4126084905021 244.25653114412012 # Ar
1027 1027 1 0.0 377.7682614866201 607.9758994745571 777.990555552011 # Ar
1028 1028 1 0.0 329.81133063519997 466.18775972624775 1104.0126294531344 # Ar
1029 1029 1 0.0 136.65983055003474 814.2503858812516 454.52778843953314 # Ar
1030 1030 1 0.0 552.9686720794821 500.7851283507138 776.7292477573615 # Ar
1031 1031 1 0.0 657.2215001483323 386.83189714178064 352.4013210111396 # Ar
1032 1032 1 0.0 10.013923188817458 690.9736140746409 1059.9534211394462 # Ar
1033 1033 1 0.0 997.8352977239133 596.4894119308426 1119.8253469283268 # Ar
1034 1034 1 0.0 156.05226976889978 755.251065122651 727.2963283710196 # Ar
1035 1035 1 0.0 232.18273339873573 1118.5667384245378 24.71253324810287 # Ar
1036 1036 1 0.0 276.9085643428541 389.0249070649257 877.8958247876533 # Ar
1037 1037 1 0.0 776.0187303267849 483.55821066127163 904.8520032775295 # Ar
1038 1038 1 0.0 248.8308081504329 176.00630536618485 1171.7056430612222 # Ar
1039 1039 1 0.0 515.1099172815227 479.1690864353869 575.1745123795807 # Ar
1040 1040 1 0.0 476.97194115895894 238.8843127904894 248.24209597989696 # Ar
1041 1041 1 0.0 256.1662366778337 319.9137031245724 212.5579914114561 # Ar
1042 1042 1 0.0 96.92373051914029 488.33981851265196 1177.7948642748884 # Ar
1043 1043 1 0.0 406.44653998877203 1018.7049350586635 63.82656591020434 # Ar
1044 1044 1 0.0 319.56833507103204 339.17391889626475 428.1152314627535 # Ar
1045 1045 1 0.0 736.9967045142308 613.5908587044976 241.84146719315666 # Ar
1046 1046 1 0.0 50.56781435329353 523.9153653050917 519.8103394542906 # Ar
1047 1047 1 0.0 1151.4779440270063 940.0177066667591 288.841495247186 # Ar
1048 1048 1 0.0 264.66035996885927 1173.9467335426343 798.7153967513167 # Ar
1049 1049 1 0.0 18.351495235731825 1035.1247879762268 855.5518727879665 # Ar
1050 1050 1 0.0 243.99517830223866 1060.3266410226781 33.76013706272751 # Ar
1051 1051 1 0.0 337.2192904543971 902.3190136877926 851.3681612260116 # Ar
1052 1052 1 0.0 172.82514159353056 412.20223902417877 10.420265681666722 # Ar
1053 1053 1 0.0 22.548668735433555 685.5614790970747 883.420280374836 # Ar
1054 1054 1 0.0 1036.1550772829755 713.3117876327369 406.56378564051585 # Ar
1055 1055 1 0.0 1007.1296947720493 878.816400072252 37.03200692175702 # Ar
1056 1056 1 0.0 814.6218348767585 206.7182980587782 239.42432605540063 # Ar
1057 1057 1 0.0 899.8611493454931 335.03774466601715 1132.488539896256 # Ar
1058 1058 1 0.0 179.58763074003653 145.72841145440242 196.43283355059694 # Ar
1059 1059 1 0.0 1020.5583367035997 603.5785851604296 1156.516259260892 # Ar
1060 1060 1 0.0 903.3368080927681 760.6788892423191 926.167080535858 # Ar
1061 1061 1 0.0 1012.0068161418775 488.36243746837084 58.1403826714442 # Ar
1062 1062 1 0.0 36.203645085452514 44.81035539242415 289.1260246282644 # Ar
1063 1063 1 0.0 247.5892507093159 927.5133346707819 1177.7820890086798 # Ar
1064 1064 1 0.0 858.4685170190855 340.69173592650907 543.9088842331148 # Ar
1065 1065 1 0.0 690.2040248617077 34.81910654213642 975.8500567881458 # Ar
1066 1066 1 0.0 187.54205640139915 788.0995515023327 268.1602841396412 # Ar
1067 1067 1 0.0 1080.0075478321987 515.7352775290245 272.81439261871657 # Ar
1068 1068 1 0.0 704.3003870543156 140.56543344697832 884.1280245348148 # Ar
1069 1069 1 0.0 1094.4179543450484 39.10101137479687 1023.2527975171275 # Ar
1070 1070 1 0.0 1073.1166893648267 629.2909941405429 822.4597649352804 # Ar
1071 1071 1 0.0 595.907824819234 1134.330129666363 852.8050167731822 # Ar
1072 1072 1 0.0 1044.2396004620925 731.6349337774619 197.2430641097843 # Ar
1073 1073 1 0.0 68.6949656357612 606.2427698018158 1149.1876069798784 # Ar
1074 1074 1 0.0 655.002546175938 745.39129042731 146.58404692383422 # Ar
1075 1075 1 0.0 378.8538906168146 897.5596514401583 884.8512600273098 # Ar
1076 1076 1 0.0 71.52725130446599 483.43159373654873 445.863110327418 # Ar
1077 1077 1 0.0 708.2614032068644 1043.8535773195129 185.35283732287337 # Ar
1078 1078 1 0.0 560.5557229923851 241.40472600056395 1101.3700541431529 # Ar
1079 1079 1 0.0 22.201418928596237 509.5008596690209 66.85176781418431 # Ar
1080 1080 1 0.0 939.1338384259038 396.71598883154473 541.2795512756737 # Ar
1081 1081 1 0.0 1175.777643591356 84.30272278549809 941.9018763392372 # Ar
1082 1082 1 0.0 179.23669993901936 336.9584784898375 1163.277333567995 # Ar
1083 1083 1 0.0 1135.0564025315668 353.18584032532857 293.99258856855863 # Ar
1084 1084 1 0.0 691.1256239287584 1084.8684061669278 756.8969548495513 # Ar
1085 1085 1 0.0 781.8021444655263 886.5198288653096 997.5103982504937 # Ar
1086 1086 1 0.0 290.2989281709796 1140.68223960173 1075.046744652404 # Ar
1087 1087 1 0.0 608.2595344072394 335.80782744856964 516.4354433310749 # Ar
1088 1088 1 0.0 728.5933700645302 172.47559124465715 697.8915733124696 # Ar
1089 1089 1 0.0 728.3884460074099 819.6177658489182 310.2702749078163 # Ar
1090 1090 1 0.0 267.7109159838177 878.8821183268193 631.9093018278646 # Ar
1091 1091 1 0.0 53.46308300873089 1130.4947024984222 169.34566305066426 # Ar
1092 1092 1 0.0 821.7044436416212 868.2645590815209 233.95928356803063 # Ar
1093 1093 1 0.0 208.40248094995925 702.6824608501372 747.6585385419786 # Ar
1094 1094 1 0.0 737.2603558098697 253.59369205621462 37.72077653038707 # Ar
1095 1095 1 0.0 816.2727700647744 1051.2363739382781 784.9575242329272 # Ar
1096 1096 1 0.0 436.80368361188687 90.05690799460197 156.52806292108147 # Ar
1097 1097 1 0.0 1028.0372377679037 632.8849465305256 992.9302532275375 # Ar
1098 1098 1 0.0 973.5138239995395 435.11055222550283 16.515194000336155 # Ar
1099 1099 1 0.0 75.44682944639429 558.8588195031144 965.0069198936943 # Ar
1100 1100 1 0.0 939.5264579853642 534.1090375215695 46.35612460916562 # Ar
1101 1101 1 0.0 150.28409581500196 197.27810103240773 639.3353974671895 # Ar
1102 1102 1 0.0 539.5480066108075 825.4070984216224 715.0475137003176 # Ar
1103 1103 1 0.0 784.729671290273 202.41980846201557 566.1728284267342 # Ar
1104 1104 1 0.0 90.19420683467234 38.60511781707109 752.2588710167433 # Ar
1105 1105 1 0.0 195.5315657265982 524.9595532478405 279.1203739425177 # Ar
1106 1106 1 0.0 184.7711854793252 857.5102491794531 712.4944728605664 # Ar
1107 1107 1 0.0 29.938252005121964 75.43339058868177 6.486364433577244 # Ar
1108 1108 1 0.0 671.4574518892415 657.8456307710305 571.6182554675025 # Ar
1109 1109 1 0.0 447.34300348476955 732.7358996175961 1032.581923231248 # Ar
1110 1110 1 0.0 659.3181212425212 1021.316687008729 57.49453615578375 # Ar
1111 1111 1 0.0 1095.597301749162 899.833135279164 391.567224171187 # Ar
1112 1112 1 0.0 1043.3533027791404 274.28015182352823 378.5183265009648 # Ar
1113 1113 1 0.0 931.272973429903 1125.5148266344495 931.3811444634114 # Ar
1114 1114 1 0.0 61.908265585125264 993.6199724340453 255.27263988023446 # Ar
1115 1115 1 0.0 845.6718046949723 968.5058284027663 599.9437446596703 # Ar
1116 1116 1 0.0 809.9202190127942 790.8802045009413 142.44208856672378 # Ar
1117 1117 1 0.0 123.33839346180801 520.524236228132 664.4171879654798 # Ar
1118 1118 1 0.0 246.79810852760437 69.15636571416049 247.92940700807762 # Ar
1119 1119 1 0.0 816.8286935090682 178.02143234013027 189.99842888482632 # Ar
1120 1120 1 0.0 732.0947135230194 4.00406800266165 1083.569554437875 # Ar
1121 1121 1 0.0 444.8204193947515 376.37230877704053 102.57252222625618 # Ar
1122 1122 1 0.0 158.5137065238223 671.7679078124338 327.94568092185676 # Ar
1123 1123 1 0.0 187.33651067257162 496.5321903003993 740.9479119987848 # Ar
1124 1124 1 0.0 788.5829800848103 551.9110625249838 737.8856875870492 # Ar
1125 1125 1 0.0 152.20879543619267 621.0826324467776 881.8086011785972 # Ar
1126 1126 1 0.0 686.7459113820621 473.9310964268525 778.6205104133655 # Ar
1127 1127 1 0.0 829.6070055666128 937.6651194338945 1170.7462867863271 # Ar
1128 1128 1 0.0 22.716150079335367 1177.7614032970744 927.6793301094638 # Ar
1129 1129 1 0.0 704.7702720794607 854.5884602040983 781.3656647245242 # Ar
1130 1130 1 0.0 164.23778727542145 1061.2856726757732 153.9216784912802 # Ar
1131 1131 1 0.0 311.55895469119605 333.83815964932126 694.3032335663328 # Ar
1132 1132 1 0.0 384.97617448618973 558.7207211991439 1146.1289789330813 # Ar
1133 1133 1 0.0 629.9603344647738 689.5068282505764 952.5362414948432 # Ar
1134 1134 1 0.0 810.1462722417232 893.4159685373838 155.4395248324339 # Ar
1135 1135 1 0.0 1130.2652911592902 473.96139155286954 412.0842808462371 # Ar
1136 1136 1 0.0 567.8007578260002 464.1850895666589 703.4732283842477 # Ar
1137 1137 1 0.0 122.13928300553509 641.162936341973 643.7154623238879 # Ar
1138 1138 1 0.0 54.63010997158042 1128.6164503845785 991.4053276877328 # Ar
1139 1139 1 0.0 198.51628348732294 457.559836429141 969.7137419367822 # Ar
1140 1140 1 0.0 1034.3386456716783 1056.2069202070973 888.0483770493893 # Ar
1141 1141 1 0.0 615.1910011562712 748.4154687781223 679.617886464448 # Ar
1142 1142 1 0.0 898.8568206083628 186.87205637231654 98.69373858544218 # Ar
1143 1143 1 0.0 870.4577367672147 664.8546500273209 927.9212399875469 # Ar
1144 1144 1 0.0 901.5410036018745 1023.8161630612117 760.6677992028781 # Ar
1145 1145 1 0.0 52.84523646063998 916.2463563431406 1156.5140378123597 # Ar
1146 1146 1 0.0 904.9888504889217 961.5105331261705 700.3122202927003 # Ar
1147 1147 1 0.0 164.9987898642985 1136.628295282514 122.50087313536226 # Ar
1148 1148 1 0.0 1034.5632562299895 1108.3815221635714 168.96749209380042 # Ar
1149 1149 1 0.0 267.67767861977467 244.6539620223298 1033.486162415926 # Ar
1150 1150 1 0.0 904.6665076166524 292.6468939681594 619.1445593775461 # Ar
1151 1151 1 0.0 1138.5654070273208 605.5084546306504 563.5483887279433 # Ar
1152 1152 1 0.0 875.0342661556848 686.1679460861499 662.8205498882671 # Ar
1153 1153 1 0.0 371.45327755780886 337.524499259431 979.035588845364 # Ar
1154 1154 1 0.0 307.4014080449249 259.7656363512529 616.2520816217356 # Ar
1155 1155 1 0.0 608.9345495048148 45.58787329053786 127.08604600401867 # Ar
1156 1156 1 0.0 332.82848473357075 544.0890774662756 179.9043045733139 # Ar
1157 1157 1 0.0 451.9761664423812 636.2105103484515 745.3990802082265 # Ar
1158 1158 1 0.0 192.3814376532938 533.0894294840031 540.7755493103288 # Ar
1159 1159 1 0.0 196.3436387754383 965.7317651869301 902.0619539735935 # Ar
1160 1160 1 0.0 257.06934669016056 940.6702039627036 70.02237140180414 # Ar
1161 1161 1 0.0 725.1471660149786 767.5336964463353 319.62582067724907 # Ar
1162 1162 1 0.0 677.4496037463393 392.69939638590625 1022.2020186684543 # Ar
1163 1163 1 0.0 468.6304929495036 199.08952154467093 911.3421121478375 # Ar
1164 1164 1 0.0 795.4000719211245 843.927186692749 626.5942791153842 # Ar
1165 1165 1 0.0 285.12159662402115 550.095036679571 549.9594822805291 # Ar
1166 1166 1 0.0 1081.6030670708676 194.03102841140517 185.85900523532783 # Ar
1167 1167 1 0.0 494.7256362730187 369.5404271951373 338.495157603029 # Ar
1168 1168 1 0.0 806.689774316993 234.41778094475075 639.199732980405 # Ar
1169 1169 1 0.0 750.2483659703987 899.6588186728677 1135.217061427354 # Ar
1170 1170 1 0.0 506.7215014248589 856.16954116677 815.3797861342917 # Ar
1171 1171 1 0.0 254.50943904323123 678.8987542390839 1122.5493756768976 # Ar
1172 1172 1 0.0 1100.3424318370578 521.5252263757989 347.47885708116354 # Ar
1173 1173 1 0.0 686.2642453242953 1150.281223423702 1016.8225470410281 # Ar
1174 1174 1 0.0 877.8702252989937 1098.4131372130103 1120.2487945154007 # Ar
1175 1175 1 0.0 460.59729073967264 307.4422796224241 672.6607765090466 # Ar
1176 1176 1 0.0 964.2224751612898 556.831242717835 867.5351587204226 # Ar
1177 1177 1 0.0 911.3393418348239 941.8222530784157 975.7888818917071 # Ar
1178 1178 1 0.0 513.8763923466112 465.44781316828323 386.9361493170588 # Ar
1179 1179 1 0.0 65.95947800104997 275.95036714490107 545.6571988737377 # Ar
1180 1180 1 0.0 380.92360972193296 787.979201304452 162.10494467071035 # Ar
1181 1181 1 0.0 283.9500223618017 7.299726693742325 185.6901898998601 # Ar
1182 1182 1 0.0 838.4128721232211 417.4389670578771 74.0423400977275 # Ar
1183 1183 1 0.0 169.86171141793392 856.9388205936548 141.41107343799655 # Ar
1184 1184 1 0.0 596.7516961085591 394.37282236709774 694.3588651241071 # Ar
1185 1185 1 0.0 981.9377379817336 951.5472372410035 368.6261015257043 # Ar
1186 1186 1 0.0 240.05747823393892 126.10207947841212 607.2402748810525 # Ar
1187 1187 1 0.0 464.246535076207 767.1536865917365 110.96141224536306 # Ar
1188 1188 1 0.0 616.9517656297319 21.646075535257665 425.04137203971106 # Ar
1189 1189 1 0.0 908.7581232601292 955.2785041048546 1018.239090732404 # Ar
1190 1190 1 0.0 178.4656374142716 821.2503854469493 1138.0065838146825 # Ar
1191 1191 1 0.0 281.9440581488622 750.5078876554164 923.428773287983 # Ar
1192 1192 1 0.0 821.7246101502895 89.90046209173195 792.5363686647022 # Ar
1193 1193 1 0.0 1080.807747183971 310.2749474292407 1064.0362568787934 # Ar
1194 1194 1 0.0 836.6420019804137 467.7787867111809 417.71728730123004 # Ar
1195 1195 1 0.0 679.2327443132335 19.389762299014567 75.85537916276431 # Ar
1196 1196 1 0.0 781.2833376268972 301.6975852325807 1163.8712182816878 # Ar
1197 1197 1 0.0 893.103010506148 348.5030179378147 1164.0125351419526 # Ar
1198 1198 1 0.0 403.1383149794826 34.650357521036575 833.9029462393904 # Ar
1199 1199 1 0.0 965.8000383992364 108.68208864389062 958.6653140486708 # Ar
1200 1200 1 0.0 925.7798538534875 725.4305064516059 821.3232521990006 # Ar
1201 1201 1 0.0 335.06980396610953 244.53555830512636 1008.8116888205947 # Ar
1202 1202 1 0.0 1146.9381177091682 989.6609582454834 1034.2190645084513 # Ar
1203 1203 1 0.0 68.8414542626762 896.3581201132589 53.849562736243854 # Ar
1204 1204 1 0.0 342.7713608261042 79.36601917244023 649.558218608886 # Ar
1205 1205 1 0.0 1146.0095287421752 854.5566877374168 561.4892879042437 # Ar
1206 1206 1 0.0 494.90084544459665 743.0245982261705 384.3366912838311 # Ar
1207 1207 1 0.0 1040.818123054121 244.6678248353523 468.4118864177466 # Ar
1208 1208 1 0.0 917.0574036957854 719.2832934592657 299.37200241218363 # Ar
1209 1209 1 0.0 574.9501238710319 319.22761047665796 721.7141750603007 # Ar
1210 1210 1 0.0 96.41544556499296 920.5718959154658 807.1502688049816 # Ar
1211 1211 1 0.0 653.102293262701 900.986339109856 34.690855118129925 # Ar
1212 1212 1 0.0 1097.0724973185775 342.94819445591406 931.30655637606 # Ar
1213 1213 1 0.0 251.28655769123472 287.2273029923801 144.11294552409257 # Ar
1214 1214 1 0.0 43.24977024644223 964.8358033644947 330.5531233725413 # Ar
1215 1215 1 0.0 289.05583362309693 275.76533448901404 1173.101676539977 # Ar
1216 1216 1 0.0 790.8386837693396 366.26023515387936 412.12347337233405 # Ar
1217 1217 1 0.0 942.962498244746 1047.8680649589123 620.3827125375553 # Ar
1218 1218 1 0.0 674.9475659084382 24.824919171968777 235.14174744611648 # Ar
1219 1219 1 0.0 399.3874623915386 695.4695801539764 66.90994961966044 # Ar
1220 1220 1 0.0 506.39267362417337 225.23287787134723 436.9406719013848 # Ar
1221 1221 1 0.0 1003.2083759122097 176.7054917918319 573.9098061677461 # Ar
1222 1222 1 0.0 6.120124503078529 99.86571982297295 549.6568621444048 # Ar
1223 1223 1 0.0 1110.912248941668 1094.4158953359183 316.5928874147677 # Ar
1224 1224 1 0.0 776.6144525955704 527.1870287711653 963.6089325939992 # Ar
1225 1225 1 0.0 681.5116840521729 887.0110555562627 1096.7601635215433 # Ar
1226 1226 1 0.0 952.9106959835858 958.1151694632521 153.1729473427852 # Ar
1227 1227 1 0.0 400.07578895745417 315.8974408061238 229.9287827962807 # Ar
1228 1228 1 0.0 603.2648526981836 385.49413382821155 621.8340684743872 # Ar
1229 1229 1 0.0 1087.7727831895056 745.3561939936385 1040.167923809892 # Ar
1230 1230 1 0.0 172.0863032208422 1126.6657850790416 1161.628817934936 # Ar
1231 1231 1 0.0 4.812979552578203 1115.8393165028444 958.086755415709 # Ar
1232 1232 1 0.0 244.51179652219258 96.69422720282235 705.6922968488966 # Ar
1233 1233 1 0.0 1032.738998488471 130.48099771202672 798.2980012966435 # Ar
1234 1234 1 0.0 261.7317351692067 217.61665216926056 162.01563072854418 # Ar
1235 1235 1 0.0 503.4819979100631 290.6190351203872 569.5428365492156 # Ar
1236 1236 1 0.0 863.9060611169431 777.3080520499191 16.89742090770175 # Ar
1237 1237 1 0.0 1174.1331000614982 573.3917743449166 263.7902464923085 # Ar
1238 1238 1 0.0 530.5895364194237 610.7213483937214 604.9528340395533 # Ar
1239 1239 1 0.0 891.6179212517691 565.2519416401104 494.60866846947687 # Ar
1240 1240 1 0.0 741.6395742916765 397.1702147878238 705.1486110332721 # Ar
1241 1241 1 0.0 457.45043123806397 204.44814782405203 397.18188723392933 # Ar
1242 1242 1 0.0 931.0833985644192 245.56809303673825 968.8034295250637 # Ar
1243 1243 1 0.0 265.33470096248715 495.3462475142227 1089.9763602294872 # Ar
1244 1244 1 0.0 863.1103945887297 783.9352831817953 717.6053834015411 # Ar
1245 1245 1 0.0 321.74137098035317 967.087077325013 697.7637159127444 # Ar
1246 1246 1 0.0 649.8109882970749 722.7110155770807 170.58838153222686 # Ar
1247 1247 1 0.0 213.99459609891946 89.06435083231374 255.27117687817406 # Ar
1248 1248 1 0.0 34.0082432767556 751.5395379271351 655.1544800728645 # Ar
1249 1249 1 0.0 134.57321829541698 655.7795469899243 629.9462339329156 # Ar
1250 1250 1 0.0 826.7237401042503 861.1807556850171 324.2283115049291 # Ar
1251 1251 1 0.0 590.3268678171279 153.71391551704536 533.4192951704572 # Ar
1252 1252 1 0.0 489.8892264791202 29.153523317333228 217.05193849681044 # Ar
1253 1253 1 0.0 238.56929126776495 936.502135594989 188.8234896392697 # Ar
1254 1254 1 0.0 425.7357049309442 1073.1238933374202 317.47320573579196 # Ar
1255 1255 1 0.0 340.52360273754914 116.51811026512954 1064.6251980264854 # Ar
1256 1256 1 0.0 524.0405695578232 258.59487545726904 847.8337216341675 # Ar
1257 1257 1 0.0 909.0204399943166 308.08357800763577 416.6229211727069 # Ar
1258 1258 1 0.0 284.28867039964524 981.6620412627838 882.3917182726386 # Ar
1259 1259 1 0.0 948.9489392208188 1093.7518594506853 272.76545666294663 # Ar
1260 1260 1 0.0 77.5192432751492 910.6986337191383 55.818343298176146 # Ar
1261 1261 1 0.0 818.4119383034844 194.30766405668214 642.0506995788909 # Ar
1262 1262 1 0.0 192.38835806386945 970.4007463253192 656.3397727479892 # Ar
1263 1263 1 0.0 609.4449979990479 677.2545318074503 318.71982774062957 # Ar
1264 1264 1 0.0 692.1204062299136 364.38265738368125 381.3848651267595 # Ar
1265 1265 1 0.0 1057.4983962298425 171.541292711887 526.1517042580897 # Ar
1266 1266 1 0.0 148.29883682898043 512.1869217422399 680.5081193789908 # Ar
1267 1267 1 0.0 1148.2401939870408 1125.4652332610224 600.0678446012298 # Ar
1268 1268 1 0.0 168.42243393329372 32.49170368074132 655.1486117047995 # Ar
1269 1269 1 0.0 27.567745824209013 519.82961763172 752.6538689638991 # Ar
1270 1270 1 0.0 1142.9490176844768 396.5780394577782 87.49627899508931 # Ar
1271 1271 1 0.0 39.791853085359 50.48199244665921 540.1800168407746 # Ar
1272 1272 1 0.0 357.63112612287637 111.47404514888743 1069.5547593419058 # Ar
1273 1273 1 0.0 1055.176484588076 691.1272806794168 276.4873498507046 # Ar
1274 1274 1 0.0 429.3417618544166 884.9531942072825 1063.7814758582672 # Ar
1275 1275 1 0.0 1071.5380681742888 929.3080329817005 441.42137668067744 # Ar
1276 1276 1 0.0 424.6876219539648 485.73002029509877 826.7866060105642 # Ar
1277 1277 1 0.0 103.12066864800626 1089.9265564758543 754.1150048762686 # Ar
1278 1278 1 0.0 925.5100681414663 1074.3599587122942 879.8995296958525 # Ar
1279 1279 1 0.0 130.63808932026205 794.4251465452164 7.398301362165453 # Ar
1280 1280 1 0.0 554.6869895814438 190.29983509260788 765.5074947184909 # Ar
1281 1281 1 0.0 1087.0676649585973 350.8813275216851 487.40556369923115 # Ar
1282 1282 1 0.0 260.8833243875374 829.5732256458303 394.24175929699624 # Ar
1283 1283 1 0.0 1056.3669364888544 703.3463523769163 1067.0969802794718 # Ar
1284 1284 1 0.0 55.62735491951694 756.8123258183555 240.98640123810236 # Ar
1285 1285 1 0.0 386.84104582558416 818.45599669221 53.24664383812567 # Ar
1286 1286 1 0.0 288.63105101427584 1121.7304149763813 156.78904403548674 # Ar
1287 1287 1 0.0 756.7744317882403 77.19515012492815 181.7305649681613 # Ar
1288 1288 1 0.0 54.10031970077937 109.66385443597765 1062.135513511612 # Ar
1289 1289 1 0.0 841.9878320771539 811.3745572229768 565.24137933524 # Ar
1290 1290 1 0.0 151.4597242199096 566.943407878899 94.94583070597214 # Ar
1291 1291 1 0.0 534.2657556613717 730.2801927596776 734.4734759972197 # Ar
1292 1292 1 0.0 1054.3803807977317 905.1379416805072 722.3188118128057 # Ar
1293 1293 1 0.0 470.4124096109306 153.8181654393333 1072.2585559163301 # Ar
1294 1294 1 0.0 1073.5612768254973 844.5574061147643 73.81557851801739 # Ar
1295 1295 1 0.0 997.7251556210322 716.6441881451998 615.922583170413 # Ar
1296 1296 1 0.0 291.37486349676317 581.8945550947325 707.989720922945 # Ar
1297 1297 1 0.0 618.2878759982427 112.5423499274989 245.10323909289363 # Ar
1298 1298 1 0.0 322.97376981458666 663.099410912499 822.8357702379373 # Ar
1299 1299 1 0.0 241.94211423193724 746.4276508190417 594.4473532070855 # Ar
1300 1300 1 0.0 587.4921636167205 395.1886780992349 123.07672787107536 # Ar
1301 1301 1 0.0 603.1764395660962 25.156373251718982 460.0695954254584 # Ar
1302 1302 1 0.0 930.625024699202 1044.8184077878873 926.211438277952 # Ar
1303 1303 1 0.0 500.14922074935964 107.7343863151124 195.68167908445295 # Ar
1304 1304 1 0.0 395.38668139943724 267.35888186359904 461.95765279660196 # Ar
1305 1305 1 0.0 785.3412151992815 734.3043943806633 17.395593488144964 # Ar
1306 1306 1 0.0 74.65039833490624 749.4009312223254 474.0566453111788 # Ar
1307 1307 1 0.0 791.9491313858755 940.5625553637 1178.0323673352327 # Ar
1308 1308 1 0.0 531.8198647720112 531.2027349006562 27.02891934038113 # Ar
1309 1309 1 0.0 841.8994114846329 872.3826728895103 497.68499748387734 # Ar
1310 1310 1 0.0 216.2917117048923 708.3201797000453 1152.6248692619015 # Ar
1311 1311 1 0.0 1093.8551534377307 137.32212035939924 1036.6014451419364 # Ar
1312 1312 1 0.0 718.5573813088384 892.0698630267533 1116.1778703237846 # Ar
1313 1313 1 0.0 219.88843906702442 198.5649671632644 313.4776947785423 # Ar
1314 1314 1 0.0 759.9975044529377 423.6101872287061 327.65029763222424 # Ar
1315 1315 1 0.0 736.0650956326589 783.8217829303742 554.4172003674 # Ar
1316 1316 1 0.0 1030.9586038429984 170.67645315355247 429.73637932221226 # Ar
1317 1317 1 0.0 167.89134238134326 1099.4319807402233 1122.949124616962 # Ar
1318 1318 1 0.0 182.0973270660277 479.4961976050506 110.10785064093712 # Ar
1319 1319 1 0.0 718.0570131935982 614.6381128709614 885.3605865127262 # Ar
1320 1320 1 0.0 429.71017284194784 321.5068140269323 1136.8950957399718 # Ar
1321 1321 1 0.0 780.8541824408305 149.93479666617066 81.12377151434859 # Ar
1322 1322 1 0.0 536.5523217674325 674.8546785443973 219.61127788162736 # Ar
1323 1323 1 0.0 996.3486174445678 808.8621028521801 275.5645239261292 # Ar
1324 1324 1 0.0 954.961735693518 1135.6983585276005 1030.8337616868957 # Ar
1325 1325 1 0.0 922.610480157644 129.49250640529863 1046.1439300555899 # Ar
1326 1326 1 0.0 614.8287614230221 225.64815928369873 759.6842463002007 # Ar
1327 1327 1 0.0 290.74248137491475 644.3368457018192 872.9728487331861 # Ar
1328 1328 1 0.0 835.6916729111668 623.8291596580673 933.4436134109905 # Ar
1329 1329 1 0.0 258.89362096325914 257.52561992185395 224.98343891696055 # Ar
1330 1330 1 0.0 212.80429366163614 706.4542036310509 445.15044638163636 # Ar
1331 1331 1 0.0 550.9347498637269 43.68597257555518 153.21696359694445 # Ar
1332 1332 1 0.0 276.7216779468144 14.916854104014808 415.99364874765035 # Ar
1333 1333 1 0.0 1123.8124850936606 159.922434215527 164.50098553503037 # Ar
1334 1334 1 0.0 429.45328054414466 383.6018046514526 334.8794378019545 # Ar
1335 1335 1 0.0 1016.5369126632617 725.672146383546 777.9036258596917 # Ar
1336 1336 1 0.0 51.20924833072293 1017.0813682188747 422.51705425508396 # Ar
1337 1337 1 0.0 221.870876271737 757.8809779501323 526.4301395680905 # Ar
1338 1338 1 0.0 9.329030045394545 525.6363169408347 18.6287819902508 # Ar
1339 1339 1 0.0 432.4836854149425 522.3569589394796 133.80039434576517 # Ar
1340 1340 1 0.0 174.46322254222179 1143.397572332624 514.5575185878756 # Ar
1341 1341 1 0.0 967.6374496148403 437.3219825911613 766.8567709759214 # Ar
1342 1342 1 0.0 627.6924511427446 541.528173746841 1137.918288622687 # Ar
1343 1343 1 0.0 899.6657771504175 156.61198146605827 494.1015778830065 # Ar
1344 1344 1 0.0 208.25401441666222 956.9689233529708 698.8090994419565 # Ar
1345 1345 1 0.0 537.7755928850627 892.9279503153888 731.5122239114639 # Ar
1346 1346 1 0.0 58.915255415591055 109.51265670261208 447.77994056861473 # Ar
1347 1347 1 0.0 178.84705753477505 873.7738836773585 237.8920818111796 # Ar
1348 1348 1 0.0 991.7016861701143 1155.9247181542173 914.2344675229295 # Ar
1349 1349 1 0.0 500.7180560875305 587.0869283489311 304.8741517123382 # Ar
1350 1350 1 0.0 680.4313014489909 676.0259462901081 380.5285831320487 # Ar
1351 1351 1 0.0 885.3541300719495 942.507562280867 886.180226614951 # Ar
1352 1352 1 0.0 47.406236701498536 46.148438479049716 480.20453858784606 # Ar
1353 1353 1 0.0 826.2606330660763 590.8226669615977 410.52437023606075 # Ar
1354 1354 1 0.0 708.4380970010853 427.3278358117413 385.49997049807257 # Ar
1355 1355 1 0.0 357.19476211114386 671.5994930258038 740.5660673599808 # Ar
1356 1356 1 0.0 853.2282618117732 385.02240678281277 836.375964492457 # Ar
1357 1357 1 0.0 488.46513589260906 796.5674361401612 90.39457934222453 # Ar
1358 1358 1 0.0 70.77150732292928 1016.1859807061624 1068.8451707202487 # Ar
1359 1359 1 0.0 937.6337099517583 692.4088438527756 1104.0510289926967 # Ar
1360 1360 1 0.0 10.123629219206808 960.5722997331752 418.77178767230595 # Ar
1361 1361 1 0.0 689.0585779380682 459.75193169703846 921.5416939944853 # Ar
1362 1362 1 0.0 442.8858410483797 868.2513547828113 585.8734007723446 # Ar
1363 1363 1 0.0 1158.2577099245552 157.01212443487654 694.043161471781 # Ar
1364 1364 1 0.0 796.5508210777857 152.8695174491748 1167.0546523346668 # Ar
1365 1365 1 0.0 492.856712903859 559.8899223996585 738.4782860466628 # Ar
1366 1366 1 0.0 1037.5518330323011 646.8348878286987 78.3029723896897 # Ar
1367 1367 1 0.0 822.7959225055014 1139.1282857972406 121.67681094819234 # Ar
1368 1368 1 0.0 323.5548786322886 348.938667766893 631.9039319572853 # Ar
1369 1369 1 0.0 1018.7937468453159 777.8063479792447 333.8817408782207 # Ar
1370 1370 1 0.0 201.88515710046107 568.1131997119087 420.2225414761874 # Ar
1371 1371 1 0.0 1146.6980271842065 78.0460681904107 493.8404425195886 # Ar
1372 1372 1 0.0 145.65607708999272 676.0413019256595 825.6697781110921 # Ar
1373 1373 1 0.0 210.74581945789532 993.9248435229406 481.48290423347447 # Ar
1374 1374 1 0.0 837.7965248334172 218.7270624681723 61.46210617958872 # Ar
1375 1375 1 0.0 635.0801732191525 1082.935773317779 187.8253968406245 # Ar
1376 1376 1 0.0 894.6443360421861 443.0312755952734 444.2443472318663 # Ar
1377 1377 1 0.0 287.892282938883 951.8237488411123 1054.7218278066855 # Ar
1378 1378 1 0.0 745.9931955669911 957.4724551391066 1166.4804516713968 # Ar
1379 1379 1 0.0 126.34863950610905 293.86679933626056 682.7282200599561 # Ar
1380 1380 1 0.0 421.7936033716662 179.73220121558796 500.7334635162344 # Ar
1381 1381 1 0.0 99.43393724264912 461.60487422474534 35.77314988528224 # Ar
1382 1382 1 0.0 711.9194421363812 490.1789036850767 503.5325240793798 # Ar
1383 1383 1 0.0 686.080627284592 466.1926024250208 1070.609483177169 # Ar
1384 1384 1 0.0 489.09178113229 297.4727679978732 489.22118579168597 # Ar
1385 1385 1 0.0 701.6923147685859 1062.897682735372 946.4365940871718 # Ar
1386 1386 1 0.0 275.35600619003793 142.50463554255091 4.029972571956308 # Ar
1387 1387 1 0.0 942.513700719938 87.40045556897147 540.5263995191995 # Ar
1388 1388 1 0.0 856.8291774293685 244.30957489863798 354.3000208143646 # Ar
1389 1389 1 0.0 831.6853543884745 930.5812700372651 821.79404128321 # Ar
1390 1390 1 0.0 1155.3443664109564 120.95914014543004 253.44616095343923 # Ar
1391 1391 1 0.0 878.6246312944485 196.63432847115868 191.5259304713114 # Ar
1392 1392 1 0.0 936.687960346704 944.0514775528599 936.1440609047415 # Ar
1393 1393 1 0.0 1074.726012211437 337.02693623123895 342.7749958826048 # Ar
1394 1394 1 0.0 301.708400939387 980.4050401177161 639.3928464734983 # Ar
1395 1395 1 0.0 1086.7052719179417 404.5507050860745 834.4421462335052 # Ar
1396 1396 1 0.0 528.3969447210131 511.38764066590966 944.2250032407661 # Ar
1397 1397 1 0.0 695.219121099894 368.9226861537901 780.5086196188383 # Ar
1398 1398 1 0.0 80.37113811377279 1019.9626709524887 597.7288160513092 # Ar
1399 1399 1 0.0 233.1406684866225 405.12620333150386 220.64159776736602 # Ar
1400 1400 1 0.0 919.2591211679829 1004.4818393704415 430.9826889690361 # Ar
1401 1401 1 0.0 591.3035502986302 209.79313523259432 875.4668809603398 # Ar
1402 1402 1 0.0 708.1834693405134 514.8535430362955 989.3374315416954 # Ar
1403 1403 1 0.0 827.572020661242 897.4554683492968 1141.5769527180921 # Ar
1404 1404 1 0.0 160.07510789531239 952.1306302252069 708.3067295742728 # Ar
1405 1405 1 0.0 156.9640541262529 643.2062986101237 743.8720181066244 # Ar
1406 1406 1 0.0 1030.355401539557 545.510245808656 604.3495643059288 # Ar
1407 1407 1 0.0 782.2877599190485 811.1088576693153 843.8278773653734 # Ar
1408 1408 1 0.0 1022.8257630825983 1106.910714184555 621.7631769128092 # Ar
1409 1409 1 0.0 626.5595511477276 668.2355261498844 904.0056342458608 # Ar
1410 1410 1 0.0 338.3110032528693 162.9157873502684 1126.784890901819 # Ar
1411 1411 1 0.0 653.3634447081104 1161.6513353038104 413.1608249243048 # Ar
1412 1412 1 0.0 953.2778259866933 138.19060815546345 461.48918954674724 # Ar
1413 1413 1 0.0 1066.9065527358032 731.8840368725406 768.9394518934915 # Ar
1414 1414 1 0.0 915.4642190047103 842.3455141956363 321.9249875875365 # Ar
1415 1415 1 0.0 953.8847982045517 502.3239564256221 0.14590552784039743 # Ar
1416 1416 1 0.0 427.29429228843344 1043.6887198764252 920.5323533722235 # Ar
1417 1417 1 0.0 849.6975664444439 520.664551272704 1045.7823258972762 # Ar
1418 1418 1 0.0 661.2814339414267 615.3593271409617 170.09064725945083 # Ar
1419 1419 1 0.0 854.1359018138779 126.41989450697965 676.531004237224 # Ar
1420 1420 1 0.0 620.2223884534809 1020.0293971215705 498.45436519378086 # Ar
1421 1421 1 0.0 171.76043863475869 635.961803948432 866.392706191568 # Ar
1422 1422 1 0.0 422.1767933500004 357.54786937087005 902.2248165029132 # Ar
1423 1423 1 0.0 371.32141703058767 69.43365093449182 1091.659285251574 # Ar
1424 1424 1 0.0 573.1466440698727 265.6906119221711 647.7564654410583 # Ar
1425 1425 1 0.0 854.49361961047 138.70266539186534 324.35185594539945 # Ar
1426 1426 1 0.0 50.452449530172466 797.0353863368466 893.4937262892585 # Ar
1427 1427 1 0.0 518.1436151124796 774.5590820501226 133.75945553471655 # Ar
1428 1428 1 0.0 1006.0452455341409 608.0678861977135 228.47367320991472 # Ar
1429 1429 1 0.0 634.7806507677388 114.66206968502688 992.9938719247083 # Ar
1430 1430 1 0.0 489.46686669853597 1061.1121915186156 607.7913707791843 # Ar
1431 1431 1 0.0 324.5781333976933 518.5521143309167 612.7237162484344 # Ar
1432 1432 1 0.0 539.3563004593278 733.1108320377183 1171.4176516529353 # Ar
1433 1433 1 0.0 115.4158094455889 1109.3621518329076 202.6709813198464 # Ar
1434 1434 1 0.0 356.45648142362586 874.6926305238504 428.44892824641886 # Ar
1435 1435 1 0.0 58.34950659244033 111.90646791429383 345.9923922843522 # Ar
1436 1436 1 0.0 272.19897071439476 1011.0857066748499 1173.2180385691508 # Ar
1437 1437 1 0.0 111.11407577787075 160.21740342800527 89.23434324098017 # Ar
1438 1438 1 0.0 589.093580422789 1154.9932838638779 755.4771882620114 # Ar
1439 1439 1 0.0 581.5377027964423 518.2840676714808 486.2700285882252 # Ar
1440 1440 1 0.0 740.6435533385996 65.38422219908266 158.53523593849934 # Ar
1441 1441 1 0.0 121.42812711812692 562.3154302630518 157.19254760507712 # Ar
1442 1442 1 0.0 877.6407875462784 843.8476327703382 424.5530076375911 # Ar
1443 1443 1 0.0 1045.7861130392191 360.2762144558204 817.7119737425078 # Ar
1444 1444 1 0.0 435.7288697288723 446.9579810792746 667.5253794134882 # Ar
1445 1445 1 0.0 1165.304067585043 1153.799746748551 43.762607615064105 # Ar
1446 1446 1 0.0 837.5974246009135 847.7184125451339 727.7895408883776 # Ar
1447 1447 1 0.0 548.403391092768 375.2040811637944 883.7108898983312 # Ar
1448 1448 1 0.0 637.1751256397929 711.4123815904117 8.821701735910683 # Ar
1449 1449 1 0.0 611.6754629212486 940.6991587073506 1069.7438670532556 # Ar
1450 1450 1 0.0 602.5680797544671 659.6562357336228 442.6176774944434 # Ar
1451 1451 1 0.0 1066.9360179822663 390.52471667339864 771.2067806674972 # Ar
1452 1452 1 0.0 702.4242134577904 335.85701084627766 414.85281094353644 # Ar
1453 1453 1 0.0 805.8537301660634 682.1318487334097 423.54386569270247 # Ar
1454 1454 1 0.0 1093.430306631894 995.9812100955253 573.6495157192559 # Ar
1455 1455 1 0.0 790.1085578501188 352.97620855198915 1149.3428239858902 # Ar
1456 1456 1 0.0 915.5792943264952 269.238120141979 483.9027229744053 # Ar
1457 1457 1 0.0 316.03334217607284 540.998114402444 153.0006773412466 # Ar
1458 1458 1 0.0 805.6634151363013 889.0933448505675 777.4076265342013 # Ar
1459 1459 1 0.0 401.3856384365529 13.514227195436828 47.04177231742425 # Ar
1460 1460 1 0.0 913.1003144257886 5.867849375845741 754.555572038875 # Ar
1461 1461 1 0.0 810.5048265761753 553.7323562802452 850.1464100649956 # Ar
1462 1462 1 0.0 149.93361667627872 683.5730297068208 279.6235018242533 # Ar
1463 1463 1 0.0 370.2020071552914 37.18256819948278 384.0581200054777 # Ar
1464 1464 1 0.0 602.5669721414016 523.8686831307527 29.71128455764462 # Ar
1465 1465 1 0.0 349.70677819028623 984.6741341289668 877.000272871598 # Ar
1466 1466 1 0.0 710.5843841862287 748.4200400550308 1092.4298849081672 # Ar
1467 1467 1 0.0 909.8870656128727 98.1324143063848 731.1810673312051 # Ar
1468 1468 1 0.0 110.40585340852772 43.826375585665104 918.8031661752683 # Ar
1469 1469 1 0.0 890.805784490335 245.82445234907786 777.7793116709599 # Ar
1470 1470 1 0.0 553.1320617615378 1138.0043874227447 574.6926872635532 # Ar
1471 1471 1 0.0 962.0255130325913 413.72737140678674 135.3856950531125 # Ar
1472 1472 1 0.0 691.0277677921632 688.5163546176422 372.9349433247337 # Ar
1473 1473 1 0.0 878.0268089706306 1038.1930018476326 980.3543683166748 # Ar
1474 1474 1 0.0 1108.6797732645296 328.5918231158383 577.045448508363 # Ar
1475 1475 1 0.0 716.6521739760018 825.1518965643378 42.72212991537164 # Ar
1476 1476 1 0.0 976.1773694560881 1143.1625718033238 783.0379581603104 # Ar
1477 1477 1 0.0 408.4305566374844 71.36817901849142 462.1804025772423 # Ar
1478 1478 1 0.0 878.4289376567322 965.0739895672534 942.9146135194176 # Ar
1479 1479 1 0.0 711.9960011344322 410.88670726051663 317.18800684886145 # Ar
1480 1480 1 0.0 1105.48770676891 297.6229072339126 608.2986124953044 # Ar
1481 1481 1 0.0 202.64586443261155 1141.4847303840393 357.2824711537561 # Ar
1482 1482 1 0.0 84.1314168612964 848.3506817752674 350.0147435973218 # Ar
1483 1483 1 0.0 677.7923563908413 122.22177427016986 1131.9059170810697 # Ar
1484 1484 1 0.0 725.6139397512658 493.33473127695095 815.6900254929143 # Ar
1485 1485 1 0.0 16.25891641053369 134.45463808395283 616.0092174459088 # Ar
1486 1486 1 0.0 792.1503441677932 1050.5729904970942 770.3024003163332 # Ar
1487 1487 1 0.0 32.28894053177915 149.5221316363312 504.86765621345995 # Ar
1488 1488 1 0.0 600.7654678350024 51.25479832573486 427.83217011759507 # Ar
1489 1489 1 0.0 795.005807985087 170.29312295811252 672.2865566357464 # Ar
1490 1490 1 0.0 1115.3373725469235 292.99248124943887 831.3713844350184 # Ar
1491 1491 1 0.0 767.8919815137551 113.9738497024962 707.5202734989533 # Ar
1492 1492 1 0.0 684.3270004290291 1073.2877952105912 873.4125982720468 # Ar
1493 1493 1 0.0 840.7960091201447 455.0086239167382 217.45838301539078 # Ar
1494 1494 1 0.0 645.3009530458531 973.4468918963553 10.087110127870169 # Ar
1495 1495 1 0.0 466.74437917668587 1108.325657461593 921.4412036330363 # Ar
1496 1496 1 0.0 244.92153294882516 47.21764482759888 157.13489897699625 # Ar
1497 1497 1 0.0 685.4740739437825 779.2453525467993 1068.8840711078758 # Ar
1498 1498 1 0.0 331.3781255574048 56.804652098036414 6.508226075842535 # Ar
1499 1499 1 0.0 534.5820482341378 474.58256791697596 526.5357346461334 # Ar
1500 1500 1 0.0 1096.2192607651828 1139.3186332896994 242.79471785952708 # Ar
1501 1501 1 0.0 50.621323587342054 1083.6948616277894 500.507836651254 # Ar
1502 1502 1 0.0 881.3764070197993 297.0655174740707 982.9856430098213 # Ar
1503 1503 1 0.0 1167.4170355800068 1016.2292613860207 468.21000666135427 # Ar
1504 1504 1 0.0 664.8097335055394 611.5888370284127 121.64253504457771 # Ar
1505 1505 1 0.0 118.11868553228524 553.5216357563196 137.89661499542183 # Ar
1506 1506 1 0.0 595.1552130882554 652.1798731124209 324.94869669051275 # Ar
1507 1507 1 0.0 531.9242890653425 28.853689771482152 568.2794810579925 # Ar
1508 1508 1 0.0 387.55081175099235 712.7383747085865 26.74002292692787 # Ar
1509 1509 1 0.0 120.84395506174764 1075.0651986600683 370.10506557079736 # Ar
1510 1510 1 0.0 1154.1202885312287 1062.686132115152 766.238526804637 # Ar
1511 1511 1 0.0 1124.8472895404034 1015.8184441588626 808.9935253349371 # Ar
1512 1512 1 0.0 56.562544607046206 745.4771651273105 148.61737530397906 # Ar
1513 1513 1 0.0 727.8203128650789 295.1561504842125 337.46043375455884 # Ar
1514 1514 1 0.0 949.8027601829723 875.6621119172237 367.72897939961945 # Ar
1515 1515 1 0.0 29.70738797935274 360.5699857464095 995.014173550275 # Ar
1516 1516 1 0.0 654.1031932910836 1159.3578258240307 1153.1971196787067 # Ar
1517 1517 1 0.0 618.8893577335924 28.05933752100716 674.6492457399395 # Ar
1518 1518 1 0.0 643.1506958198155 607.1121405898112 1051.2280244291085 # Ar
1519 1519 1 0.0 469.3566071527863 2.544865653280802 834.4338110130515 # Ar
1520 1520 1 0.0 615.2350362731511 560.500305932047 80.4567108404954 # Ar
1521 1521 1 0.0 580.4802477906956 1061.183252141324 766.5853224393244 # Ar
1522 1522 1 0.0 1092.9556742302211 1107.2966034937897 1003.127683289561 # Ar
1523 1523 1 0.0 454.98643303885876 703.6912471879202 160.84111295803342 # Ar
1524 1524 1 0.0 976.5876308475295 609.9830699311069 522.1625531028174 # Ar
1525 1525 1 0.0 133.9543268901624 1136.6257354792397 112.93903828482165 # Ar
1526 1526 1 0.0 660.4771610789214 1024.2429504140243 926.4014391179456 # Ar
1527 1527 1 0.0 802.4747251206094 468.13545769131366 456.69931062941413 # Ar
1528 1528 1 0.0 161.66370552721372 573.3501780336986 262.56246047349606 # Ar
1529 1529 1 0.0 138.03917079571198 968.0043484805891 962.7277611674125 # Ar
1530 1530 1 0.0 860.011353369355 882.9213621915966 1150.226334880088 # Ar
1531 1531 1 0.0 94.13255232047227 84.21217301073247 97.14832068768344 # Ar
1532 1532 1 0.0 554.8518754310431 823.7212626824688 258.1857852961094 # Ar
1533 1533 1 0.0 109.9334021438221 339.2046829261086 550.7177019815337 # Ar
1534 1534 1 0.0 100.86327688440544 582.0378389161408 702.1395889421412 # Ar
1535 1535 1 0.0 574.4328294838455 1026.2395132131523 592.2940006120596 # Ar
1536 1536 1 0.0 823.9602206132909 1157.043321514656 518.4568196384139 # Ar
1537 1537 1 0.0 102.87225221273252 181.51051475544756 1109.1352343917938 # Ar
1538 1538 1 0.0 964.1700340196368 1122.4355428791287 872.5764541529933 # Ar
1539 1539 1 0.0 226.08791533927203 731.4859593107798 379.4483535971623 # Ar
1540 1540 1 0.0 734.03590513202 236.7325083425198 766.7956153246804 # Ar
1541 1541 1 0.0 102.41794292506862 233.97605562334678 681.4898326124825 # Ar
1542 1542 1 0.0 897.5524623726603 449.09069523692415 969.8576270790136 # Ar
1543 1543 1 0.0 1129.156469929772 654.9816888138531 277.5389083818974 # Ar
1544 1544 1 0.0 763.3044984991311 114.37856615214903 927.2439802870349 # Ar
1545 1545 1 0.0 562.1749761352291 766.8014775984893 914.247686244311 # Ar
1546 1546 1 0.0 1102.2306245083435 610.7255987055622 398.0770127194024 # Ar
1547 1547 1 0.0 739.8298617695318 770.799563716443 382.9191817524075 # Ar
1548 1548 1 0.0 325.0994131392156 603.7717784528701 242.67018405829612 # Ar
1549 1549 1 0.0 4.018874667889418 1124.3786871399573 505.6341557808882 # Ar
1550 1550 1 0.0 46.14739556913286 309.1013676867906 14.46162802353885 # Ar
1551 1551 1 0.0 583.888886378032 668.5687503014102 870.7614377255356 # Ar
1552 1552 1 0.0 185.8920078972774 1064.0637079449966 1101.0002153329215 # Ar
1553 1553 1 0.0 974.3651045956689 98.03095329217949 379.4519196959151 # Ar
1554 1554 1 0.0 540.5317670921486 963.2337455840348 762.5802442346022 # Ar
1555 1555 1 0.0 409.428705010493 123.21485781130248 637.4877291791446 # Ar
1556 1556 1 0.0 70.41976210363362 281.0924670047951 502.15587312209584 # Ar
1557 1557 1 0.0 367.95472182684034 507.41920362845855 152.65684893527686 # Ar
1558 1558 1 0.0 1077.9993350088723 501.8357734182001 883.8212766787397 # Ar
1559 1559 1 0.0 316.82586910438624 935.9247016886202 685.0589462075253 # Ar
1560 1560 1 0.0 785.5616230850981 768.1773346137202 1164.3177524446596 # Ar
1561 1561 1 0.0 371.79679502202276 875.6394434424976 1076.3407731767088 # Ar
1562 1562 1 0.0 692.2736109271126 939.7950465682128 462.0600251996587 # Ar
1563 1563 1 0.0 375.0185663203898 1177.2266828773093 436.03939211387416 # Ar
1564 1564 1 0.0 481.60995358424805 1108.385164282599 805.2305095233863 # Ar
1565 1565 1 0.0 591.1029193382676 454.8582556063056 59.31029089865323 # Ar
1566 1566 1 0.0 1021.7368796996187 71.47162748718821 1127.4607698006491 # Ar
1567 1567 1 0.0 391.5628076249611 803.3096040599721 618.7090881655879 # Ar
1568 1568 1 0.0 93.96782123432227 739.6986033341124 534.2697289454159 # Ar
1569 1569 1 0.0 407.81258597844874 672.2902624106256 944.8234131371108 # Ar
1570 1570 1 0.0 224.82534711592595 617.9657437861373 790.5560201326483 # Ar
1571 1571 1 0.0 721.658027671778 239.47986936338964 174.5313627351611 # Ar
1572 1572 1 0.0 746.8964559280624 1020.1263496483745 1127.6392170664417 # Ar
1573 1573 1 0.0 164.89232243854647 712.0792030650326 265.5305476737515 # Ar
1574 1574 1 0.0 144.22437328511032 961.478763724218 293.02041041834923 # Ar
1575 1575 1 0.0 987.6923172042939 662.6541752971616 1069.1308638924163 # Ar
1576 1576 1 0.0 1100.145876045103 1017.3478262115442 1116.6128794224237 # Ar
1577 1577 1 0.0 893.118448109127 708.1912651602296 897.0722788990224 # Ar
1578 1578 1 0.0 1172.557978500059 107.5655121697258 87.0701907727219 # Ar
1579 1579 1 0.0 362.1669880770613 302.2853462389404 329.99734059868655 # Ar
1580 1580 1 0.0 1045.3601623099146 1156.6023081428966 333.5885839132673 # Ar
1581 1581 1 0.0 881.320873199965 917.942430932362 106.48720595169807 # Ar
1582 1582 1 0.0 624.6090369054313 958.2560617993979 1164.3171267377613 # Ar
1583 1583 1 0.0 918.6023079228803 331.58553133837034 904.8556879008462 # Ar
1584 1584 1 0.0 298.60828967398567 654.2619631338115 440.4938419280747 # Ar
1585 1585 1 0.0 429.0788979343115 232.8669983963497 137.81714192109408 # Ar
1586 1586 1 0.0 147.89180170058594 569.504276059682 277.2590719022451 # Ar
1587 1587 1 0.0 648.358261456445 217.09155810882655 972.0778725463581 # Ar
1588 1588 1 0.0 138.92515598210562 503.5705404356376 703.5558975928988 # Ar
1589 1589 1 0.0 708.8078407649484 491.1864915960884 309.33625470829134 # Ar
1590 1590 1 0.0 666.8471805476344 107.71476779566368 570.9291983539107 # Ar
1591 1591 1 0.0 637.4205546376845 236.8900279006521 68.17835210384084 # Ar
1592 1592 1 0.0 364.71139848862015 616.3958862440495 497.2229900355327 # Ar
1593 1593 1 0.0 920.8905998652979 708.7160235456334 1007.0809519552067 # Ar
1594 1594 1 0.0 1071.9710005063212 746.2574557399921 43.75002658587498 # Ar
1595 1595 1 0.0 53.92393195557815 774.7326225929868 32.28794803614489 # Ar
1596 1596 1 0.0 420.26097854876343 408.6559635802398 874.9215106192006 # Ar
1597 1597 1 0.0 23.39691199585574 651.055035445962 975.3588458720332 # Ar
1598 1598 1 0.0 773.0662492343552 410.92497155210475 117.73681499976239 # Ar
1599 1599 1 0.0 1169.3890687778562 270.15094526087984 80.98929965927623 # Ar
1600 1600 1 0.0 648.1729776269515 1147.8731845282716 16.491414959709154 # Ar
1601 1601 1 0.0 46.306571934964 992.0323369250794 538.879237986875 # Ar
1602 1602 1 0.0 758.8119057387216 738.9893700603949 1149.2063610988416 # Ar
1603 1603 1 0.0 1066.2815707881302 715.953654075086 689.7154006998601 # Ar
1604 1604 1 0.0 767.7054287335828 524.3951855273439 54.014611757506856 # Ar
1605 1605 1 0.0 1051.53828515194 806.4281336920864 778.4926513408366 # Ar
1606 1606 1 0.0 898.7423883553479 307.38040323250334 866.1177099910934 # Ar
1607 1607 1 0.0 909.7187337390764 930.0300844596671 711.4985397859741 # Ar
1608 1608 1 0.0 779.7110089602705 1120.6476772298909 238.84654398021047 # Ar
1609 1609 1 0.0 30.387628513916308 180.58616674239286 337.5720277452606 # Ar
1610 1610 1 0.0 553.5899030478811 526.5162319736556 524.4742728044645 # Ar
1611 1611 1 0.0 765.5653700942883 64.97581138841333 646.6295581129089 # Ar
1612 1612 1 0.0 634.7088119209049 301.10751828154724 907.7705168547978 # Ar
1613 1613 1 0.0 88.56572269153514 1151.6465598023294 1045.9623048668066 # Ar
1614 1614 1 0.0 213.04659809390097 1172.7104578542976 685.9987095367917 # Ar
1615 1615 1 0.0 730.5977969737452 60.293996170904656 634.1099508827882 # Ar
1616 1616 1 0.0 962.6587244083595 665.8642331474801 564.7308424880287 # Ar
1617 1617 1 0.0 47.97604285574493 498.21838898000345 888.2643554878956 # Ar
1618 1618 1 0.0 869.5432998377997 173.2123475232932 1080.01545736177 # Ar
1619 1619 1 0.0 886.3624538063304 1026.8847898481297 572.6039071964818 # Ar
1620 1620 1 0.0 169.12870844987717 1107.7525634668248 662.6160647972712 # Ar
1621 1621 1 0.0 620.8494341179794 683.8896510938397 858.2840979278055 # Ar
1622 1622 1 0.0 759.6016205098266 834.6822694412143 459.6645008313302 # Ar
1623 1623 1 0.0 855.9558911471614 1104.0660031438376 575.7882252033498 # Ar
1624 1624 1 0.0 396.92597097556103 785.469761157246 809.7814212676661 # Ar
1625 1625 1 0.0 935.1245225113336 664.956447236064 536.5118626920492 # Ar
1626 1626 1 0.0 437.0858602305485 1163.898230473651 1098.5556758081782 # Ar
1627 1627 1 0.0 884.2830131809899 1102.006380157422 181.72575580811198 # Ar
1628 1628 1 0.0 334.79814270834805 533.0058992875471 534.4914910339668 # Ar
1629 1629 1 0.0 874.6795285469826 191.89559391603956 1072.4646730900545 # Ar
1630 1630 1 0.0 1151.043591807361 881.4536406397079 479.17844883700906 # Ar
1631 1631 1 0.0 940.1745298707314 322.29569346894766 600.0518374209206 # Ar
1632 1632 1 0.0 90.25454093886403 258.1866458511725 439.1242977815314 # Ar
1633 1633 1 0.0 706.654970928335 572.3551191524901 844.7168819027116 # Ar
1634 1634 1 0.0 945.5428200856129 77.73287306464356 596.6334242110003 # Ar
1635 1635 1 0.0 714.8475944417498 76.99044005075238 834.6929627522899 # Ar
1636 1636 1 0.0 1150.2827090258263 126.54896402411282 864.4125548233201 # Ar
1637 1637 1 0.0 907.0415421908926 292.9373156860917 944.0159039589921 # Ar
1638 1638 1 0.0 759.6599950798089 496.27166791912845 935.423325627218 # Ar
1639 1639 1 0.0 218.5279945767203 999.9588024998906 681.1161903525908 # Ar
1640 1640 1 0.0 1107.672238525468 1099.5448903207475 1154.1053102784474 # Ar
1641 1641 1 0.0 220.28444758345643 790.3670456220862 115.06010376692807 # Ar
1642 1642 1 0.0 150.74349016099575 406.82786454001086 505.2837667398214 # Ar
1643 1643 1 0.0 304.7325883465966 691.1979765101029 303.10130443252854 # Ar
1644 1644 1 0.0 528.3971466206233 223.9289347039296 851.6919973017757 # Ar
1645 1645 1 0.0 920.823236262384 220.0007956775718 731.9947954594446 # Ar
1646 1646 1 0.0 829.9605669219959 861.0498468990486 475.51278443543526 # Ar
1647 1647 1 0.0 63.45545125892042 1134.8477631524497 3.752269861371169 # Ar
1648 1648 1 0.0 175.17912538804475 312.3482109581528 613.7851084544996 # Ar
1649 1649 1 0.0 1151.3307669197645 425.3318388036625 844.3460335830968 # Ar
1650 1650 1 0.0 819.5560790173157 783.7066236386056 731.4308539677453 # Ar
1651 1651 1 0.0 249.76260336134368 388.2738197075172 486.92100804261327 # Ar
1652 1652 1 0.0 261.79150618720985 779.2891861051825 257.237328966644 # Ar
1653 1653 1 0.0 1065.4219130415468 329.6190200420204 343.2467437989388 # Ar
1654 1654 1 0.0 1176.6872592370692 321.7396839393005 235.20567162651716 # Ar
1655 1655 1 0.0 281.1720253122883 106.36871278059634 110.06044450921621 # Ar
1656 1656 1 0.0 927.2211053358641 946.6205567195799 44.331753181783334 # Ar
1657 1657 1 0.0 969.1789898777491 254.12625820238037 28.494309473992974 # Ar
1658 1658 1 0.0 157.46199502860162 801.8907683650865 344.31635512662666 # Ar
1659 1659 1 0.0 453.1359398341902 118.22958413774234 1081.3956468168517 # Ar
1660 1660 1 0.0 767.8306673158061 871.8878371109822 686.8357819615927 # Ar
1661 1661 1 0.0 584.0933510871556 954.8098598609741 1146.5931478505013 # Ar
1662 1662 1 0.0 700.7498155283516 706.5518671327791 799.9241851834003 # Ar
1663 1663 1 0.0 114.00686345123646 737.5401983675638 540.8102929810861 # Ar
1664 1664 1 0.0 624.8363536292295 724.7540440778788 884.6579851206177 # Ar
1665 1665 1 0.0 809.3825195662837 101.2726711388031 299.61259809754864 # Ar
1666 1666 1 0.0 790.7114558603319 947.8016482570828 440.895679161877 # Ar
1667 1667 1 0.0 468.61301588011224 141.99291521547252 453.6276734770301 # Ar
1668 1668 1 0.0 424.10559794392606 312.48281380219686 987.6193365556587 # Ar
1669 1669 1 0.0 1070.334009093241 379.01628804484875 1078.6085932918754 # Ar
1670 1670 1 0.0 971.1424417292494 1062.495461940775 179.5846737232556 # Ar
1671 1671 1 0.0 130.5285324517048 937.4944817367483 445.91893649711267 # Ar
1672 1672 1 0.0 142.55714986811756 989.1103432642242 566.7361134041694 # Ar
1673 1673 1 0.0 9.314540466733513 101.82349505283223 896.1399428051943 # Ar
1674 1674 1 0.0 582.5639934674557 886.2318667762831 628.027607952516 # Ar
1675 1675 1 0.0 1175.042425429235 561.0106639220585 462.20708836866044 # Ar
1676 1676 1 0.0 780.7831515240252 410.2214595214435 142.8536379958603 # Ar
1677 1677 1 0.0 1107.9332762609845 1142.404694031109 264.65396343118033 # Ar
1678 1678 1 0.0 346.7192912871711 694.7215753450286 915.0507229206786 # Ar
1679 1679 1 0.0 354.8140382254756 317.91682362149953 291.25936645456306 # Ar
1680 1680 1 0.0 941.8680955581127 587.2790278508119 1045.3453364204886 # Ar
1681 1681 1 0.0 380.61434289317486 963.9152290910108 676.4680168202659 # Ar
1682 1682 1 0.0 1095.0709497852351 1128.4118505136203 860.3836839616423 # Ar
1683 1683 1 0.0 588.1548741810453 1103.81169118392 1141.3778380016538 # Ar
1684 1684 1 0.0 801.9089814253733 1040.969697792653 1088.0719161179331 # Ar
1685 1685 1 0.0 320.27606074557366 1138.8493882265489 988.2945603744454 # Ar
1686 1686 1 0.0 449.3043826438586 966.2162370564859 899.6331445685952 # Ar
1687 1687 1 0.0 661.4587241796612 679.0942250384725 256.15435033125505 # Ar
1688 1688 1 0.0 594.292008511286 273.7340412795049 1016.3148050172246 # Ar
1689 1689 1 0.0 958.4542373249853 990.6268905866632 869.9679959200431 # Ar
1690 1690 1 0.0 1054.765284582081 814.3393680747222 906.4983841248853 # Ar
1691 1691 1 0.0 429.0034332157463 590.3226937935286 340.5237316457261 # Ar
1692 1692 1 0.0 33.48490787253535 375.01044737503867 1107.8519295363108 # Ar
1693 1693 1 0.0 927.495307645923 420.85510239459336 543.6024433171424 # Ar
1694 1694 1 0.0 325.3634764386672 653.8780605802208 798.5936902929936 # Ar
1695 1695 1 0.0 1178.0141766959898 255.03227536128904 1059.194704037539 # Ar
1696 1696 1 0.0 595.8642191429235 958.962370281134 186.4954669303743 # Ar
1697 1697 1 0.0 920.8432888207769 499.56827239154984 717.3412636163098 # Ar
1698 1698 1 0.0 1110.1813342506389 324.29491198321927 28.479652186509416 # Ar
1699 1699 1 0.0 649.6864030317598 751.9277069721853 512.9730743346703 # Ar
1700 1700 1 0.0 346.09190887474716 912.0511264622439 589.9273142613963 # Ar
1701 1701 1 0.0 1015.06628342769 699.9301739041597 452.72088644458256 # Ar
1702 1702 1 0.0 217.0167329618064 217.30443689275867 1110.7632271920845 # Ar
1703 1703 1 0.0 1091.4773488649591 1024.628379858476 1007.0122266043414 # Ar
1704 1704 1 0.0 636.8061736362665 595.8145346068306 571.6315583922897 # Ar
1705 1705 1 0.0 1151.2981009176765 187.92333656251304 732.2527892221926 # Ar
1706 1706 1 0.0 280.37164170386706 249.66022256742437 981.4082853014761 # Ar
1707 1707 1 0.0 162.65953040534654 705.9228944707097 378.1649861969909 # Ar
1708 1708 1 0.0 1023.4774211188285 262.6990462095342 360.8607260939914 # Ar
1709 1709 1 0.0 175.83825946017905 538.777472302798 591.2506609121303 # Ar
1710 1710 1 0.0 1018.638819859218 797.087085992162 1129.6972620347033 # Ar
1711 1711 1 0.0 1145.4827280748543 244.2349258962966 850.0409919964355 # Ar
1712 1712 1 0.0 587.7446199879257 775.8301829302438 124.32226943792764 # Ar
1713 1713 1 0.0 184.95109183598782 4.444255108511527 1.5902732776094843 # Ar
1714 1714 1 0.0 780.5373453732217 969.1284024081447 454.4238030676747 # Ar
1715 1715 1 0.0 921.6895893724296 1034.2101289497714 33.938113450505924 # Ar
1716 1716 1 0.0 800.9824110141246 290.59594193527033 957.0801369506056 # Ar
1717 1717 1 0.0 1032.549768370128 660.0924708018999 543.9141511359167 # Ar
1718 1718 1 0.0 868.9099065337812 441.85203273695225 177.88994268539082 # Ar
1719 1719 1 0.0 341.91003912578395 142.04559370361298 853.3685014049477 # Ar
1720 1720 1 0.0 726.1085085703841 995.7594523664144 855.860393408142 # Ar
1721 1721 1 0.0 218.11279035346337 898.4124484613322 585.7489205522453 # Ar
1722 1722 1 0.0 1005.093191640038 857.20890702579 650.8561367056219 # Ar
1723 1723 1 0.0 959.8044398491642 1052.6461387061986 497.15097058838336 # Ar
1724 1724 1 0.0 62.67456308551625 359.2744161859129 268.8104493168806 # Ar
1725 1725 1 0.0 339.4703470675389 259.650378931481 554.1748716770704 # Ar
1726 1726 1 0.0 486.87585387491345 184.22883079461468 234.69575348411 # Ar
1727 1727 1 0.0 173.04002949771106 753.7195092623799 1157.5014781485443 # Ar
1728 1728 1 0.0 720.4463949421382 1014.7168156389082 279.78848921982694 # Ar
1729 1729 1 0.0 488.628121020014 895.5452650845236 727.3929824136609 # Ar
1730 1730 1 0.0 86.14589346295374 79.22573783658753 938.4715691102233 # Ar
1731 1731 1 0.0 466.8964748719615 475.01251889118186 856.9618153397789 # Ar
1732 1732 1 0.0 233.09862324844678 1058.7151651819327 133.1057032277164 # Ar
1733 1733 1 0.0 976.7920383501064 251.8977618238769 1042.1754609790262 # Ar
1734 1734 1 0.0 182.5607227616424 1041.8707347144882 1053.8783776047615 # Ar
1735 1735 1 0.0 161.9864433522614 223.66733899997868 755.5083802475957 # Ar
1736 1736 1 0.0 569.1654167759813 243.4046544218875 378.97452945365194 # Ar
1737 1737 1 0.0 867.9920005412481 782.4926157423341 247.39301844338414 # Ar
1738 1738 1 0.0 624.361770257738 602.8357070654547 287.7224919116389 # Ar
1739 1739 1 0.0 470.14392158396873 1099.7081981426861 108.67094261637797 # Ar
1740 1740 1 0.0 83.27316926603844 524.6331558867927 973.6538285279248 # Ar
1741 1741 1 0.0 816.27699384466 1171.1829630390507 1165.7781869803482 # Ar
1742 1742 1 0.0 732.35645787844 454.8774562515733 519.5007762367494 # Ar
1743 1743 1 0.0 1105.7865803859281 790.4392285429888 822.0302226991582 # Ar
1744 1744 1 0.0 1013.6574223088787 133.4540952173389 848.9800026028175 # Ar
1745 1745 1 0.0 56.72496549126916 45.31898157443029 900.8370874558989 # Ar
1746 1746 1 0.0 532.0332629779512 768.3507831059602 761.9532084986204 # Ar
1747 1747 1 0.0 665.7903241502071 347.31868519199855 942.732459280305 # Ar
1748 1748 1 0.0 520.9517059433949 766.8584705539912 17.502926385064587 # Ar
1749 1749 1 0.0 579.3027605011309 767.3612185303094 436.3491697368395 # Ar
1750 1750 1 0.0 864.5015956234355 660.1294423449324 287.22106558497836 # Ar
1751 1751 1 0.0 48.37650986172144 926.2027796059176 848.7977035557695 # Ar
1752 1752 1 0.0 737.7610627608078 356.90323228523783 379.5875533226746 # Ar
1753 1753 1 0.0 1082.6872815561742 152.93102272376345 890.857378931258 # Ar
1754 1754 1 0.0 254.6454393600155 776.620253849329 21.65932873275578 # Ar
1755 1755 1 0.0 991.345388752381 851.036678387715 288.9834863431094 # Ar
1756 1756 1 0.0 554.9962682512911 251.27463651814773 866.0151485204595 # Ar
1757 1757 1 0.0 79.41641664317481 943.2498421744727 872.6173736341742 # Ar
1758 1758 1 0.0 173.0248300608581 738.2831840354546 946.2717740071621 # Ar
1759 1759 1 0.0 79.42010164685013 508.2929169990252 747.2436673690836 # Ar
1760 1760 1 0.0 41.21403448110612 698.5797042584838 342.3858084644346 # Ar
1761 1761 1 0.0 818.899850186546 82.9456294793493 506.8193194431321 # Ar
1762 1762 1 0.0 363.70851587141584 441.00224486934815 742.1652438158003 # Ar
1763 1763 1 0.0 162.57556962888128 703.3197132655855 632.0510347694762 # Ar
1764 1764 1 0.0 993.3917444763015 405.72960821143 788.3934160078784 # Ar
1765 1765 1 0.0 410.8561646192902 534.508942391518 201.20411739774005 # Ar
1766 1766 1 0.0 1027.3542330820874 655.8167693160025 787.2860573962821 # Ar
1767 1767 1 0.0 314.69420210423186 213.23050578793737 586.2016965634099 # Ar
1768 1768 1 0.0 547.3218692152035 325.7692225306476 101.81000693933882 # Ar
1769 1769 1 0.0 1012.6872530928513 895.18786825681 304.8162793998801 # Ar
1770 1770 1 0.0 238.19874400958224 737.031873061222 922.652264937685 # Ar
1771 1771 1 0.0 903.631715052216 553.6878948949831 524.1137067770421 # Ar
1772 1772 1 0.0 763.7463943352661 1104.221179944028 266.79558977693614 # Ar
1773 1773 1 0.0 605.8648205245715 843.2654257504386 277.96841064530435 # Ar
1774 1774 1 0.0 139.8428302249932 540.7869229179239 77.4900133304096 # Ar
1775 1775 1 0.0 434.44197641722087 565.2204868119356 831.8879052449182 # Ar
1776 1776 1 0.0 1116.6176417664412 822.8771989856062 815.3011550815761 # Ar
1777 1777 1 0.0 944.8594811631847 679.4324310456354 803.9905415295159 # Ar
1778 1778 1 0.0 277.8325919242226 1045.3702922534574 827.5095379516947 # Ar
1779 1779 1 0.0 431.38187683021755 598.5961019716068 718.3126172053657 # Ar
1780 1780 1 0.0 1164.9759534057675 627.7559802568086 229.64828985165298 # Ar
1781 1781 1 0.0 1089.4459999612563 577.1129819520055 917.2403535821112 # Ar
1782 1782 1 0.0 756.5661432022303 270.5432140959714 79.89994453031397 # Ar
1783 1783 1 0.0 1024.2051216108496 1089.7070822770258 817.0374849305708 # Ar
1784 1784 1 0.0 1008.3647656208431 699.1807207861881 34.34627012878836 # Ar
1785 1785 1 0.0 332.1015247882888 596.4527398483524 694.7228243348881 # Ar
1786 1786 1 0.0 1039.565089717686 170.18375682750846 1136.977636961942 # Ar
1787 1787 1 0.0 996.6097120873629 1090.0293313780214 509.1255093953553 # Ar
1788 1788 1 0.0 133.70179647860172 715.779221323653 194.4984558048807 # Ar
1789 1789 1 0.0 860.0254773222387 704.7916005881073 968.4072377442653 # Ar
1790 1790 1 0.0 348.1274535711453 737.5088789016668 843.0597778939496 # Ar
1791 1791 1 0.0 306.52951336536717 583.5680755476002 237.3244553085501 # Ar
1792 1792 1 0.0 140.05419733076164 844.7411632588213 369.86197164577163 # Ar
1793 1793 1 0.0 703.9859495855725 20.110465021612196 1099.5596777818494 # Ar
1794 1794 1 0.0 1004.998886076788 0.2877980027720876 1082.7775258702873 # Ar
1795 1795 1 0.0 394.54368005278076 326.49621008120204 1175.9627601270809 # Ar
1796 1796 1 0.0 266.7493590871905 17.26059502061525 588.006020573722 # Ar
1797 1797 1 0.0 172.2725721237064 994.1146446615712 84.32042651390944 # Ar
1798 1798 1 0.0 1001.1760308733809 357.62687375223857 500.5077439327488 # Ar
1799 1799 1 0.0 329.25309407930405 1132.0474067687574 933.9840396913371 # Ar
1800 1800 1 0.0 1116.2584288341882 134.42997811370728 962.9234847134414 # Ar
1801 1801 1 0.0 1155.2620584485508 838.560515979411 345.1094363383726 # Ar
1802 1802 1 0.0 11.770109710081954 758.115776789006 616.967863175817 # Ar
1803 1803 1 0.0 238.7156622056029 106.84547098699493 238.02824617142034 # Ar
1804 1804 1 0.0 306.68936925846384 387.3331192943867 303.1285107679982 # Ar
1805 1805 1 0.0 599.2255602924381 87.40647217259898 904.9987108792018 # Ar
1806 1806 1 0.0 1034.2555019836411 941.7192906062982 112.70537874295111 # Ar
1807 1807 1 0.0 308.42875655385126 502.54573984470954 1164.7158995481227 # Ar
1808 1808 1 0.0 511.514357683309 284.96625327669705 14.484217802134378 # Ar
1809 1809 1 0.0 327.61348043802263 500.23846647651277 661.6985917354508 # Ar
1810 1810 1 0.0 572.4522590338736 998.6443664762802 796.489998154574 # Ar
1811 1811 1 0.0 184.71730960488384 1012.7706069005716 939.8373994617654 # Ar
1812 1812 1 0.0 204.43179435067668 6.862150001726234 390.56329517402526 # Ar
1813 1813 1 0.0 576.7424578249229 808.8837460311108 1117.133058359961 # Ar
1814 1814 1 0.0 759.8181676161722 121.74325757842658 941.4666959852552 # Ar
1815 1815 1 0.0 956.4714904307539 395.48268106496516 527.7749247492004 # Ar
1816 1816 1 0.0 658.1206419648648 7.526278882891624 480.1295480566502 # Ar
1817 1817 1 0.0 870.5852303579933 204.06299427182634 307.3702556934517 # Ar
1818 1818 1 0.0 555.4929156560845 1129.7149681335707 902.4194412748718 # Ar
1819 1819 1 0.0 884.041085570082 1.9715025334349239 1176.6114816925017 # Ar
1820 1820 1 0.0 460.4621915041323 113.86680222745056 31.138321055095112 # Ar
1821 1821 1 0.0 1036.324387801884 616.5397208683606 191.3812092735865 # Ar
1822 1822 1 0.0 1110.2535431549295 22.304158923719612 76.62085961313596 # Ar
1823 1823 1 0.0 6.373284862535095 69.92534587524229 42.1429163708524 # Ar
1824 1824 1 0.0 390.25889291727145 552.5213685694398 530.2017389992585 # Ar
1825 1825 1 0.0 489.9168786514704 253.36081992354377 437.8693344533582 # Ar
1826 1826 1 0.0 562.1223690889924 376.3867493086066 819.0763995346796 # Ar
1827 1827 1 0.0 1036.3131312044295 554.170522898127 467.7140911005276 # Ar
1828 1828 1 0.0 730.9650408014866 1147.1369620092598 935.5347094521152 # Ar
1829 1829 1 0.0 398.40133143268355 590.4350631899825 348.4833538088952 # Ar
1830 1830 1 0.0 443.7936268837826 116.70101560641832 995.2533006032982 # Ar
1831 1831 1 0.0 718.953964339077 261.7168536244982 664.1048326161637 # Ar
1832 1832 1 0.0 999.1538203615106 1129.901831741727 58.67305345525695 # Ar
1833 1833 1 0.0 993.1402207960178 243.88614891552058 444.6155700360571 # Ar
1834 1834 1 0.0 652.6043373506199 474.4415614652516 1132.7145411745644 # Ar
1835 1835 1 0.0 396.2481012602371 203.26327115046908 805.8296693932915 # Ar
1836 1836 1 0.0 662.3348051816336 127.0846552464539 404.42471240585616 # Ar
1837 1837 1 0.0 1141.019093978311 260.3565637398012 526.4114601523602 # Ar
1838 1838 1 0.0 688.5149047122899 687.2555427508413 1131.9543194392052 # Ar
1839 1839 1 0.0 837.604249488362 671.4092083793754 90.84263251503579 # Ar
1840 1840 1 0.0 102.4722131364618 833.2077111419214 866.5069630125339 # Ar
1841 1841 1 0.0 182.06739950251895 483.7975796628648 156.48220504192713 # Ar
1842 1842 1 0.0 508.1873694982638 417.97962038821265 892.9452490647176 # Ar
1843 1843 1 0.0 609.7856835360066 881.5953255875171 62.15174537700422 # Ar
1844 1844 1 0.0 543.0394923943757 723.5283255524268 697.0002045063852 # Ar
1845 1845 1 0.0 296.1921152773863 970.9158337644625 1037.5152230935441 # Ar
1846 1846 1 0.0 258.966846825351 1092.2779314944642 408.2724614474937 # Ar
1847 1847 1 0.0 628.5832460103275 261.6937539361454 466.17668419403554 # Ar
1848 1848 1 0.0 374.4497861553886 81.05949313722532 1036.5782423016406 # Ar
1849 1849 1 0.0 277.82582858311144 724.3398092211664 1028.4324863242514 # Ar
1850 1850 1 0.0 913.7239373689914 75.36860786288514 259.49237458054415 # Ar
1851 1851 1 0.0 387.2042912249738 278.90863884660854 929.7600975827894 # Ar
1852 1852 1 0.0 878.5132489866334 610.6437326602963 869.123565739862 # Ar
1853 1853 1 0.0 556.8995073375792 744.0511847301781 135.92207903425253 # Ar
1854 1854 1 0.0 80.43749418812929 335.1094253366391 1015.7750689157514 # Ar
1855 1855 1 0.0 646.4498573585604 346.71509666009797 199.9932764278032 # Ar
1856 1856 1 0.0 1092.4134860415554 543.7653283670777 384.2626967959685 # Ar
1857 1857 1 0.0 143.89758029687934 697.9706973726171 912.8883294597669 # Ar
1858 1858 1 0.0 581.507703136967 417.63623747452493 714.2302930288539 # Ar
1859 1859 1 0.0 1000.4586888665954 66.41953897568875 179.3617841920465 # Ar
1860 1860 1 0.0 654.273161542955 575.0609468334351 442.4511548923891 # Ar
1861 1861 1 0.0 570.0701428029661 531.4558981122562 920.2734774208172 # Ar
1862 1862 1 0.0 122.12635003805887 143.11737021318888 836.5081077636112 # Ar
1863 1863 1 0.0 218.5038139465538 271.07870907898536 1075.8860890451363 # Ar
1864 1864 1 0.0 611.3663548995421 124.87097404025705 687.1986341530006 # Ar
1865 1865 1 0.0 681.9033643219227 398.1795057143057 488.1331173543436 # Ar
1866 1866 1 0.0 116.38846861017086 835.7160426368162 214.85610261151635 # Ar
1867 1867 1 0.0 533.1194479672215 63.781938390867204 1027.8842415195984 # Ar
1868 1868 1 0.0 57.11940737750707 1085.1640655368312 156.4490765826243 # Ar
1869 1869 1 0.0 830.9526372218436 256.0418349971261 870.4740668979592 # Ar
1870 1870 1 0.0 633.4189773649667 428.35091681507924 483.8036685515582 # Ar
1871 1871 1 0.0 1170.337131755069 555.6369895260232 83.00149290714313 # Ar
1872 1872 1 0.0 627.581829473317 730.0679721702551 827.6666765340882 # Ar
1873 1873 1 0.0 745.295834719567 21.013908844288075 168.16944923103853 # Ar
1874 1874 1 0.0 1139.7258993429787 966.8113976965761 511.6369572234964 # Ar
1875 1875 1 0.0 737.3506912289487 127.36483167619518 623.2393305647988 # Ar
1876 1876 1 0.0 713.0826040161608 297.2481607289333 623.2716303890176 # Ar
1877 1877 1 0.0 822.5155939374542 1148.3748093066993 1135.1061132315842 # Ar
1878 1878 1 0.0 41.81168500766919 107.6039678997002 1026.4615683577022 # Ar
1879 1879 1 0.0 472.17569989519336 571.6061457046367 629.7223696977476 # Ar
1880 1880 1 0.0 630.2400413920326 950.2505623553192 442.19975271517336 # Ar
1881 1881 1 0.0 339.48002847407184 1007.0608503044227 1079.4565942804456 # Ar
1882 1882 1 0.0 447.87152020563485 769.2212769306008 356.7418514796696 # Ar
1883 1883 1 0.0 418.9043211163258 1121.44981982238 741.6398334103883 # Ar
1884 1884 1 0.0 513.8991388860195 830.8764238948845 238.21186446807005 # Ar
1885 1885 1 0.0 657.0358302195432 709.6869467886322 1170.079852611733 # Ar
1886 1886 1 0.0 714.6266360368111 77.70510684126582 798.6620931406151 # Ar
1887 1887 1 0.0 871.78573193495 81.44265843191452 692.4182378307331 # Ar
1888 1888 1 0.0 955.9734378017348 511.28216969960346 421.0659860635893 # Ar
1889 1889 1 0.0 265.4369118283444 8.055831515737195 120.58455419439775 # Ar
1890 1890 1 0.0 897.2226983819237 482.75310997208015 585.1794361894878 # Ar
1891 1891 1 0.0 1059.3079813543761 1039.8612839465152 205.1875786564336 # Ar
1892 1892 1 0.0 210.0020036933507 775.1266405139584 1023.4685457459168 # Ar
1893 1893 1 0.0 565.6661816866476 381.55951842453726 488.54894856077124 # Ar
1894 1894 1 0.0 535.3622968117966 336.0702954403903 22.35985218674071 # Ar
1895 1895 1 0.0 867.8358643499586 332.26468397396326 984.8689085690439 # Ar
1896 1896 1 0.0 744.7454026511961 750.8885188187047 827.672449454986 # Ar
1897 1897 1 0.0 774.925493535724 925.1393570473027 800.2001011246704 # Ar
1898 1898 1 0.0 715.3269239066802 287.43824147214247 242.38795140751515 # Ar
1899 1899 1 0.0 420.2592172746635 540.6479501322469 301.637969883742 # Ar
1900 1900 1 0.0 870.6080808940135 706.7813853331835 1140.1571855705486 # Ar
1901 1901 1 0.0 297.02639320535087 903.3956356339612 528.6013380900606 # Ar
1902 1902 1 0.0 486.3878652431178 811.3444400680372 193.06201387071548 # Ar
1903 1903 1 0.0 13.808165658084937 36.57266834243575 171.4566246825663 # Ar
1904 1904 1 0.0 823.651172121952 806.3168449901846 864.6578486818045 # Ar
1905 1905 1 0.0 90.63639753379758 445.27525464785464 707.047763726761 # Ar
1906 1906 1 0.0 304.4381087025546 143.93826103086565 857.4217786447504 # Ar
1907 1907 1 0.0 106.37259667669943 572.4743534178626 489.5277116125204 # Ar
1908 1908 1 0.0 893.0133217388164 585.504975162195 995.1123218217057 # Ar
1909 1909 1 0.0 1004.5549286459492 134.96424621712328 125.84475089348338 # Ar
1910 1910 1 0.0 747.4996408706996 835.55500865444 256.2471069506611 # Ar
1911 1911 1 0.0 705.9004337286487 165.72130217194714 478.60765023727566 # Ar
1912 1912 1 0.0 778.2418391544776 1168.9061599670395 496.8305579689322 # Ar
1913 1913 1 0.0 1065.29017907641 1126.9287898383002 520.0358837348655 # Ar
1914 1914 1 0.0 592.0744402399832 381.2895753380533 570.7530246439533 # Ar
1915 1915 1 0.0 360.5484708604211 258.5657737826382 452.9851717426243 # Ar
1916 1916 1 0.0 707.7350711511275 211.974495795097 421.5611030260126 # Ar
1917 1917 1 0.0 810.8043846250154 926.5793880737598 744.30086565978 # Ar
1918 1918 1 0.0 7.930677216465253 635.3437184815805 1058.778312682183 # Ar
1919 1919 1 0.0 115.77666945973067 230.20384198900942 223.58091017649207 # Ar
1920 1920 1 0.0 534.2396104703049 206.67140537591723 783.3518059479006 # Ar
1921 1921 1 0.0 1136.0072932179576 867.692441463489 621.4145757801562 # Ar
1922 1922 1 0.0 1113.1711457895697 1029.3967749400006 1096.3488334593644 # Ar
1923 1923 1 0.0 73.12532431634084 839.9811773171381 20.4170791882731 # Ar
1924 1924 1 0.0 1021.4518336908097 677.6240913442243 254.80289401021903 # Ar
1925 1925 1 0.0 500.4749667176505 417.85828341756655 1028.0624284190947 # Ar
1926 1926 1 0.0 175.2271753784917 958.9600059412201 862.0059315093765 # Ar
1927 1927 1 0.0 975.1180748618242 472.2976108776377 66.99584665473039 # Ar
1928 1928 1 0.0 458.76451924497826 258.3829793124821 679.626073225105 # Ar
1929 1929 1 0.0 942.1340293369726 42.981262363531094 806.1344072151603 # Ar
1930 1930 1 0.0 1141.0306171222358 506.14241459330384 738.1612210071637 # Ar
1931 1931 1 0.0 95.3807938192636 981.8889929245411 936.6884853488683 # Ar
1932 1932 1 0.0 725.8518277296106 575.0447450404263 300.60721062632365 # Ar
1933 1933 1 0.0 1047.3207962361591 1016.2036360681544 838.1237602045567 # Ar
1934 1934 1 0.0 169.92105451950025 321.548913782732 661.8311890711664 # Ar
1935 1935 1 0.0 665.6206859206962 851.1293527471637 2.024408469742778 # Ar
1936 1936 1 0.0 854.7991409019918 867.4930023558697 690.3026905651768 # Ar
1937 1937 1 0.0 407.32095315338756 210.24613477803072 987.5380117013021 # Ar
1938 1938 1 0.0 480.8358974731532 28.87443119187428 41.42115480518345 # Ar
1939 1939 1 0.0 67.05433450603607 782.2238394577021 232.42547366335899 # Ar
1940 1940 1 0.0 706.862672414507 565.5182919464967 315.88577454758604 # Ar
1941 1941 1 0.0 635.8060350994284 717.4431838075126 1108.0494592909886 # Ar
1942 1942 1 0.0 660.8528275421959 1139.9338688098478 798.976157411666 # Ar
1943 1943 1 0.0 419.6198455297722 467.97499581903224 1054.4715592016696 # Ar
1944 1944 1 0.0 646.4051665672564 1059.580354045139 623.7526705232789 # Ar
1945 1945 1 0.0 148.85503097199447 121.91204191074634 279.7321489904948 # Ar
1946 1946 1 0.0 688.2691142361848 1059.1021562856454 623.2838525290969 # Ar
1947 1947 1 0.0 169.4389689345096 838.2994286043945 622.6929644796606 # Ar
1948 1948 1 0.0 953.084440494428 848.6155443319224 587.7939455491575 # Ar
1949 1949 1 0.0 1034.4926316432086 994.2149830433809 369.333737418676 # Ar
1950 1950 1 0.0 1035.0783056667588 969.3352031487154 1116.1982657924693 # Ar
1951 1951 1 0.0 434.82978964988956 719.2411665138654 66.69895189039134 # Ar
1952 1952 1 0.0 713.5352362147762 604.9398781440041 267.7459156588782 # Ar
1953 1953 1 0.0 780.869009850987 372.94476624187035 295.61721600201525 # Ar
1954 1954 1 0.0 130.8478033534223 1048.1905918892494 121.51769854976386 # Ar
1955 1955 1 0.0 539.8087112395398 1095.7497502798149 917.513941729549 # Ar
1956 1956 1 0.0 227.0179704342212 212.43689237804185 1051.215764978552 # Ar
1957 1957 1 0.0 422.34994049324416 754.8345080174455 489.26464611458886 # Ar
1958 1958 1 0.0 1020.9161875404474 1130.4735839120895 251.72066287101507 # Ar
1959 1959 1 0.0 521.1255656665189 609.1816311680656 190.27288009440494 # Ar
1960 1960 1 0.0 752.1146879843352 1097.4547923168436 914.1792045923547 # Ar
1961 1961 1 0.0 865.8707992942091 729.448340095756 310.8902942838488 # Ar
1962 1962 1 0.0 538.164919554546 432.73434529512974 539.8047841601017 # Ar
1963 1963 1 0.0 261.6087900941345 719.9908390895592 1148.2945416284294 # Ar
1964 1964 1 0.0 852.682896417726 563.3907672950183 497.16384636369924 # Ar
1965 1965 1 0.0 620.795205622722 506.24040105589273 1140.2694986919043 # Ar
1966 1966 1 0.0 806.2372701757364 1030.5456442654556 22.0048880313062 # Ar
1967 1967 1 0.0 716.500581156324 163.68885701708172 543.5289683236346 # Ar
1968 1968 1 0.0 315.17930697138087 88.39400576944345 653.2544550576841 # Ar
1969 1969 1 0.0 706.8270359310874 855.7110145968813 683.308638296165 # Ar
1970 1970 1 0.0 747.6151652159759 280.5126185179105 533.7952018631842 # Ar
1971 1971 1 0.0 131.62776821240186 258.8579290468939 490.8466791042665 # Ar
1972 1972 1 0.0 832.6488812425442 982.7813505667986 1043.4745162419617 # Ar
1973 1973 1 0.0 301.46642948693216 1004.7693783862486 268.4438725345243 # Ar
1974 1974 1 0.0 754.8859343464561 72.13679478741138 801.2198961035509 # Ar
1975 1975 1 0.0 548.3531208075129 1157.5970630964437 281.61526527537706 # Ar
1976 1976 1 0.0 113.74177302439612 125.38931726531037 299.193103185206 # Ar
1977 1977 1 0.0 422.1494018522014 207.18730110875117 247.84750109132628 # Ar
1978 1978 1 0.0 564.5632641689477 948.3980532291354 7.590934204127206 # Ar
1979 1979 1 0.0 983.7394575467026 1094.8572576503518 339.34215207109617 # Ar
1980 1980 1 0.0 1176.6431167007897 985.4396055192196 618.3808189973071 # Ar
1981 1981 1 0.0 583.9514976435269 775.8371090112943 619.7279363970789 # Ar
1982 1982 1 0.0 838.1933726087199 710.9436777013202 1126.242384019169 # Ar
1983 1983 1 0.0 125.38515814609029 331.2305747222482 671.845595310505 # Ar
1984 1984 1 0.0 236.9666136455906 638.5478526116973 789.3424978392852 # Ar
1985 1985 1 0.0 143.65307072393196 980.7351793337853 446.73849356298996 # Ar
1986 1986 1 0.0 892.86316251543 635.803825931974 373.70009116939434 # Ar
1987 1987 1 0.0 560.0573466489493 1106.6567447026084 111.7718624898991 # Ar
1988 1988 1 0.0 392.6317234575331 617.0519232418883 783.9360623328178 # Ar
1989 1989 1 0.0 541.6795768797554 200.4752249930165 739.0118599498718 # Ar
1990 1990 1 0.0 1076.2446113983376 75.71401864699291 41.90570557213675 # Ar
1991 1991 1 0.0 368.14576953539216 495.48056483517587 827.0180413944137 # Ar
1992 1992 1 0.0 282.0517439257543 5.926844980610306 951.3399097971712 # Ar
1993 1993 1 0.0 980.2685527685851 1045.71120470753 128.2427201888398 # Ar
1994 1994 1 0.0 1054.0722152244475 1153.1532021290118 879.7919371290558 # Ar
1995 1995 1 0.0 103.52752639939104 942.6728321779694 258.9189019979158 # Ar
1996 1996 1 0.0 1164.570549211155 91.39009574687795 1056.938775825321 # Ar
1997 1997 1 0.0 382.35372666833626 439.2647777464957 658.4795222587767 # Ar
1998 1998 1 0.0 382.7509514456622 63.44044754997453 659.5003173599571 # Ar
1999 1999 1 0.0 555.70593843349 798.150067228005 847.0978259147862 # Ar
2000 2000 1 0.0 1087.0529800524885 486.2960073593872 68.65671734489403 # Ar
