LAMMPS data file -- atom_style full -- generated by chemfiles
2000 atoms
0 bonds
0 angles
0 dihedrals
0 impropers
1 atom types
0 bond types
0 angle types
0 dihedral types
0 improper types
0.00000000 1240.21859 xlo xhi
0.00000000 1240.21859 ylo yhi
0.00000000 1240.21859 zlo zhi

# Pair Coeffs
# 1 Ar

Masses

1 39.948 # Ar

Atoms # full

1 1 1 0.0 301.5070878018516 39.98289224154452 117.11633633859248 # Ar
2 2 1 0.0 634.197793135634 860.5422667647558 299.2629231657461 # Ar
3 3 1 0.0 248.18535390661884 520.088112155785 90.45029139843744 # Ar
4 4 1 0.0 236.24292793345833 1232.0741424055373 516.5614400278157 # Ar
5 5 1 0.0 248.34887094702816 298.95035861500685 391.80465772793355 # Ar
6 6 1 0.0 902.2754318793654 676.1822178106931 82.03025913174011 # Ar
7 7 1 0.0 934.8366323330454 311.356098649305 14.271135312021627 # Ar
8 8 1 0.0 549.989324572931 7.638734104050882 962.2099349351433 # Ar
9 9 1 0.0 1142.9357413275316 924.4675480302743 194.2202273237605 # Ar
10 10 1 0.0 866.5782475666985 420.08411313163 304.81221983191966 # Ar
11 11 1 0.0 361.79003505441233 795.8702146065477 38.42321687162116 # Ar
12 12 1 0.0 1168.7727922356048 1217.689308493812 564.8112889353267 # Ar
13 13 1 0.0 588.319690868069 348.92944480906266 656.4916825565261 # Ar
14 14 1 0.0 168.45287891552985 747.0927329830153 761.4644437730016 # Ar
15 15 1 0.0 204.83102561279992 404.89208162831994 785.2619709315196 # Ar
16 16 1 0.0 1213.7974787529456 556.9684062164806 453.3463379322377 # Ar
17 17 1 0.0 1084.4621588818675 714.7145810253301 453.17450232085497 # Ar
18 18 1 0.0 707.317710677618 224.00231908596626 169.42310416950315 # Ar
19 19 1 0.0 455.0361670115007 11.25022046388108 1209.4628333306373 # Ar
20 20 1 0.0 842.7218934411973 821.5605862066794 425.5051767902447 # Ar
21 21 1 0.0 522.6169862626576 246.1936986993223 1105.8340980537976 # Ar
22 22 1 0.0 615.8245787351925 761.8308312760036 465.2299090201811 # Ar
23 23 1 0.0 518.2991028123427 263.0833083021504 7.392288864765408 # Ar
24 24 1 0.0 982.037857895695 842.5835209028394 144.15438918474675 # Ar
25 25 1 0.0 890.6266093529969 1057.6807198690324 897.5049030731069 # Ar
26 26 1 0.0 890.1210089126799 274.74561751688634 670.5647619109012 # Ar
27 27 1 0.0 442.9872999429645 679.3624531516122 275.6282833430125 # Ar
28 28 1 0.0 233.34671483996007 625.3836423881319 145.43130371502176 # Ar
29 29 1 0.0 687.45393149794 526.1094159662217 721.2004288490539 # Ar
30 30 1 0.0 121.48217587934698 1023.3839005050221 970.9489382753865 # Ar
31 31 1 0.0 471.31398994941185 833.5773859706497 1021.6451638758269 # Ar
32 32 1 0.0 694.4320372852455 593.6711566574426 808.9435507842394 # Ar
33 33 1 0.0 32.37628832379423 400.4189483244056 865.7312823832581 # Ar
34 34 1 0.0 167.67838292744514 301.23790475906026 1151.2224404321596 # Ar
35 35 1 0.0 311.95681002784926 735.0283568263784 18.643502785498463 # Ar
36 36 1 0.0 60.07565487875094 188.56244199238373 256.8692929925363 # Ar
37 37 1 0.0 572.6232146440047 833.5705603351521 660.5403477760918 # Ar
38 38 1 0.0 1017.9015659344587 65.62384628729926 456.62304468630634 # Ar
39 39 1 0.0 640.7273483599139 137.68926505681364 485.262462057666 # Ar
40 40 1 0.0 38.97021793413296 1088.6187719859345 879.034515749704 # Ar
41 41 1 0.0 509.2531625027992 1182.851763610165 92.09780805489187 # Ar
42 42 1 0.0 904.1814187037866 742.4415601424797 269.2597149399301 # Ar
43 43 1 0.0 454.6297965973624 337.00815066444216 597.1396458823322 # Ar
44 44 1 0.0 1189.4290219118843 204.70724210744726 389.3565444270656 # Ar
45 45 1 0.0 910.0118987290128 974.456758583174 506.3980796444135 # Ar
46 46 1 0.0 955.0981573352412 743.8706596490832 100.2570987143873 # Ar
47 47 1 0.0 80.122272540155 1104.6738123504083 1004.3636148319773 # Ar
48 48 1 0.0 124.30612613787503 265.59769919522756 673.5923528716364 # Ar
49 49 1 0.0 6.531018279539533 772.039309171888 958.2081232200813 # Ar
50 50 1 0.0 291.85586082147876 683.3112798796975 1222.3247639667409 # Ar
51 51 1 0.0 6.001440454563167 108.3998182121893 1156.2261178421709 # Ar
52 52 1 0.0 976.2053545950629 1206.5598343940605 708.9997178876413 # Ar
53 53 1 0.0 219.47074575870397 817.1470195031194 1008.5071983398741 # Ar
54 54 1 0.0 342.5647775983456 728.4381129811186 583.6937248198419 # Ar
55 55 1 0.0 728.8845703557026 4.352987337195508 622.6456117477811 # Ar
56 56 1 0.0 840.9130866406987 658.7336611601197 452.39140252179857 # Ar
57 57 1 0.0 627.7714170468536 1172.8626130801451 238.9402244333938 # Ar
58 58 1 0.0 1224.5008314596487 910.3033236917769 734.9069285978477 # Ar
59 59 1 0.0 837.5736522165104 536.6736523821261 13.670654251800666 # Ar
60 60 1 0.0 976.4269670743842 512.6756110550562 598.9087310811774 # Ar
61 61 1 0.0 551.3567579156384 710.0830547176002 910.3953377124302 # Ar
62 62 1 0.0 517.5326852606264 236.00083881105846 480.0016357803616 # Ar
63 63 1 0.0 145.90147100604207 101.29987846390166 313.9539122190297 # Ar
64 64 1 0.0 240.07611951697535 611.7041874311 297.669842540216 # Ar
65 65 1 0.0 563.7000413987314 1133.5403315186475 295.30457673168786 # Ar
66 66 1 0.0 652.382320542851 787.4450930112241 212.88881426430342 # Ar
67 67 1 0.0 497.0061181241024 361.926517177679 1085.3550628414828 # Ar
68 68 1 0.0 886.6687618186834 997.18302377725 139.60448814093965 # Ar
69 69 1 0.0 1000.2429011904599 53.176984518058 1234.1332055089981 # Ar
70 70 1 0.0 467.5715895757253 1046.976053286267 434.05699599501924 # Ar
71 71 1 0.0 360.2098320772182 791.289538183567 711.4410837227566 # Ar
72 72 1 0.0 1205.171692793611 391.4902212001603 1078.627226041426 # Ar
73 73 1 0.0 1124.8699162856879 271.95029571941586 1001.7766110167096 # Ar
74 74 1 0.0 42.59717174933905 810.5067742025709 791.047754224688 # Ar
75 75 1 0.0 1048.5891875402858 1018.9971200048954 949.5688081315533 # Ar
76 76 1 0.0 214.2277065044911 1028.9570877313718 90.55255905781537 # Ar
77 77 1 0.0 476.14443941466845 1167.7338390511227 784.875047254171 # Ar
78 78 1 0.0 671.4518982760442 990.9877080170131 249.267780638739 # Ar
79 79 1 0.0 642.5215536651996 1145.9334109740455 45.801546317405226 # Ar
80 80 1 0.0 388.4770563413293 926.8363385922936 784.9689980878175 # Ar
81 81 1 0.0 10.458535148667615 1151.7511275398895 930.13680863454 # Ar
82 82 1 0.0 639.3493950854024 1166.2096213063621 5.598488434439412 # Ar
83 83 1 0.0 837.1969563509834 698.6935317612326 696.2522768638147 # Ar
84 84 1 0.0 551.8191039777414 529.702494832048 711.2174974377218 # Ar
85 85 1 0.0 808.6443736736394 864.9750386454904 528.7474771866936 # Ar
86 86 1 0.0 242.53507276626783 165.60026033440948 963.5175846445112 # Ar
87 87 1 0.0 242.51430052188675 928.7653420467398 699.5018229609957 # Ar
88 88 1 0.0 816.1570198181729 1153.0662913242716 326.7746928306195 # Ar
89 89 1 0.0 858.1465239227907 424.2794164142098 776.6498490823453 # Ar
90 90 1 0.0 303.20719823020085 17.050833961454217 468.24271861624777 # Ar
91 91 1 0.0 269.5110257547092 549.3195342030367 615.2515993590002 # Ar
92 92 1 0.0 462.4491994421374 17.937199608261146 840.4384876050453 # Ar
93 93 1 0.0 746.7590802787449 725.7419993585456 1038.0983701895577 # Ar
94 94 1 0.0 405.50900000560216 1102.4178194420174 941.7111017631786 # Ar
95 95 1 0.0 675.9650586358798 1085.755223221663 820.7751312031403 # Ar
96 96 1 0.0 740.9992975587968 271.514269157001 391.477291431019 # Ar
97 97 1 0.0 1184.375726276365 568.6616310122415 721.5847608143133 # Ar
98 98 1 0.0 692.9496552631745 255.5730941304588 505.64445428481133 # Ar
99 99 1 0.0 786.529735546904 30.11668492512551 614.4048745124614 # Ar
100 100 1 0.0 496.5820379237179 897.6140739426149 355.296602310774 # Ar
101 101 1 0.0 740.3158042551078 703.1960698083141 447.2684747636752 # Ar
102 102 1 0.0 851.0026230225416 640.1207188437836 4.783177894097376 # Ar
103 103 1 0.0 1124.9026084832349 1130.216730547326 1236.3869863176171 # Ar
104 104 1 0.0 534.2718027096705 400.8238322752424 681.7916584358193 # Ar
105 105 1 0.0 1210.7714338880999 860.3139599792104 293.02331783308745 # Ar
106 106 1 0.0 937.0909625914775 843.0412344859408 1184.223488321432 # Ar
107 107 1 0.0 341.22344472681124 413.1461162381144 666.9791867474556 # Ar
108 108 1 0.0 1196.491649933392 557.7050074282696 88.14993512400729 # Ar
109 109 1 0.0 1208.8398585291804 496.9222517630351 506.76313770411457 # Ar
110 110 1 0.0 1225.8681492529722 675.1991550688499 766.8508535256125 # Ar
111 111 1 0.0 726.6736947099165 1049.6896389545518 1205.9483683954804 # Ar
112 112 1 0.0 19.746508016091482 397.5783885414529 1115.2716809135006 # Ar
113 113 1 0.0 1088.358009130439 620.5668145400832 1203.4520998755233 # Ar
114 114 1 0.0 1133.2505766209636 150.53973198425732 556.9218086907314 # Ar
115 115 1 0.0 354.5986050089454 510.6503901605079 128.10358953583665 # Ar
116 116 1 0.0 1137.0654980580077 829.7565249524267 188.84803922827254 # Ar
117 117 1 0.0 500.0095632914053 388.73468102336534 932.3892891964962 # Ar
118 118 1 0.0 874.1847741637675 727.9124236568366 847.5644326313947 # Ar
119 119 1 0.0 1238.4445076936122 458.6558934502182 1038.5547629327095 # Ar
120 120 1 0.0 683.6635703972411 970.6007858179056 840.6750969276253 # Ar
121 121 1 0.0 949.5099866051764 403.11917794053966 227.31251919182975 # Ar
122 122 1 0.0 475.2983543684865 1225.9604615911599 771.5385792013532 # Ar
123 123 1 0.0 549.948786846442 287.0619847595318 1155.8158185677369 # Ar
124 124 1 0.0 1083.035401390426 329.8311201870748 988.9420982739271 # Ar
125 125 1 0.0 84.00960904516303 689.9362490544714 36.55295287875837 # Ar
126 126 1 0.0 524.5209252665054 236.81765332272838 878.0017357332792 # Ar
127 127 1 0.0 1048.9001756091218 1016.6512230149019 972.5025471456485 # Ar
128 128 1 0.0 795.0161891004883 59.46797625522772 725.5440313290071 # Ar
129 129 1 0.0 1222.2992046551897 902.3526554361893 829.0276064925833 # Ar
130 130 1 0.0 794.1106346030415 535.8286402635409 79.42499834827306 # Ar
131 131 1 0.0 1055.1527436560737 528.6711297432521 29.246405346348343 # Ar
132 132 1 0.0 1172.2496519665292 1124.8683146319981 560.2008807856618 # Ar
133 133 1 0.0 473.3171210884468 357.8749501302842 814.4365388010402 # Ar
134 134 1 0.0 1186.5138623155292 352.9009906144141 157.52986363962648 # Ar
135 135 1 0.0 769.8965888000382 287.0119864916303 559.5957220847368 # Ar
136 136 1 0.0 698.7643021242802 269.32507767002 96.04755495961231 # Ar
137 137 1 0.0 36.489253161660415 844.3406130504383 571.83812785847 # Ar
138 138 1 0.0 130.46954354696982 470.10899911284673 452.65113960751523 # Ar
139 139 1 0.0 575.954752849757 993.0949569812535 430.8103301890097 # Ar
140 140 1 0.0 1009.5388901642693 779.3350283685435 80.3599261706853 # Ar
141 141 1 0.0 458.87975457373005 921.5810850587231 924.2677255739129 # Ar
142 142 1 0.0 394.0544649964978 342.56825745966626 41.99987817004219 # Ar
143 143 1 0.0 56.05113437624233 332.03397451769547 1145.8482138957434 # Ar
144 144 1 0.0 532.2629402947108 272.93830946835845 433.05304884357014 # Ar
145 145 1 0.0 243.71518022743044 590.4073910305635 928.3466864982238 # Ar
146 146 1 0.0 1095.7805255427238 319.8356890091891 411.87607267528654 # Ar
147 147 1 0.0 1149.6813657439195 212.0304401433077 656.3214508574142 # Ar
148 148 1 0.0 901.1762197928186 467.42189443874423 703.1454175135486 # Ar
149 149 1 0.0 1034.9338882603843 456.77876243235573 941.3655712394067 # Ar
150 150 1 0.0 1110.3167685711494 519.4952080291863 304.9963774689947 # Ar
151 151 1 0.0 380.68964745089505 878.7609875628602 895.9624265124183 # Ar
152 152 1 0.0 743.4929585808065 183.0232850037946 292.72169799880794 # Ar
153 153 1 0.0 1133.164963965251 800.2087403913155 172.6455543477273 # Ar
154 154 1 0.0 643.0068382868054 883.8695100289492 450.07855705826046 # Ar
155 155 1 0.0 758.5468497428316 128.3097784392531 1197.4658139391931 # Ar
156 156 1 0.0 782.3154075094388 1178.6175186070618 1019.2065833435951 # Ar
157 157 1 0.0 713.936473358639 193.9852501369222 460.86681457329024 # Ar
158 158 1 0.0 700.7587592496499 1065.230721180635 627.3447957040524 # Ar
159 159 1 0.0 1040.5743291338174 1174.9139109289952 765.0399254695221 # Ar
160 160 1 0.0 253.34535359321674 756.9652905437059 243.39399932302507 # Ar
161 161 1 0.0 453.83143999278394 945.1682758408052 838.7504926433805 # Ar
162 162 1 0.0 898.8328629086222 944.8879175585782 819.1526562159819 # Ar
163 163 1 0.0 748.4674771007698 1204.4564725762148 178.66935425451416 # Ar
164 164 1 0.0 636.4276316559944 992.1914631870161 199.06650053511876 # Ar
165 165 1 0.0 197.03470462782627 912.643790167394 501.47677157783914 # Ar
166 166 1 0.0 942.359792923262 1055.0487965961197 515.6120181457964 # Ar
167 167 1 0.0 1229.3112300431358 714.0063890320276 955.9183738292047 # Ar
168 168 1 0.0 182.78708141640288 266.11718110684734 321.77810558937654 # Ar
169 169 1 0.0 366.20687077247766 799.4849803486742 857.4142399992216 # Ar
170 170 1 0.0 202.32374535057636 117.52880858674385 826.1878647002121 # Ar
171 171 1 0.0 651.4749845083533 100.23929761040762 275.572871678752 # Ar
172 172 1 0.0 202.52801570164127 336.11455998305377 880.1972549659267 # Ar
173 173 1 0.0 606.8717443841961 907.4958122393797 380.30986134597623 # Ar
174 174 1 0.0 595.5881548412062 1188.8635006369211 1178.6646450086466 # Ar
175 175 1 0.0 858.8992140843567 390.2449606282007 1110.1673787512798 # Ar
176 176 1 0.0 750.2397713949227 732.1978947571548 409.0360496720853 # Ar
177 177 1 0.0 123.73315617966325 1173.2975253694437 285.9096647943081 # Ar
178 178 1 0.0 753.6955183533846 1069.4219453048981 355.0817520005569 # Ar
179 179 1 0.0 272.4197541519604 343.2502664750115 291.4540182072525 # Ar
180 180 1 0.0 333.4058681379247 419.65707484947006 1202.7297303499345 # Ar
181 181 1 0.0 422.658586141393 734.05256999746 519.552123859088 # Ar
182 182 1 0.0 313.8421465068957 839.5272808802579 744.5510172652633 # Ar
183 183 1 0.0 613.4006803316236 734.2213140386813 175.30502241455122 # Ar
184 184 1 0.0 1213.351187753623 922.5665388470808 620.4341712424489 # Ar
185 185 1 0.0 475.4772132529134 1069.7296934475357 1131.4808016710058 # Ar
186 186 1 0.0 539.5882824443202 1168.9943924806166 922.4843780009618 # Ar
187 187 1 0.0 1209.37390198894 168.35023057877885 850.7193929182109 # Ar
188 188 1 0.0 537.6461414331324 964.5958404004214 437.39024420288604 # Ar
189 189 1 0.0 432.33187136746665 1158.31778451112 1226.8489018371718 # Ar
190 190 1 0.0 339.60915080167814 88.28410686220825 1236.7120439468756 # Ar
191 191 1 0.0 1064.1089154791844 621.8106277759446 476.6206361958569 # Ar
192 192 1 0.0 203.1455930223139 714.3727204392258 1044.4225973158939 # Ar
193 193 1 0.0 624.4675442260606 552.4863702401358 364.58363457130264 # Ar
194 194 1 0.0 414.7078999250115 780.5558544948174 848.6650762814334 # Ar
195 195 1 0.0 684.5437224462847 439.3495598437308 1119.4174678202387 # Ar
196 196 1 0.0 840.3071233399044 1012.4140184861345 233.11425596298326 # Ar
197 197 1 0.0 829.5605998558711 830.3281918798065 663.3443466890187 # Ar
198 198 1 0.0 241.7109532655344 1133.7899921303679 1025.4646369448544 # Ar
199 199 1 0.0 437.6537270279538 879.9981935171659 481.8729576255025 # Ar
200 200 1 0.0 367.4511823994403 101.82383146020095 610.5969059830277 # Ar
201 201 1 0.0 44.4920057711056 757.2391034553186 6.318560644610128 # Ar
202 202 1 0.0 1086.3821068301384 476.89184969807485 391.6038335929227 # Ar
203 203 1 0.0 262.6303063083287 286.9034112063711 529.5528828853726 # Ar
204 204 1 0.0 836.7941838664149 220.50648814291924 445.76815050573964 # Ar
205 205 1 0.0 206.6799855024448 939.9000311320075 445.449502125418 # Ar
206 206 1 0.0 942.3453694177726 233.07121121651969 288.83100179224 # Ar
207 207 1 0.0 637.0231752561286 159.54682820339514 73.73011993013974 # Ar
208 208 1 0.0 699.9686420607713 820.2168311271951 268.40704826515093 # Ar
209 209 1 0.0 258.24114563817704 302.6579320200318 654.2126088906542 # Ar
210 210 1 0.0 269.2069702911548 1029.2632345729035 1202.5867440359339 # Ar
211 211 1 0.0 592.299761231064 792.20814540877 327.2675303717956 # Ar
212 212 1 0.0 328.9293215814447 1217.0408655702017 161.4549988812244 # Ar
213 213 1 0.0 708.8099449907784 550.7387205965093 731.7184994816257 # Ar
214 214 1 0.0 621.368385500916 174.18995174515294 351.5410654173678 # Ar
215 215 1 0.0 607.2681264449179 943.8108295358711 947.7252820398095 # Ar
216 216 1 0.0 647.6852126591817 85.89051731166157 1145.9374432016377 # Ar
217 217 1 0.0 352.56624311870615 172.05050070415726 802.0400036272284 # Ar
218 218 1 0.0 490.49729880744144 94.51692303282638 284.3405405074773 # Ar
219 219 1 0.0 614.8882968801296 931.1438250831875 413.3630801490583 # Ar
220 220 1 0.0 101.03785589149543 497.42750365115796 585.8028544345277 # Ar
221 221 1 0.0 836.1160417284898 375.3665831986431 655.7871024882061 # Ar
222 222 1 0.0 348.2874658899672 543.4105144349062 998.3934983545662 # Ar
223 223 1 0.0 793.2049540750724 765.9312024365066 481.0772343360024 # Ar
224 224 1 0.0 970.7234901563053 759.838835501648 222.10236444173614 # Ar
225 225 1 0.0 711.5054169781404 627.5238595531681 343.9874720649357 # Ar
226 226 1 0.0 55.176047188505954 434.42660310185346 695.5216257877522 # Ar
227 227 1 0.0 593.8856897899253 617.8314315697895 73.40885791513293 # Ar
228 228 1 0.0 291.2866395725481 743.2513570848837 1207.3252666185472 # Ar
229 229 1 0.0 817.7124170406413 642.3922248413921 90.914759441222 # Ar
230 230 1 0.0 1073.3228975255104 783.8696785855681 354.2702755620806 # Ar
231 231 1 0.0 804.5586826162106 842.8506484983646 636.9441925989455 # Ar
232 232 1 0.0 272.2056835069009 859.4615029333384 725.4967509633904 # Ar
233 233 1 0.0 302.407844438129 1005.5994790776163 664.9684646127658 # Ar
234 234 1 0.0 849.3987639396784 847.9670836614464 440.852804578077 # Ar
235 235 1 0.0 232.7453888792179 267.31805370928157 379.7092046169128 # Ar
236 236 1 0.0 438.18619969433405 415.22174016527504 527.7376998862482 # Ar
237 237 1 0.0 740.9775311106259 736.5726926968276 626.6797814291316 # Ar
238 238 1 0.0 285.07092295242353 115.08006332567957 1140.4766608869525 # Ar
239 239 1 0.0 395.9528719519367 1075.9028888533132 90.70634505967514 # Ar
240 240 1 0.0 64.01951997721115 954.9267169995635 412.29690933801453 # Ar
241 241 1 0.0 34.9967307778604 609.9082889001648 509.3314612541847 # Ar
242 242 1 0.0 54.9200333850435 1110.902509701706 87.2248279805457 # Ar
243 243 1 0.0 370.9480982052694 1144.5941284653074 486.19415386412925 # Ar
244 244 1 0.0 863.4485973600183 77.15022674246114 20.382976524640362 # Ar
245 245 1 0.0 172.97904096637396 11.904707393533634 1016.1454852858386 # Ar
246 246 1 0.0 1206.323404668312 463.9612427463593 493.40999387050624 # Ar
247 247 1 0.0 410.4706078409688 231.71128596727328 325.7571103811492 # Ar
248 248 1 0.0 54.10045186427977 609.8593447443103 1032.5266741779694 # Ar
249 249 1 0.0 861.5789636680182 619.5853103025477 733.3425899278891 # Ar
250 250 1 0.0 240.52044469978694 766.7176186243624 1143.0446340266078 # Ar
251 251 1 0.0 522.5058153900152 395.8170761937587 333.50367027438807 # Ar
252 252 1 0.0 1145.9770540388815 135.9921120612988 557.1929379911352 # Ar
253 253 1 0.0 327.7092802200169 298.9283245269717 116.82611172995072 # Ar
254 254 1 0.0 169.04397158518896 820.092850431431 1072.9807901302083 # Ar
255 255 1 0.0 712.4542358674064 1185.633786167592 1046.140499939794 # Ar
256 256 1 0.0 621.5737523378311 1213.6160066575294 1144.8299858421813 # Ar
257 257 1 0.0 84.87915874391533 107.88971007183221 318.3940844208941 # Ar
258 258 1 0.0 742.6993162177209 86.85618763920807 115.17319306010643 # Ar
259 259 1 0.0 632.8631922555878 727.666141801789 291.8735738081459 # Ar
260 260 1 0.0 1018.7022107106283 97.49301471601044 295.1433161236023 # Ar
261 261 1 0.0 967.7253997252543 1020.2990577877205 661.5831002421577 # Ar
262 262 1 0.0 494.1871280491588 324.25060954677485 190.711309189418 # Ar
263 263 1 0.0 497.8459677763801 468.80076003599953 986.0896720685232 # Ar
264 264 1 0.0 178.55699722621424 191.72399828753177 644.0225522462739 # Ar
265 265 1 0.0 630.9882925738215 714.2871387768123 97.51177502483492 # Ar
266 266 1 0.0 827.8206849454766 1039.0285822692836 867.9675381069844 # Ar
267 267 1 0.0 1070.0025682456612 1127.4917004599638 852.9604021734332 # Ar
268 268 1 0.0 1045.2926722936568 675.2082120186278 462.7837733888466 # Ar
269 269 1 0.0 237.4357083494174 399.36144915240067 1182.2734691201902 # Ar
270 270 1 0.0 1025.5266207408363 1082.667816354691 732.645041970662 # Ar
271 271 1 0.0 244.32656111267747 217.6273437953097 745.7496116817297 # Ar
272 272 1 0.0 763.4253882989561 428.1077586875669 950.4686791131056 # Ar
273 273 1 0.0 620.1395337010749 75.08073434143253 644.9793448665022 # Ar
274 274 1 0.0 218.57480866941694 1143.4690791354924 895.8538159054539 # Ar
275 275 1 0.0 731.6246153323765 1194.3799332505644 959.0931604409759 # Ar
276 276 1 0.0 1226.0149379822224 79.76589449323906 1148.3491866328825 # Ar
277 277 1 0.0 1102.6624485938657 776.2979738695282 514.4835401557189 # Ar
278 278 1 0.0 692.3832836517487 793.0754233603326 212.7681826973457 # Ar
279 279 1 0.0 250.66602026031458 993.3079427495744 918.0902433765709 # Ar
280 280 1 0.0 4.708278872290472 296.346410139904 188.49617633410816 # Ar
281 281 1 0.0 1219.1304737620178 1142.648751383399 487.580758821916 # Ar
282 282 1 0.0 1128.516050986691 316.5946355412575 185.16037059625754 # Ar
283 283 1 0.0 508.6090281816438 1131.7385466850835 598.8110206183526 # Ar
284 284 1 0.0 268.22470597020083 171.50959927721942 367.84437811895253 # Ar
285 285 1 0.0 584.9881729073535 1160.4002589844326 728.3650092543496 # Ar
286 286 1 0.0 111.40227270272429 283.50160745246393 40.207819108863035 # Ar
287 287 1 0.0 327.38522515455435 1161.3461885122583 181.8568814616368 # Ar
288 288 1 0.0 508.76086105015855 1208.6670178022507 437.7960636940952 # Ar
289 289 1 0.0 582.6407531354581 1121.8923187756081 204.59988486997892 # Ar
290 290 1 0.0 837.4709175818788 279.1288127336984 843.166065366091 # Ar
291 291 1 0.0 726.5203728805566 657.4110352733691 446.2433664538884 # Ar
292 292 1 0.0 924.4526057553251 5.8246160900734525 383.92119589839285 # Ar
293 293 1 0.0 147.3823504190512 315.38222057392784 136.79945976482605 # Ar
294 294 1 0.0 717.9662865392557 376.6625492985833 567.0092792431245 # Ar
295 295 1 0.0 472.0439525670048 1008.6420194052321 91.64377974628674 # Ar
296 296 1 0.0 674.3016042182419 820.804715332817 1139.1890094436164 # Ar
297 297 1 0.0 295.3521912134704 250.23215374185878 293.8565058147471 # Ar
298 298 1 0.0 586.0472081984489 684.9704750087618 149.28484878159404 # Ar
299 299 1 0.0 859.7866087822927 506.38195826020166 1160.1149638694253 # Ar
300 300 1 0.0 675.6155113915601 293.84349953005955 422.6283833288501 # Ar
301 301 1 0.0 306.2427558071557 749.6709115282348 1015.9820487160957 # Ar
302 302 1 0.0 280.0807348087224 650.0794524281315 1185.735859710564 # Ar
303 303 1 0.0 768.8995626021086 998.89763624636 1004.1243821660619 # Ar
304 304 1 0.0 990.0118754058461 569.3647237721485 1114.9262003185654 # Ar
305 305 1 0.0 565.0512112801052 294.84262719265337 1042.5184561489812 # Ar
306 306 1 0.0 585.5974785926581 1121.7639919362841 411.9726402328445 # Ar
307 307 1 0.0 584.3296232862157 629.8200188279802 530.8963271517605 # Ar
308 308 1 0.0 1111.1322320706352 1071.727261631606 910.2596193707886 # Ar
309 309 1 0.0 627.4973585798662 839.0021620745088 398.35435517539787 # Ar
310 310 1 0.0 384.051964160977 286.9590644276148 1039.4741113924495 # Ar
311 311 1 0.0 635.8077914245242 495.01138513778716 408.5514239691157 # Ar
312 312 1 0.0 328.55322191803776 683.7168248735396 110.17667383643635 # Ar
313 313 1 0.0 167.78115241670397 169.58644476701969 1067.4579998462727 # Ar
314 314 1 0.0 155.57211315142064 124.55491810565856 66.21642426838932 # Ar
315 315 1 0.0 62.18420559731644 584.4282346777067 557.4692017151536 # Ar
316 316 1 0.0 576.1281218609852 787.0265393182971 1097.4173922809318 # Ar
317 317 1 0.0 1227.983890861496 594.609661341906 18.511398528230064 # Ar
318 318 1 0.0 880.0127748811017 390.14615894763506 6.211165584792866 # Ar
319 319 1 0.0 175.34316915528206 41.01534190747287 695.2974231569771 # Ar
320 320 1 0.0 66.83417208904164 645.8101014944552 610.2075097488531 # Ar
321 321 1 0.0 673.0166986092839 546.8551376029667 609.6341700919578 # Ar
322 322 1 0.0 384.1092859332654 775.0576439906924 1141.6069667838606 # Ar
323 323 1 0.0 772.2870274694383 126.21742010458699 469.56411615901965 # Ar
324 324 1 0.0 98.88020059612015 459.05926298289313 24.9252251563482 # Ar
325 325 1 0.0 496.36215545385335 1232.3506744997842 776.8208138239054 # Ar
326 326 1 0.0 684.5412644382071 570.9004390745677 408.72030830609873 # Ar
327 327 1 0.0 1141.676678931528 443.5217728198438 1182.4959042488958 # Ar
328 328 1 0.0 959.8871472067609 762.0313868993429 438.92681471136575 # Ar
329 329 1 0.0 1146.1845816885025 1145.4271478164883 359.3867732179015 # Ar
330 330 1 0.0 1071.101568928326 562.0169484800995 653.3688670972099 # Ar
331 331 1 0.0 1053.4366494704425 462.49388040945036 778.2577716942199 # Ar
332 332 1 0.0 983.6791214790811 702.3073441421186 1128.5759574027331 # Ar
333 333 1 0.0 441.88273249172954 718.6285102266389 1142.508768266141 # Ar
334 334 1 0.0 1219.2816746835174 1178.7586347426975 33.393603144053564 # Ar
335 335 1 0.0 1109.2929298587558 517.6346851791905 329.4174425128852 # Ar
336 336 1 0.0 741.2897560400027 977.6586372203046 872.4516048741023 # Ar
337 337 1 0.0 574.7737315736131 349.37970682722255 591.1812023319139 # Ar
338 338 1 0.0 766.2147874125266 600.9526565555053 900.2800636825971 # Ar
339 339 1 0.0 966.9899100899622 988.9744079057692 908.3060011881598 # Ar
340 340 1 0.0 237.04599639609566 849.7721149775822 976.0459844157859 # Ar
341 341 1 0.0 8.885337094745456 954.2246243915855 779.2465944404973 # Ar
342 342 1 0.0 97.91031856649968 1056.7377319776767 220.90460467517565 # Ar
343 343 1 0.0 791.8001194486781 494.9503492591333 377.189477178449 # Ar
344 344 1 0.0 1216.1556709353115 1030.6180454533078 39.25327592830573 # Ar
345 345 1 0.0 1064.6952344173974 1039.484739698462 828.8801886041426 # Ar
346 346 1 0.0 1163.1411717196024 1203.5046763487892 962.5827821810135 # Ar
347 347 1 0.0 1086.872137067857 198.76551904735894 509.0809240403478 # Ar
348 348 1 0.0 248.64720139658186 432.4851953119812 717.8875265129737 # Ar
349 349 1 0.0 647.0966368875557 671.6615176379892 608.4298717244525 # Ar
350 350 1 0.0 970.3747248547406 793.7145460710113 819.6569029056691 # Ar
351 351 1 0.0 325.3965502934282 526.7908599551716 263.2158330510854 # Ar
352 352 1 0.0 474.9678107438864 1032.8673832420734 228.0436477079288 # Ar
353 353 1 0.0 584.3739800392201 91.99647677468899 1127.4584458327924 # Ar
354 354 1 0.0 54.04207300487546 544.2314449692724 597.6158757273674 # Ar
355 355 1 0.0 2.4525982874022074 1193.3343243322308 206.2762260399089 # Ar
356 356 1 0.0 897.3583446205554 982.2165511219364 30.730519160991285 # Ar
357 357 1 0.0 119.27006584620534 449.06456550336094 482.4529764294533 # Ar
358 358 1 0.0 210.01779373004126 120.81955630451752 471.38726333035595 # Ar
359 359 1 0.0 704.8298235944987 93.19606843513743 985.272686124267 # Ar
360 360 1 0.0 1135.5492760658433 911.0933886685153 599.8568429779374 # Ar
361 361 1 0.0 274.7688644959462 157.61330510217212 389.94619256633393 # Ar
362 362 1 0.0 984.6555659570138 36.92831943978206 310.60368818378436 # Ar
363 363 1 0.0 1104.2287106306378 69.91290129779327 363.73521013550135 # Ar
364 364 1 0.0 1196.5517697996606 713.5399920183122 1141.6279656201425 # Ar
365 365 1 0.0 429.170380604507 267.822384120803 714.1442715906059 # Ar
366 366 1 0.0 881.4004970377957 566.073993160237 713.0851340132726 # Ar
367 367 1 0.0 362.5637146347842 523.0255098770734 1177.6868368290498 # Ar
368 368 1 0.0 694.7818471725225 544.2951828670741 480.0472887417549 # Ar
369 369 1 0.0 797.3685221566609 624.9177220088268 348.44730133441595 # Ar
370 370 1 0.0 1099.1766677474027 466.06403824074783 267.2217727026343 # Ar
371 371 1 0.0 579.0828423489155 338.9404076277346 401.4829059223753 # Ar
372 372 1 0.0 884.567007265254 642.0663493951146 368.32633076589855 # Ar
373 373 1 0.0 947.7140654475829 742.9690169909794 328.23819522248994 # Ar
374 374 1 0.0 1233.1308251864161 453.7675880521979 716.4408790242122 # Ar
375 375 1 0.0 989.6840185558666 1156.603658996112 527.0742999910973 # Ar
376 376 1 0.0 386.7924893229262 534.2726269887602 509.8303873013462 # Ar
377 377 1 0.0 77.16102866146997 347.2321379776817 1009.4259999555318 # Ar
378 378 1 0.0 1175.6330854485466 683.9442838246076 171.62580231292296 # Ar
379 379 1 0.0 771.4632898787983 16.608413242837308 167.53582962900026 # Ar
380 380 1 0.0 102.59365076901427 1169.7010182786266 786.5087475348031 # Ar
381 381 1 0.0 238.56250533418802 43.10922704728594 774.4918718673006 # Ar
382 382 1 0.0 729.4976175125988 498.71142339080285 580.4556293437932 # Ar
383 383 1 0.0 54.237117873388236 666.8958873357495 967.1006689131057 # Ar
384 384 1 0.0 350.0110984521492 70.39090336271764 558.5313766609221 # Ar
385 385 1 0.0 152.35052462525854 398.0852618928905 307.06442374442645 # Ar
386 386 1 0.0 1132.1813357824742 1136.1064696271526 753.2055483313502 # Ar
387 387 1 0.0 516.3863277089116 419.79730387496704 8.950375075682214 # Ar
388 388 1 0.0 519.1937541556526 61.10073557506037 839.8296754489098 # Ar
389 389 1 0.0 73.83457795441414 380.9884043605707 50.54206781263071 # Ar
390 390 1 0.0 666.1684413023049 2.751833818348736 398.35177971604486 # Ar
391 391 1 0.0 415.7395002968873 1169.980786639969 418.7863178147804 # Ar
392 392 1 0.0 913.6619858499843 262.3073506931721 619.174683446062 # Ar
393 393 1 0.0 107.86262659981851 833.064030314211 448.7610687510357 # Ar
394 394 1 0.0 960.368323271945 344.92687304677787 140.19087932875004 # Ar
395 395 1 0.0 175.57553519042884 961.6864933997692 336.37119178415173 # Ar
396 396 1 0.0 356.5842632320769 553.1634141411274 685.0371126112774 # Ar
397 397 1 0.0 1156.6941227301695 1205.1082037420042 565.4284890346818 # Ar
398 398 1 0.0 446.677049112825 654.8793795619165 142.00231797809684 # Ar
399 399 1 0.0 698.2200442068155 768.7688681205184 975.7358205082708 # Ar
400 400 1 0.0 259.1325556666025 186.75753785125218 576.8952098607606 # Ar
401 401 1 0.0 333.85967541491124 543.1681747677432 334.833380103073 # Ar
402 402 1 0.0 542.5231247831814 902.2992199607653 1141.750503472857 # Ar
403 403 1 0.0 1163.2918684936622 864.7704437128028 603.9982010854081 # Ar
404 404 1 0.0 271.128233789252 588.078059001041 727.073681669901 # Ar
405 405 1 0.0 735.2403483621513 277.4947455202007 1107.4055312377122 # Ar
406 406 1 0.0 150.45347882534386 921.9220048611687 824.7587162537515 # Ar
407 407 1 0.0 369.65524209117876 1234.2702305511643 851.1248769076427 # Ar
408 408 1 0.0 812.558038643472 509.3590442762041 215.32036663631163 # Ar
409 409 1 0.0 329.9393331199322 630.6821484792035 177.0342696468972 # Ar
410 410 1 0.0 1185.1649350932785 945.9743128119995 96.46742677148832 # Ar
411 411 1 0.0 58.868457869455334 138.49339169103953 586.0804234429986 # Ar
412 412 1 0.0 156.89749975676813 395.1890615359831 955.9331603091049 # Ar
413 413 1 0.0 49.999134541180155 336.4113455061377 1211.2210800767896 # Ar
414 414 1 0.0 622.035470269399 242.78250091006808 944.0365096894492 # Ar
415 415 1 0.0 735.902006040889 160.69134145666092 47.053036143760636 # Ar
416 416 1 0.0 992.2431855362499 945.2704828621571 231.26068959324323 # Ar
417 417 1 0.0 1087.7257137580896 687.9884568996694 921.0304493585913 # Ar
418 418 1 0.0 158.40431440994695 240.71738504338114 983.9375975000748 # Ar
419 419 1 0.0 793.2648080148182 1065.1982728357573 455.01104721662534 # Ar
420 420 1 0.0 463.0059834668887 879.0295279542864 387.90462605542916 # Ar
421 421 1 0.0 556.181448448777 957.5804443711995 800.8865996629272 # Ar
422 422 1 0.0 591.9819391195413 1008.8476885564525 701.5272052775205 # Ar
423 423 1 0.0 985.3966016356977 632.969154492085 36.264661233760165 # Ar
424 424 1 0.0 96.25102568281898 475.10759780031117 932.5735184083619 # Ar
425 425 1 0.0 799.9657966543185 859.1939027188513 1024.776571539476 # Ar
426 426 1 0.0 1047.813946680378 201.88335485838965 193.70817056688628 # Ar
427 427 1 0.0 662.9702926438808 962.6776613924726 803.860570822012 # Ar
428 428 1 0.0 1113.7581339289113 138.8916938662329 622.9588782110234 # Ar
429 429 1 0.0 1051.3857446934567 766.5824454237481 520.9694203704902 # Ar
430 430 1 0.0 299.14939830435003 1199.1070682105026 467.47522302845033 # Ar
431 431 1 0.0 576.2962205857372 828.648881118088 195.9386843285341 # Ar
432 432 1 0.0 1100.9438731698626 813.5425298369327 991.2902064049359 # Ar
433 433 1 0.0 902.1718014465022 587.6966446845876 357.17563147378365 # Ar
434 434 1 0.0 581.9525168859639 788.5963501283333 650.9993390563948 # Ar
435 435 1 0.0 93.92165274194284 685.644212005687 794.6820683921485 # Ar
436 436 1 0.0 201.51246741713598 477.7551680557704 14.529501369374222 # Ar
437 437 1 0.0 816.6425489801769 255.91121151251306 760.304817379361 # Ar
438 438 1 0.0 409.9786239825938 486.1925353733926 1179.4213057493794 # Ar
439 439 1 0.0 230.55951625639844 965.4076029568602 738.0585076424795 # Ar
440 440 1 0.0 182.84173619273147 1196.3387678183574 494.1000945390185 # Ar
441 441 1 0.0 1173.0410158335246 960.0181095094064 755.3322703970749 # Ar
442 442 1 0.0 14.19398680609583 881.6704350487918 963.7899682637593 # Ar
443 443 1 0.0 491.08186852107445 1026.9396768330082 675.2718249531379 # Ar
444 444 1 0.0 821.3018290505286 1134.6079366982724 302.4435342947594 # Ar
445 445 1 0.0 442.7797068105343 764.731407404774 157.16166501574205 # Ar
446 446 1 0.0 331.66505067425476 580.0435667928581 643.3707650904938 # Ar
447 447 1 0.0 994.0289052395003 547.1379912895302 372.6058689810583 # Ar
448 448 1 0.0 545.6824568819382 1006.5466384361059 823.7812334423628 # Ar
449 449 1 0.0 523.3049965661054 1167.3249738354987 429.5101344234719 # Ar
450 450 1 0.0 578.4378520646005 1013.3772248453815 258.3625755470183 # Ar
451 451 1 0.0 753.5908383326005 809.8061027956943 439.19825906877173 # Ar
452 452 1 0.0 474.0255449268914 411.2730614872038 111.66561017951794 # Ar
453 453 1 0.0 178.6836489723134 507.4728637642384 86.41650831640395 # Ar
454 454 1 0.0 907.3988733781692 1043.1998940975623 69.01707698299269 # Ar
455 455 1 0.0 391.09118918259804 898.3702691810174 427.9839048593385 # Ar
456 456 1 0.0 77.36436524556964 572.2459971354052 550.4696386098708 # Ar
457 457 1 0.0 547.6321083632748 935.1323968439555 673.8520338292492 # Ar
458 458 1 0.0 916.2538920283848 553.0898205073577 299.3960770816657 # Ar
459 459 1 0.0 953.5672222353634 484.9708739499459 689.3455632892944 # Ar
460 460 1 0.0 969.6057607044183 826.1215279047194 1132.7433563682139 # Ar
461 461 1 0.0 979.4805466212323 19.831655363001172 780.8980822944286 # Ar
462 462 1 0.0 994.6834752525607 529.0041743808888 400.5670697294689 # Ar
463 463 1 0.0 268.6514406513328 1156.782148494416 230.78556641559717 # Ar
464 464 1 0.0 71.05892354072616 210.84370673119722 1122.3484125223779 # Ar
465 465 1 0.0 342.5307740939503 365.84641827746697 196.90344829130913 # Ar
466 466 1 0.0 887.1392461656324 1198.3938968947332 634.5140837814668 # Ar
467 467 1 0.0 514.6154043024878 929.2703906336347 513.8396260984777 # Ar
468 468 1 0.0 1091.3824879479478 110.31494092224347 276.59748223198994 # Ar
469 469 1 0.0 82.65837337471096 624.9278538225715 57.39441795086576 # Ar
470 470 1 0.0 486.25240226193205 105.30695983047055 1195.4244164413099 # Ar
471 471 1 0.0 682.0578392388898 502.242949770392 900.6140751487782 # Ar
472 472 1 0.0 136.41819903430113 373.32579215206584 156.13766540701192 # Ar
473 473 1 0.0 966.2399093621711 767.3547021064905 1167.467630952616 # Ar
474 474 1 0.0 378.82156888470774 897.302021279748 794.9845221229126 # Ar
475 475 1 0.0 1092.1143883613684 889.7946983601885 656.4282400263079 # Ar
476 476 1 0.0 717.8098239157758 51.74383605054632 295.06881053722276 # Ar
477 477 1 0.0 75.17702239652284 201.47337074861093 979.0286148149112 # Ar
478 478 1 0.0 401.0723508962373 454.2134873914252 796.4592545696198 # Ar
479 479 1 0.0 609.4549099522011 22.342656232678042 623.6464966504141 # Ar
480 480 1 0.0 666.7730093138761 1178.3839266845357 47.733400562035186 # Ar
481 481 1 0.0 91.29461207692107 759.0369804062724 778.8606514292441 # Ar
482 482 1 0.0 863.6597253873663 810.2367605402285 296.16522832414194 # Ar
483 483 1 0.0 189.6253925877186 637.3704236846488 1007.7424389219781 # Ar
484 484 1 0.0 708.311515269738 846.1251591040372 750.6431043757552 # Ar
485 485 1 0.0 1144.5654286916774 544.8322573201017 233.89695269426576 # Ar
486 486 1 0.0 483.01696134564173 152.83746208475785 187.12326960545286 # Ar
487 487 1 0.0 122.10365104314018 1219.7256425174012 418.59904374661886 # Ar
488 488 1 0.0 314.43210345197775 144.02282950022007 905.4926260315137 # Ar
489 489 1 0.0 409.4049147172839 328.94378628049486 895.8644071086256 # Ar
490 490 1 0.0 699.9534662399075 588.3391515164681 85.9296098198859 # Ar
491 491 1 0.0 187.0500703502834 830.9532506243098 743.2555196913283 # Ar
492 492 1 0.0 6.732312412137718 945.5703917957854 409.9235732922832 # Ar
493 493 1 0.0 989.2729445441392 737.5029171412672 150.3972343251134 # Ar
494 494 1 0.0 890.4150986047164 881.3473188189129 773.5773303581132 # Ar
495 495 1 0.0 88.83388781107988 920.9730193794426 1204.6531831662867 # Ar
496 496 1 0.0 551.3665311270373 931.1472228971305 895.756589862976 # Ar
497 497 1 0.0 528.225483822905 316.73390901340485 6.577267260846951 # Ar
498 498 1 0.0 542.6729005053729 944.3995932316824 807.7307995149993 # Ar
499 499 1 0.0 822.1271173993989 246.3632894741449 671.2965040931915 # Ar
500 500 1 0.0 337.1019941391831 583.8205113375877 538.7817185871786 # Ar
501 501 1 0.0 967.4617976612939 837.8507850433058 873.1599429751459 # Ar
502 502 1 0.0 485.394183883251 1203.0488236127346 275.68977068108165 # Ar
503 503 1 0.0 754.5933131002834 39.21249972419916 1029.5050067313346 # Ar
504 504 1 0.0 860.0538047422044 1096.731239438115 705.5845071956248 # Ar
505 505 1 0.0 275.71080336016183 276.71416265290867 410.4428862307439 # Ar
506 506 1 0.0 252.69897706589492 573.2297762008155 842.2077538969984 # Ar
507 507 1 0.0 420.3564489734361 188.89368805526829 862.4574900109945 # Ar
508 508 1 0.0 877.9691143186037 828.3162772325788 0.4076406183891263 # Ar
509 509 1 0.0 876.8030538882517 720.7195521581522 524.6493351182434 # Ar
510 510 1 0.0 1079.5778281177465 1032.3804787999748 718.9120720294476 # Ar
511 511 1 0.0 653.9698047917166 46.49087145763293 761.080258787336 # Ar
512 512 1 0.0 699.6899561612207 531.5779106360454 815.8426346019894 # Ar
513 513 1 0.0 622.8167049817971 1173.0056634455088 34.29392986609833 # Ar
514 514 1 0.0 903.264696229365 697.1102690415945 641.0818503921507 # Ar
515 515 1 0.0 591.6040483358884 519.6961784026896 543.2763664671269 # Ar
516 516 1 0.0 806.5445708478637 635.9586963761751 574.2469208019317 # Ar
517 517 1 0.0 446.46622145295174 1177.755742296187 622.0721962204045 # Ar
518 518 1 0.0 323.62641384987575 840.1392059283129 228.46313302305956 # Ar
519 519 1 0.0 1119.376121377442 38.986630767944455 588.778241145123 # Ar
520 520 1 0.0 108.67661413541597 1172.3091512016558 858.9318583857895 # Ar
521 521 1 0.0 965.6166234809403 580.0985960870215 450.5348146909516 # Ar
522 522 1 0.0 281.5965266770944 729.2115679549122 1227.6043742668528 # Ar
523 523 1 0.0 889.8472582816072 235.22658364415705 349.63334835277993 # Ar
524 524 1 0.0 27.976518402478856 503.4132067807998 1190.0188558598036 # Ar
525 525 1 0.0 1214.6762906334418 930.7160729663791 866.5057499177299 # Ar
526 526 1 0.0 358.8571293180497 191.1818033049934 5.530391894994894 # Ar
527 527 1 0.0 717.8877182852456 910.4801081424171 340.27446332117773 # Ar
528 528 1 0.0 1079.5072015204364 711.2859877789174 1220.5426849348748 # Ar
529 529 1 0.0 607.3181162622227 779.9862932336487 317.75969134358866 # Ar
530 530 1 0.0 149.15808623668332 950.5394941213332 150.82503492800518 # Ar
531 531 1 0.0 603.9086591492811 766.813139158039 158.91808778057717 # Ar
532 532 1 0.0 1217.4828345784047 1032.6506352955773 329.31137088254684 # Ar
533 533 1 0.0 819.6345366137397 1044.9645783760493 540.2394480769067 # Ar
534 534 1 0.0 944.5274776188919 603.2035636276738 539.3640919676368 # Ar
535 535 1 0.0 738.4640294268911 1094.2935518793338 452.5146941108013 # Ar
536 536 1 0.0 1080.5772650294928 14.695988950627507 643.8274874622555 # Ar
537 537 1 0.0 878.3024915253997 279.2448517208285 361.45058394500654 # Ar
538 538 1 0.0 287.92805341562985 998.3173837700975 179.6800842958992 # Ar
539 539 1 0.0 936.6935394595171 1237.0701386892629 358.6105258709071 # Ar
540 540 1 0.0 572.2046959181283 838.7512794451267 1164.349475425134 # Ar
541 541 1 0.0 721.0644500136522 523.6548880939943 210.0581497005908 # Ar
542 542 1 0.0 332.6986020672876 841.2216979526493 39.515973353152454 # Ar
543 543 1 0.0 533.5351257770626 335.7810119351859 632.4903390320638 # Ar
544 544 1 0.0 617.0084324637456 826.8461441059826 722.8662318758483 # Ar
545 545 1 0.0 791.2290778929874 801.0605718858025 911.0247248016743 # Ar
546 546 1 0.0 1170.2076586463213 110.5439030338303 190.09100840189686 # Ar
547 547 1 0.0 209.36419406896934 294.28203962195636 561.0026073220029 # Ar
548 548 1 0.0 352.142222165281 1073.1835594770957 673.5501754904082 # Ar
549 549 1 0.0 921.6858963446472 1074.2093335431323 726.9039365204522 # Ar
550 550 1 0.0 405.1668150157968 297.80981759454215 323.92787598655303 # Ar
551 551 1 0.0 216.45921652860744 468.6378469075351 951.2487729332471 # Ar
552 552 1 0.0 598.3943454485392 624.9377503874637 40.60527515340753 # Ar
553 553 1 0.0 351.1984005316256 540.3582160321018 476.3466643100355 # Ar
554 554 1 0.0 1096.922613293676 175.27359136974462 772.4284935836387 # Ar
555 555 1 0.0 545.7304340696796 1173.0357014429205 849.4070100835863 # Ar
556 556 1 0.0 702.2147938123262 848.7528530004306 913.4741582207571 # Ar
557 557 1 0.0 66.30469948456962 320.14701954828865 551.329896148277 # Ar
558 558 1 0.0 32.741089430641345 939.8588592263534 1126.7146296044843 # Ar
559 559 1 0.0 328.4655071372922 760.7461520340198 1082.4727923214034 # Ar
560 560 1 0.0 95.628977619828 243.28110076531735 716.4302978383599 # Ar
561 561 1 0.0 322.55822608201555 704.8051077733649 1025.1580264795286 # Ar
562 562 1 0.0 1217.0865894035062 226.5989245713794 21.417959425612032 # Ar
563 563 1 0.0 697.4270635229749 171.26251360442646 733.7711390267953 # Ar
564 564 1 0.0 442.587207432666 1020.8379818458521 24.522540374608447 # Ar
565 565 1 0.0 254.40436492709026 479.62706296986914 133.6172816530355 # Ar
566 566 1 0.0 625.1779187025245 279.6138505032911 1089.9870507947617 # Ar
567 567 1 0.0 200.60569679521825 1047.0514886397323 490.24359438260433 # Ar
568 568 1 0.0 96.26174458546663 890.3770427542524 474.0051611232129 # Ar
569 569 1 0.0 534.1574318627808 1214.213058902666 379.395460354142 # Ar
570 570 1 0.0 819.6838229200113 278.0247101552275 39.68034675214499 # Ar
571 571 1 0.0 226.34633316448222 497.7396183056614 785.8264564794647 # Ar
572 572 1 0.0 1069.1292200035173 1199.1062723935772 789.5151479168048 # Ar
573 573 1 0.0 163.44842735173464 133.39790545247172 230.8060181538378 # Ar
574 574 1 0.0 351.01510184654774 314.26379314423053 685.8745335041098 # Ar
575 575 1 0.0 741.8284471258052 208.95386355727652 874.4309499217737 # Ar
576 576 1 0.0 837.4002238839075 191.87324810178995 228.11592873018068 # Ar
577 577 1 0.0 467.5586054793237 684.4135656771961 143.93912337790533 # Ar
578 578 1 0.0 638.6550261007626 689.0043587340725 308.5851350099073 # Ar
579 579 1 0.0 378.936137584887 226.39079233176432 901.2106760565682 # Ar
580 580 1 0.0 1162.7782070417593 722.0383970073373 393.9725121412024 # Ar
581 581 1 0.0 743.9609237076636 134.63242187876293 357.9028606789716 # Ar
582 582 1 0.0 859.2960463585589 305.0026345854135 1214.5883012618199 # Ar
583 583 1 0.0 189.17574584003015 1217.4202671462494 519.7560349381555 # Ar
584 584 1 0.0 697.1063986846368 86.81826895210044 570.9656135198576 # Ar
585 585 1 0.0 1040.5160666241554 1000.43499702587 233.5669268945917 # Ar
586 586 1 0.0 1227.7447078624166 1201.554741835205 1073.717790585467 # Ar
587 587 1 0.0 604.1012616755415 306.57185237107285 58.45858625979431 # Ar
588 588 1 0.0 118.85633503594195 233.92702156871167 1229.4240099580106 # Ar
589 589 1 0.0 307.33100726517273 1147.6547977214361 291.134110094636 # Ar
590 590 1 0.0 897.2448703321361 707.4447803689633 698.5094493123634 # Ar
591 591 1 0.0 158.38902849695884 460.0256593124501 58.15006246061903 # Ar
592 592 1 0.0 615.0625537394993 896.9277030366337 972.6879820339029 # Ar
593 593 1 0.0 568.4330801145358 646.0084213375529 385.79386333460775 # Ar
594 594 1 0.0 528.3940719202657 949.4649002663848 635.0680180910946 # Ar
595 595 1 0.0 884.7241530153951 1049.1292389135433 1062.3830841585511 # Ar
596 596 1 0.0 472.77115307131146 822.3952165076903 946.320646937166 # Ar
597 597 1 0.0 365.2691422450418 547.525368651133 1195.29644312991 # Ar
598 598 1 0.0 430.3139561054753 29.028409337318948 885.3782456473665 # Ar
599 599 1 0.0 1130.7339254127428 793.6819342319884 1108.7587144325753 # Ar
600 600 1 0.0 789.0183287040747 510.6613695975462 584.1073162437175 # Ar
601 601 1 0.0 1136.4611823421696 1220.9832123395208 1048.5613099587129 # Ar
602 602 1 0.0 855.6677584894103 107.28014168014221 400.7693619183673 # Ar
603 603 1 0.0 135.89212746038675 766.9183275891344 801.8202919860528 # Ar
604 604 1 0.0 89.18045630396774 931.0577597485437 807.11780361272 # Ar
605 605 1 0.0 75.79301325702374 53.72727069594383 532.9445877739162 # Ar
606 606 1 0.0 1000.5928864280074 185.823972526717 312.26610661763857 # Ar
607 607 1 0.0 998.8654544848182 872.9255215470599 308.0528310394331 # Ar
608 608 1 0.0 732.5198974363373 584.9626070004385 327.3435162168535 # Ar
609 609 1 0.0 582.3260326363043 173.6429915330248 1003.3261952126948 # Ar
610 610 1 0.0 65.29039997982215 741.8939019279995 153.5807958075153 # Ar
611 611 1 0.0 4.21127159240425 652.4019115241381 822.2136606402894 # Ar
612 612 1 0.0 784.6128731471392 644.3891010689573 1108.4387928281653 # Ar
613 613 1 0.0 13.398015409430167 131.0172838648275 42.51042475826301 # Ar
614 614 1 0.0 516.2307538369034 382.51038077580614 740.7855573332571 # Ar
615 615 1 0.0 944.5155465396236 1220.6395566556075 932.7827516353518 # Ar
616 616 1 0.0 312.51154683032775 964.3787244160593 705.2407959369878 # Ar
617 617 1 0.0 684.9039779045887 536.2252471790134 939.7269352952633 # Ar
618 618 1 0.0 980.5131363344449 297.3452657266073 644.7756612408938 # Ar
619 619 1 0.0 547.065217168371 1175.3333201787705 443.55591829703934 # Ar
620 620 1 0.0 252.93936009024486 829.2082750959721 596.6372699248466 # Ar
621 621 1 0.0 603.1798745606973 890.9341212427759 149.43465411279755 # Ar
622 622 1 0.0 780.1802172224535 973.4281434261226 267.1337083819583 # Ar
623 623 1 0.0 964.6760234034784 26.241095190474333 610.412586506148 # Ar
624 624 1 0.0 901.7157465263989 479.79302428594616 528.5359714612022 # Ar
625 625 1 0.0 991.6305533953995 938.5777608749737 485.55292707425286 # Ar
626 626 1 0.0 1179.4771076244836 224.850782422278 782.4075140824781 # Ar
627 627 1 0.0 675.9309723238853 392.9608205302352 1183.8889075312316 # Ar
628 628 1 0.0 361.4572717350961 707.9063585104901 1128.4602129618875 # Ar
629 629 1 0.0 874.1531702781225 153.62078619323205 751.0272541247062 # Ar
630 630 1 0.0 701.9709710354971 267.75045115036846 797.5604446654692 # Ar
631 631 1 0.0 1187.6094649771392 390.6519583670594 739.0335220404068 # Ar
632 632 1 0.0 797.2633599448468 1076.373333196979 47.66306010044062 # Ar
633 633 1 0.0 108.45356442957744 313.3653027360661 1168.185217474245 # Ar
634 634 1 0.0 148.4992668276428 820.8346422745094 581.0062705453727 # Ar
635 635 1 0.0 594.9300963919333 298.73443484528457 883.5556234920256 # Ar
636 636 1 0.0 752.9693481533135 1016.9687007388937 483.0142563971117 # Ar
637 637 1 0.0 323.75664968080685 1054.612537566698 592.9892545948856 # Ar
638 638 1 0.0 1095.7386300795554 807.0845940486132 223.0345982607879 # Ar
639 639 1 0.0 565.131388566998 645.6306019350179 1198.2014025387298 # Ar
640 640 1 0.0 574.1010712407777 281.9148942760289 730.051186094572 # Ar
641 641 1 0.0 1037.1600345306813 484.584574643169 1220.9089031995127 # Ar
642 642 1 0.0 129.28873928154465 768.6545092867563 495.9315203042292 # Ar
643 643 1 0.0 161.40897562569256 693.1629482186133 114.149419258146 # Ar
644 644 1 0.0 765.648481628954 181.032197084475 468.92051954664095 # Ar
645 645 1 0.0 1029.0696174534241 86.89789006031121 164.8511885825484 # Ar
646 646 1 0.0 93.29838766633306 784.0530965214172 335.2563786238705 # Ar
647 647 1 0.0 116.0945072931081 54.73690846717302 577.8419542634273 # Ar
648 648 1 0.0 975.6453588574976 672.7903642059892 1067.9326930120542 # Ar
649 649 1 0.0 1203.9698516735239 16.11418546893891 853.5555059074015 # Ar
650 650 1 0.0 157.599957218859 693.2911867811517 14.977396847533644 # Ar
651 651 1 0.0 341.533751910116 449.56332058116584 99.72728789830492 # Ar
652 652 1 0.0 399.10784155474914 342.7099956511056 145.3207116906276 # Ar
653 653 1 0.0 801.0337709540288 636.2254716095441 1094.665014525188 # Ar
654 654 1 0.0 1134.4835268539114 1084.4324170093184 26.171362375324257 # Ar
655 655 1 0.0 278.5666948748076 912.1452648856413 883.3361456384633 # Ar
656 656 1 0.0 385.7252985155191 888.6700411165249 822.4601124966855 # Ar
657 657 1 0.0 1122.2855378592833 936.1068408824335 733.4478665960762 # Ar
658 658 1 0.0 1158.775953603435 799.3396900268896 239.45201470616036 # Ar
659 659 1 0.0 835.5684323563219 62.03972895189339 349.94032597645355 # Ar
660 660 1 0.0 553.5387822707578 694.0882864721008 550.4190259963951 # Ar
661 661 1 0.0 973.1139902766206 832.1753550963214 613.4421798534029 # Ar
662 662 1 0.0 922.4602107583461 549.0322019861177 458.33303739576746 # Ar
663 663 1 0.0 1096.767690704613 848.9527470048821 452.0611323967918 # Ar
664 664 1 0.0 1151.2831609580346 496.1488656842283 1214.4526333298463 # Ar
665 665 1 0.0 940.4450769374808 1117.3525134794904 1144.0283089570228 # Ar
666 666 1 0.0 498.87313996200095 564.7675753478032 1205.317400213669 # Ar
667 667 1 0.0 121.82423596438367 759.5014736712044 841.6487396614426 # Ar
668 668 1 0.0 1221.808252027312 687.6432061363864 946.4280969012747 # Ar
669 669 1 0.0 836.4690544024819 678.7134600994235 640.9388935050648 # Ar
670 670 1 0.0 140.80552520138858 1076.190259334657 309.3069067077053 # Ar
671 671 1 0.0 102.98745027436429 560.8896436875774 996.1822750060358 # Ar
672 672 1 0.0 97.07653640366154 820.2618727629998 17.89627467217463 # Ar
673 673 1 0.0 161.7585006140337 364.96290070659967 680.3244729358771 # Ar
674 674 1 0.0 689.5843634187387 355.85221076467064 485.84114206017676 # Ar
675 675 1 0.0 20.698265172076386 466.48651956968985 329.68348912909784 # Ar
676 676 1 0.0 1031.1980617321422 560.5647436532821 15.980847816512819 # Ar
677 677 1 0.0 408.6426992314833 738.629208928006 783.8613772204321 # Ar
678 678 1 0.0 100.71043930866543 391.44216300962773 238.29733538677937 # Ar
679 679 1 0.0 124.05095537955206 497.6481006135451 940.6257752442682 # Ar
680 680 1 0.0 366.74259262406486 17.774166755549313 660.8616309115297 # Ar
681 681 1 0.0 944.1506407040317 1102.2955372358722 1052.5823887829622 # Ar
682 682 1 0.0 1092.4683163383418 301.3589453104141 131.19323209580227 # Ar
683 683 1 0.0 276.3831258642511 121.50610153911623 883.3767271320553 # Ar
684 684 1 0.0 196.1228205516215 855.1805634721042 1161.3558885202394 # Ar
685 685 1 0.0 1181.6164011340807 587.1761343263571 6.834301312067183 # Ar
686 686 1 0.0 791.3046919344108 66.12848096473044 108.52028478418622 # Ar
687 687 1 0.0 1087.2824961520075 713.024104180485 48.084414670823826 # Ar
688 688 1 0.0 281.6401313240266 1060.9378317917533 1145.0211192311344 # Ar
689 689 1 0.0 1098.994917636316 279.77519239400044 568.798748141768 # Ar
690 690 1 0.0 49.74468934532546 580.2250839053446 224.59183251547304 # Ar
691 691 1 0.0 1060.7304574191055 469.43025098893645 993.0066753648962 # Ar
692 692 1 0.0 88.11319500158403 1123.1845594297324 1173.9260682677204 # Ar
693 693 1 0.0 789.7586329653951 600.5750965867816 151.80277027670127 # Ar
694 694 1 0.0 94.89406537500842 465.788015184807 756.3451221450207 # Ar
695 695 1 0.0 358.485645308929 1136.1261790058168 677.2525684836694 # Ar
696 696 1 0.0 1216.0864466512262 432.2436088018996 110.7276016752057 # Ar
697 697 1 0.0 297.87645870008123 258.9073201880533 73.59463331161702 # Ar
698 698 1 0.0 871.7103302439708 1133.366445572598 171.50732714278703 # Ar
699 699 1 0.0 317.8404452874667 1026.7050670979017 426.3375289574013 # Ar
700 700 1 0.0 679.4252173777403 452.84002937474366 1065.0570662792404 # Ar
701 701 1 0.0 548.3658829296127 912.8736655461067 550.1581831225519 # Ar
702 702 1 0.0 1119.3042448200026 729.8619884370577 1171.5651903878324 # Ar
703 703 1 0.0 203.42022354603978 1158.3253476559926 775.5213711462176 # Ar
704 704 1 0.0 924.1514477326307 253.27573482581528 531.4835342820733 # Ar
705 705 1 0.0 1082.5588287703833 996.9321384952725 13.164845720846312 # Ar
706 706 1 0.0 435.13536153316545 592.4471301651456 357.45006127500255 # Ar
707 707 1 0.0 742.6966963839739 420.6930294477956 1132.1084845039077 # Ar
708 708 1 0.0 329.0402885766737 486.7715254456374 629.3140234136783 # Ar
709 709 1 0.0 1144.7357151019742 1136.9244813061705 1015.004882451145 # Ar
710 710 1 0.0 743.5471171433434 424.26106993274146 860.9394434568364 # Ar
711 711 1 0.0 1047.0908322748842 818.6170980793449 584.953670037359 # Ar
712 712 1 0.0 1016.0246221572911 877.2436287994407 5.082227213536234 # Ar
713 713 1 0.0 85.09780742434398 844.9933237592429 1054.601836113753 # Ar
714 714 1 0.0 988.6985533126914 780.255767273352 356.49427417407975 # Ar
715 715 1 0.0 274.493545566403 199.75535141794157 1087.55250370391 # Ar
716 716 1 0.0 1142.3557241820497 310.5563686461761 222.72032078177585 # Ar
717 717 1 0.0 507.23583693676716 3.7988746295585942 266.2681142427274 # Ar
718 718 1 0.0 973.1631669935405 746.2133570792457 653.3037194074104 # Ar
719 719 1 0.0 596.3313534020286 1165.2123933389557 392.3295554030123 # Ar
720 720 1 0.0 1025.3522054318473 705.4162507036953 819.943760148993 # Ar
721 721 1 0.0 200.5016151774321 1081.4848409974668 287.2774057155467 # Ar
722 722 1 0.0 472.0679429929877 523.9971869201677 80.00385411785942 # Ar
723 723 1 0.0 995.4837871332153 421.46732843547977 574.2340654037597 # Ar
724 724 1 0.0 1019.8634796173735 879.2289057486405 1014.2396529343523 # Ar
725 725 1 0.0 416.7373380347026 1206.0438539254008 447.84914640799894 # Ar
726 726 1 0.0 901.7481818429145 800.116148372122 892.0092249350539 # Ar
727 727 1 0.0 404.4089406192998 231.6801989492806 775.8341384347539 # Ar
728 728 1 0.0 541.9237587021594 1058.055928439187 1013.0834808401911 # Ar
729 729 1 0.0 313.91728188118634 558.2975349117041 11.705754455456473 # Ar
730 730 1 0.0 294.63254489768303 644.1960507560275 629.4028853143528 # Ar
731 731 1 0.0 403.35282843924404 479.97534022338283 283.1176062685078 # Ar
732 732 1 0.0 531.891298908473 1066.7336814646878 991.5522212461956 # Ar
733 733 1 0.0 346.1372260477827 518.5266150624876 749.6661655247578 # Ar
734 734 1 0.0 615.8248529287346 755.4619565717378 417.50814436157054 # Ar
735 735 1 0.0 631.9100799666937 864.9680928264311 1172.6895916007932 # Ar
736 736 1 0.0 727.7318995777995 1236.359788059216 359.87987616590794 # Ar
737 737 1 0.0 688.2767206075891 674.3378439747726 805.2743840454785 # Ar
738 738 1 0.0 55.95390673419014 24.860939627404882 723.4119999374973 # Ar
739 739 1 0.0 505.5460595919221 97.68921177087236 509.6382114872411 # Ar
740 740 1 0.0 875.0798044024249 232.00493103070295 602.8915296122198 # Ar
741 741 1 0.0 809.1148446015399 163.11640034361653 1148.4395548193086 # Ar
742 742 1 0.0 1121.6734396908132 652.9189281254153 443.308578577987 # Ar
743 743 1 0.0 1148.0410556984957 154.7758799018704 549.4243204562202 # Ar
744 744 1 0.0 201.01684079220573 16.847413566177625 53.83743311102948 # Ar
745 745 1 0.0 367.7892309800674 1175.5516840548569 19.932413647198143 # Ar
746 746 1 0.0 659.5056572522266 1213.1082928270075 1034.3351750079407 # Ar
747 747 1 0.0 658.6049254995344 301.61675190574647 965.0160839683817 # Ar
748 748 1 0.0 802.1864518517544 1127.5744798975425 344.04840614131416 # Ar
749 749 1 0.0 706.4952697882256 1103.978549980783 956.8471972777548 # Ar
750 750 1 0.0 139.90709264865131 377.7735821169023 875.6211202927832 # Ar
751 751 1 0.0 1093.7214526356372 914.9036119068007 847.0107694218171 # Ar
752 752 1 0.0 239.4910369321933 1095.5033313551896 993.0994411504797 # Ar
753 753 1 0.0 1068.3564698389262 818.9319509221391 959.6892868721224 # Ar
754 754 1 0.0 1088.96302360017 681.7546445643223 1015.8813024282227 # Ar
755 755 1 0.0 955.6521946886497 245.20620176664465 935.6181300378794 # Ar
756 756 1 0.0 852.3767784388514 579.9593718365298 811.2211231835793 # Ar
757 757 1 0.0 1008.5229979800189 921.7482053417776 297.15837132583056 # Ar
758 758 1 0.0 370.688700839138 954.593048545797 70.69407574345274 # Ar
759 759 1 0.0 1008.2680213337296 924.9253169287625 1080.0123353523934 # Ar
760 760 1 0.0 819.7484645708092 953.3848908634626 1235.3366550431335 # Ar
761 761 1 0.0 232.13621470407134 1200.6675550712862 617.5166728272924 # Ar
762 762 1 0.0 812.1890921515497 53.80818873546496 736.458440933208 # Ar
763 763 1 0.0 20.538189289228708 1216.5091533700713 607.0173410359799 # Ar
764 764 1 0.0 1060.5458574094139 677.1631681884654 780.4939355059932 # Ar
765 765 1 0.0 1089.4398070330558 650.2641828544797 471.0400899569792 # Ar
766 766 1 0.0 7.420912705195954 520.2818298609302 436.3814078064763 # Ar
767 767 1 0.0 246.5147370424073 855.3540389095052 1205.7227165284469 # Ar
768 768 1 0.0 103.0024881127069 132.91304594349165 1108.8331616062565 # Ar
769 769 1 0.0 184.25499955194246 1026.1024130678863 1212.7296674404006 # Ar
770 770 1 0.0 875.5094330211692 539.4419981025969 911.8489237432062 # Ar
771 771 1 0.0 686.4810438119487 871.1496790607987 441.0331920834871 # Ar
772 772 1 0.0 1110.1962869530457 1184.3402509106459 1149.4252372915996 # Ar
773 773 1 0.0 169.05863204612317 846.9666672942758 455.2253172348658 # Ar
774 774 1 0.0 695.4540807516881 791.8927039607731 377.1406624745247 # Ar
775 775 1 0.0 180.63917712179966 835.6217782475686 597.5215705071237 # Ar
776 776 1 0.0 137.72390239112474 104.4686476201668 570.50704829605 # Ar
777 777 1 0.0 37.59052863690794 914.9577317420363 1239.7248233255216 # Ar
778 778 1 0.0 121.8190319139982 712.465185013443 353.27945994361505 # Ar
779 779 1 0.0 611.7744311070867 572.3264682134561 776.8603631565626 # Ar
780 780 1 0.0 352.0381809611056 727.0604680714785 1022.6152329398243 # Ar
781 781 1 0.0 810.0559074035915 1092.6497241475709 656.4946499226568 # Ar
782 782 1 0.0 823.0377299466006 209.61363484156095 811.8902399110367 # Ar
783 783 1 0.0 754.5449041572022 121.54403389425349 106.51965059740957 # Ar
784 784 1 0.0 458.3347746977542 595.9926542452275 6.777719984998318 # Ar
785 785 1 0.0 309.70255226288907 138.61104265821083 812.7394660326644 # Ar
786 786 1 0.0 251.18620309496657 324.2851226973823 390.57234819087904 # Ar
787 787 1 0.0 882.0686111329899 382.2428986844712 992.3861690259947 # Ar
788 788 1 0.0 361.1448087397588 1102.3828446468524 13.879149930656158 # Ar
789 789 1 0.0 1200.2258008665417 470.3417605621489 623.6532805124792 # Ar
790 790 1 0.0 1172.8170335271334 271.11978672792134 736.7051830585102 # Ar
791 791 1 0.0 1106.2765251471747 25.00261569987139 346.15637574410863 # Ar
792 792 1 0.0 1073.232690746306 1129.0886918689494 1165.763625466615 # Ar
793 793 1 0.0 730.4917184705886 1140.1767515284052 164.13721556975838 # Ar
794 794 1 0.0 866.6123897883457 105.8731790357226 215.0458819493302 # Ar
795 795 1 0.0 616.059836661635 926.7275836209732 413.2389777510075 # Ar
796 796 1 0.0 398.5960428596255 945.2469018508843 1193.642706057741 # Ar
797 797 1 0.0 733.8127775748137 786.2845452092017 165.5998835117584 # Ar
798 798 1 0.0 597.351439278486 183.01907721323823 1236.2463602889457 # Ar
799 799 1 0.0 94.88057585932586 1187.5627889257069 572.8660840136534 # Ar
800 800 1 0.0 499.1864603629098 880.2138380966693 146.56486178095284 # Ar
801 801 1 0.0 1158.8260656077914 647.6358497852947 566.2500004894688 # Ar
802 802 1 0.0 1181.607460243185 1180.5325179208498 101.14178706961337 # Ar
803 803 1 0.0 838.6546170693516 974.3647164252023 160.80392515975365 # Ar
804 804 1 0.0 335.01838094112486 1029.2011834820917 270.2366022746354 # Ar
805 805 1 0.0 108.48582018913774 217.46999850772974 392.50070335942877 # Ar
806 806 1 0.0 967.5706038266223 1153.1552544374156 383.45628334468205 # Ar
807 807 1 0.0 1026.7185540812613 873.6553902510608 721.4062572819677 # Ar
808 808 1 0.0 204.8349414486733 11.013442337050613 807.3330401333124 # Ar
809 809 1 0.0 955.6311550163754 472.9675411587185 97.83522556269153 # Ar
810 810 1 0.0 833.2231998010938 6.1261638813727055 147.47739423324578 # Ar
811 811 1 0.0 1168.283485235509 1145.1455364094181 917.0000576641748 # Ar
812 812 1 0.0 1080.8390357986345 283.7804475677586 737.4162396686406 # Ar
813 813 1 0.0 413.70627208733924 127.67613150958597 373.1259465420228 # Ar
814 814 1 0.0 273.244899387395 583.3654784128764 981.5360418161023 # Ar
815 815 1 0.0 364.78940316886445 422.4717880614514 1071.0973733617711 # Ar
816 816 1 0.0 1084.4276966293812 1178.633064644062 1216.1121576747696 # Ar
817 817 1 0.0 707.647079896796 119.5967915552438 615.1687228154309 # Ar
818 818 1 0.0 867.8315948006635 129.6927163880352 212.9952611170474 # Ar
819 819 1 0.0 183.53650797634776 701.5608050383254 1231.3882994139212 # Ar
820 820 1 0.0 244.35958401476532 1096.660958029278 784.0738011432702 # Ar
821 821 1 0.0 686.4830283657956 672.849650726079 792.7350691151921 # Ar
822 822 1 0.0 336.4112829350933 1096.1733420295343 1035.9011042891718 # Ar
823 823 1 0.0 1024.2535172021906 1223.4593972270725 847.9717738274605 # Ar
824 824 1 0.0 119.15095833500553 1160.1645327495214 432.4203086394236 # Ar
825 825 1 0.0 419.63924068322984 1096.381618088372 1156.712318863727 # Ar
826 826 1 0.0 333.0424676228884 508.2953560072466 659.0184903241135 # Ar
827 827 1 0.0 1.1521935985931908 882.9392458641038 343.90053832206706 # Ar
828 828 1 0.0 859.09843073259 301.57904372938503 819.0736978113808 # Ar
829 829 1 0.0 1099.9747740633975 12.47602395693511 155.53923371762232 # Ar
830 830 1 0.0 745.9074507574777 202.13168313251413 1127.915408491878 # Ar
831 831 1 0.0 13.284607761934549 1038.9332984023426 269.9875997139892 # Ar
832 832 1 0.0 958.2016410662737 207.6596935724534 899.1466696036589 # Ar
833 833 1 0.0 451.1776047181408 436.78009006746635 413.66039159902584 # Ar
834 834 1 0.0 266.9581878258317 376.2683305598329 865.8561926806995 # Ar
835 835 1 0.0 593.6284698350424 268.51526909263947 1052.4230610609543 # Ar
836 836 1 0.0 853.3000288802155 295.5706478790895 1179.058383410132 # Ar
837 837 1 0.0 144.86615076078007 735.9349478056091 1191.1818609522904 # Ar
838 838 1 0.0 231.4844617480973 987.4524286047207 757.8992490313426 # Ar
839 839 1 0.0 208.03273229417016 191.17507651669146 227.5657103067993 # Ar
840 840 1 0.0 1111.6199371937869 715.7362972094583 739.374470069495 # Ar
841 841 1 0.0 739.0959516674728 476.2746639019258 1230.3975331894856 # Ar
842 842 1 0.0 954.6507403275241 1091.562621780989 503.94590620790984 # Ar
843 843 1 0.0 106.5261043288371 1212.739113077656 977.8145749382271 # Ar
844 844 1 0.0 1191.0238626329487 743.9425069770109 34.02436510394176 # Ar
845 845 1 0.0 1037.3622141493663 858.6605713223051 526.0464803810645 # Ar
846 846 1 0.0 1178.4348198129424 1135.0719415220858 72.27901948737849 # Ar
847 847 1 0.0 527.1080389817424 703.778043928379 1072.6247785488995 # Ar
848 848 1 0.0 111.02701437372531 293.7100685051893 865.3708651682828 # Ar
849 849 1 0.0 519.8061101726249 1104.9382802497037 179.65646335697053 # Ar
850 850 1 0.0 708.5086054438448 510.5226136761472 1139.986810265947 # Ar
851 851 1 0.0 759.8457407416158 1186.363016459816 665.6065343701581 # Ar
852 852 1 0.0 947.7613328176906 954.1594667376977 619.8455232664528 # Ar
853 853 1 0.0 693.8478527035471 294.2300184071256 927.4353639245155 # Ar
854 854 1 0.0 404.7546136451911 603.4308287978453 1221.0251968615073 # Ar
855 855 1 0.0 1208.4720655812782 912.3712067015209 1141.096689331259 # Ar
856 856 1 0.0 881.5274609341008 1239.0556137111334 724.369336182319 # Ar
857 857 1 0.0 1238.737280769652 742.6912421063562 894.9569978584999 # Ar
858 858 1 0.0 478.38892872000616 150.88315058335147 591.4025512805414 # Ar
859 859 1 0.0 339.3639959583476 1234.3077377597924 109.15557847555739 # Ar
860 860 1 0.0 436.1115607828559 338.79888919555674 607.919805935228 # Ar
861 861 1 0.0 530.3559461819804 284.0625665274772 1077.1264342953395 # Ar
862 862 1 0.0 696.9273898500164 125.65356502556781 465.7721761898447 # Ar
863 863 1 0.0 681.6384922906379 1173.5497730271293 762.1069078351451 # Ar
864 864 1 0.0 605.6326422134125 214.71122898317395 438.9734082912762 # Ar
865 865 1 0.0 634.482690933567 388.00176754616814 505.9724690173363 # Ar
866 866 1 0.0 28.10176265646427 287.1468649284664 318.629398496226 # Ar
867 867 1 0.0 1136.3817058822408 231.41536215229956 683.4125764343324 # Ar
868 868 1 0.0 458.4412595668037 810.8402090632491 53.16845720826666 # Ar
869 869 1 0.0 476.58159777318525 431.3126631591163 1028.143668437671 # Ar
870 870 1 0.0 904.6916403889953 482.5408392400869 80.06254853585317 # Ar
871 871 1 0.0 1009.6895224477676 339.3732333696446 1079.4309819709472 # Ar
872 872 1 0.0 204.59587374437737 970.3560474439633 763.7777153927664 # Ar
873 873 1 0.0 589.5181548307813 669.853583806125 84.89039254342953 # Ar
874 874 1 0.0 882.7914229598722 1141.3520087896795 1208.975403212552 # Ar
875 875 1 0.0 263.56266140014554 1082.5915311273775 529.9774707799247 # Ar
876 876 1 0.0 256.69996437568426 135.77226507210526 567.9560881095919 # Ar
877 877 1 0.0 878.7165762418234 218.42577109440896 513.8429124893419 # Ar
878 878 1 0.0 1217.178611550431 384.0974765427507 734.8122837392556 # Ar
879 879 1 0.0 605.5794670934256 469.24217683728006 522.4429758350291 # Ar
880 880 1 0.0 1118.5251848839998 915.3557184713886 380.35070431024945 # Ar
881 881 1 0.0 899.3311044297744 580.2427321226028 646.4689224778351 # Ar
882 882 1 0.0 1041.5578184893511 1079.5926975858617 465.25977850749706 # Ar
883 883 1 0.0 1057.3332684034447 375.1853343018442 957.121322227307 # Ar
884 884 1 0.0 467.8755308738242 104.29933937875661 685.322222068502 # Ar
885 885 1 0.0 864.2311420836654 825.9716120250014 899.8673743959935 # Ar
886 886 1 0.0 589.6660723346536 93.80905584822276 388.83473294525646 # Ar
887 887 1 0.0 604.6816995088044 405.66378292417664 990.0765236050607 # Ar
888 888 1 0.0 448.5775328700881 242.39537025691268 945.96213148959 # Ar
889 889 1 0.0 104.54439039836427 882.7412560796174 1162.0937494411553 # Ar
890 890 1 0.0 1001.422604978884 11.559047069891353 518.7888494009618 # Ar
891 891 1 0.0 198.12932612048948 669.8575954134816 11.921470215732302 # Ar
892 892 1 0.0 1020.2054975478635 64.73747859151713 1183.568630444068 # Ar
893 893 1 0.0 677.5135111845394 395.0316634902511 595.3485764587492 # Ar
894 894 1 0.0 932.9687962292433 27.429592541895364 704.8406296270896 # Ar
895 895 1 0.0 141.84725721910016 826.8236617345503 824.7663403971636 # Ar
896 896 1 0.0 539.0846602439581 380.64680753689015 241.3999007179446 # Ar
897 897 1 0.0 566.996415082922 251.21392147677028 707.1253738868156 # Ar
898 898 1 0.0 87.07793816804404 258.13374923386687 11.085594265846318 # Ar
899 899 1 0.0 1017.0422823066658 93.00487048234444 800.1889399672507 # Ar
900 900 1 0.0 240.14449582897933 34.00520076442216 397.2772577573016 # Ar
901 901 1 0.0 1181.3998536604593 752.8045588397194 916.2837121257824 # Ar
902 902 1 0.0 7.397814278137285 746.1742030747536 599.5998402697281 # Ar
903 903 1 0.0 889.3242894841331 871.7490472064077 453.9391153461579 # Ar
904 904 1 0.0 994.4141934988992 557.3859584172042 1179.3992499727144 # Ar
905 905 1 0.0 197.1686772237254 1233.2176708695533 388.5546919074287 # Ar
906 906 1 0.0 179.83204236676738 776.8605257638355 396.47608672555947 # Ar
907 907 1 0.0 1131.897969265205 218.27034480732615 731.8332727364333 # Ar
908 908 1 0.0 935.0418360588246 636.5055701872276 872.0916540714127 # Ar
909 909 1 0.0 513.9948461451636 272.6507157840725 485.92273611078394 # Ar
910 910 1 0.0 90.64800506739648 674.475643121228 958.1741545235277 # Ar
911 911 1 0.0 412.9323127743873 304.2602736331372 1134.954435301655 # Ar
912 912 1 0.0 312.63897130693977 189.26403718099843 14.968181390398982 # Ar
913 913 1 0.0 756.8205678184562 720.808400638455 445.9802490942881 # Ar
914 914 1 0.0 187.6363008359132 206.82455853277762 139.77634455402983 # Ar
915 915 1 0.0 948.7388208721367 868.8200385632068 377.40931446060114 # Ar
916 916 1 0.0 257.3905501950651 312.5432213115159 1164.6636497443387 # Ar
917 917 1 0.0 268.09098250686424 101.74463155983129 1196.6662066800363 # Ar
918 918 1 0.0 411.56330933276433 749.5912210308093 981.7301100590003 # Ar
919 919 1 0.0 496.4512925217308 277.49671606009133 1071.5213592179718 # Ar
920 920 1 0.0 1160.0094167908737 508.38255573973817 687.8957741134344 # Ar
921 921 1 0.0 735.3248082668362 1069.8679877115044 661.495129889392 # Ar
922 922 1 0.0 860.7951358490286 462.722799744804 232.5361986738754 # Ar
923 923 1 0.0 353.3280234028562 1203.6058690817708 366.05793340126866 # Ar
924 924 1 0.0 1154.2553883940643 673.0240252314143 1161.4790709170609 # Ar
925 925 1 0.0 725.4619554942672 81.33883812710819 283.5956460566644 # Ar
926 926 1 0.0 129.7504080483554 54.73830142398405 1028.1449173031892 # Ar
927 927 1 0.0 708.8596801336764 403.7557377416841 1162.6577586950834 # Ar
928 928 1 0.0 85.111543620992 946.8479478211954 976.304484835633 # Ar
929 929 1 0.0 1047.4596275641295 203.23136639283666 293.17422719291335 # Ar
930 930 1 0.0 745.9517407689896 942.5871525830837 685.9102152975967 # Ar
931 931 1 0.0 621.3208029335747 192.81334711532358 251.22308208564638 # Ar
932 932 1 0.0 879.4007225103887 567.6896860552249 565.6569726971945 # Ar
933 933 1 0.0 696.8859238567884 760.5888690731105 471.3062406454352 # Ar
934 934 1 0.0 1164.1591875799577 213.91881205738798 143.86591643755165 # Ar
935 935 1 0.0 646.3525168815181 115.55014139367012 977.0968157747152 # Ar
936 936 1 0.0 143.40085517140818 89.30390721881209 1062.0913530896657 # Ar
937 937 1 0.0 465.33529956841926 472.62487880305486 243.97720068696088 # Ar
938 938 1 0.0 101.02518395952237 791.1046445362263 221.58224808453704 # Ar
939 939 1 0.0 881.7211961551901 1069.9826539677013 1129.8410834417616 # Ar
940 940 1 0.0 704.4472900485616 1106.0413468866914 681.4553675861647 # Ar
941 941 1 0.0 91.74420228005616 489.34595896006374 88.16845157982462 # Ar
942 942 1 0.0 1071.5506799395985 773.721739697073 358.483532066653 # Ar
943 943 1 0.0 475.44115709804834 768.147973451223 682.1039327688252 # Ar
944 944 1 0.0 310.07935878544197 294.89600045975027 125.55215668460391 # Ar
945 945 1 0.0 652.5192916414335 161.24334892368103 890.2787216976978 # Ar
946 946 1 0.0 640.0845167783808 1127.5603564541848 104.63043763958292 # Ar
947 947 1 0.0 143.89737818943675 500.9849460438418 1227.074873628056 # Ar
948 948 1 0.0 989.4801968267126 786.2039849055188 775.0708182062392 # Ar
949 949 1 0.0 711.6713934069751 1156.8519705650917 947.2906379395117 # Ar
950 950 1 0.0 216.57207188664333 51.07104183664891 227.3388587595002 # Ar
951 951 1 0.0 119.75418000148198 392.5696194461086 21.36602291958065 # Ar
952 952 1 0.0 500.1870893929913 600.1575855831172 1211.4607227320605 # Ar
953 953 1 0.0 1053.8388176499532 275.31725699525003 12.15478185340224 # Ar
954 954 1 0.0 235.67044279648732 521.3994842998004 840.6159046865571 # Ar
955 955 1 0.0 827.6442738010629 495.55290760958866 90.67665016612115 # Ar
956 956 1 0.0 1230.6480558395303 379.71114403584755 184.59123218498746 # Ar
957 957 1 0.0 925.358892272676 950.6567239154264 1144.1167740125168 # Ar
958 958 1 0.0 856.4962377213981 873.0057967542967 157.3455372654525 # Ar
959 959 1 0.0 443.978526639423 852.8262658239183 657.1247430579799 # Ar
960 960 1 0.0 664.957370338844 455.7338419878804 1143.0705058177105 # Ar
961 961 1 0.0 689.3794502623413 101.42375812382123 240.26865628768672 # Ar
962 962 1 0.0 605.0425987132147 843.9617601808246 1099.9531621255085 # Ar
963 963 1 0.0 618.0584502529249 917.8097550066606 1110.3813092606586 # Ar
964 964 1 0.0 251.28437928208825 235.9246610997352 231.48841970923806 # Ar
965 965 1 0.0 649.4762964370984 1149.6236677856766 829.3488506532478 # Ar
966 966 1 0.0 1012.1029900903462 449.3055786487832 891.230161501104 # Ar
967 967 1 0.0 586.0261047430465 25.19677201069072 513.3561783181253 # Ar
968 968 1 0.0 254.4263784184666 322.5505753161799 982.441996014071 # Ar
969 969 1 0.0 359.9231752842913 249.5842898164551 1154.1580145318292 # Ar
970 970 1 0.0 1096.9769283140595 842.4879544328377 1122.594932507545 # Ar
971 971 1 0.0 145.18189827476618 1076.9790984502258 1104.4123974326146 # Ar
972 972 1 0.0 1168.7621013588534 1100.4823044235566 92.0335818706901 # Ar
973 973 1 0.0 370.1707221038874 224.9837057124185 877.3343371874045 # Ar
974 974 1 0.0 407.88466622974966 255.24690433774572 85.80618436507342 # Ar
975 975 1 0.0 414.90313684662783 700.5057092707427 89.52024820202575 # Ar
976 976 1 0.0 7.312728336484295 985.3837950732519 714.1011416925708 # Ar
977 977 1 0.0 385.3715339493602 622.6227144097642 781.7787702455292 # Ar
978 978 1 0.0 490.5201134700077 836.7353162989612 884.0969490903955 # Ar
979 979 1 0.0 355.2397897988951 864.4423431659839 870.9538232947835 # Ar
980 980 1 0.0 277.4104412283621 1057.7785463581856 1134.3968525613473 # Ar
981 981 1 0.0 899.7700515828753 1060.3767974294894 211.37285413059953 # Ar
982 982 1 0.0 697.5993086918068 76.48336478381786 1216.9091263830453 # Ar
983 983 1 0.0 859.5443850145462 1024.4028928353712 557.2924965752102 # Ar
984 984 1 0.0 1186.3786756283837 1219.665859408541 635.5158698536545 # Ar
985 985 1 0.0 960.0707624598825 654.5717847338732 1222.0604273917058 # Ar
986 986 1 0.0 925.7839011116353 1092.538620693161 312.53316042457845 # Ar
987 987 1 0.0 482.72616746085066 93.98234470312062 230.6239352797241 # Ar
988 988 1 0.0 1188.5530954585217 859.0962853251086 774.5403446790285 # Ar
989 989 1 0.0 368.26698592231145 1206.3073378165457 253.22944918339573 # Ar
990 990 1 0.0 721.6660181611409 1028.6483817015073 917.4640935702671 # Ar
991 991 1 0.0 831.5928804590512 67.28071143736284 1017.3845077772381 # Ar
992 992 1 0.0 1149.5737176372481 324.2041136391671 197.76462428936142 # Ar
993 993 1 0.0 1174.3858753766328 260.76606613831547 716.4912395969468 # Ar
994 994 1 0.0 341.0680843394934 4.622764158936494 330.9235207596905 # Ar
995 995 1 0.0 586.3046839393811 618.3949108404853 810.8890646028508 # Ar
996 996 1 0.0 649.5316297514738 911.2962999188844 831.1520215468722 # Ar
997 997 1 0.0 817.7234453407533 343.0655510459992 209.20941466220228 # Ar
998 998 1 0.0 1096.7642978191159 977.164001173736 1196.6998789079207 # Ar
999 999 1 0.0 374.1969548099208 1155.01427165438 723.4184416441312 # Ar
1000 1000 1 0.0 445.4054027937021 290.08330627545615 311.07836735222037 # Ar
1001 1001 1 0.0 558.3189778812816 28.088514150185866 351.7913881334957 # Ar
1002 1002 1 0.0 629.6088828955923 1065.1589906699294 1186.4757916928027 # Ar
1003 1003 1 0.0 244.79716675471258 664.2083955439878 444.68228290166866 # Ar
1004 1004 1 0.0 103.99807791562856 794.024935711328 229.89327258436325 # Ar
1005 1005 1 0.0 540.3273976331075 1187.0224998043805 964.5071985228645 # Ar
1006 1006 1 0.0 1100.6330080017767 7.74353923947505 1094.4906496008186 # Ar
1007 1007 1 0.0 16.867768895724012 824.0033507592441 1229.5177141484533 # Ar
1008 1008 1 0.0 529.4620232571881 1218.2389570086423 701.1578124151698 # Ar
1009 1009 1 0.0 435.7216113261544 1069.1136276728362 405.6054488434719 # Ar
1010 1010 1 0.0 140.43129536604064 23.022384198347986 645.4266360285521 # Ar
1011 1011 1 0.0 700.0197017267523 596.6038391160645 34.66713027452046 # Ar
1012 1012 1 0.0 91.66094694976701 941.5449553281916 911.909631808228 # Ar
1013 1013 1 0.0 30.197250597141586 537.8540481764513 390.43748655317376 # Ar
1014 1014 1 0.0 170.7705003249644 884.9016903708493 130.05398549988755 # Ar
1015 1015 1 0.0 985.5579359540485 425.26830019752555 603.1636948125779 # Ar
1016 1016 1 0.0 1132.9130860640469 912.5148832155162 456.40661493735155 # Ar
1017 1017 1 0.0 659.6917537289678 118.23760420556225 901.0278875485951 # Ar
1018 1018 1 0.0 122.92996694605804 114.06258150363934 478.99621933516954 # Ar
1019 1019 1 0.0 369.3220528589564 913.1251653071575 936.2618320666471 # Ar
1020 1020 1 0.0 192.53217901082547 465.47544686174984 501.9362186734557 # Ar
1021 1021 1 0.0 1113.0948637027186 678.0445475709582 965.9521015154307 # Ar
1022 1022 1 0.0 380.388383739434 332.7748008709518 25.64433911605675 # Ar
1023 1023 1 0.0 277.30120116409574 868.7201014797638 592.6826787160314 # Ar
1024 1024 1 0.0 66.04700581372173 919.870367720917 27.881998937842454 # Ar
1025 1025 1 0.0 1089.2366487549327 1129.6989745880117 602.040843412059 # Ar
1026 1026 1 0.0 210.31689359367007 7.453080037977115 469.7762819674768 # Ar
1027 1027 1 0.0 715.9742966368123 1180.719946132944 460.05601206246354 # Ar
1028 1028 1 0.0 29.369735862507525 300.5446491923356 1040.7483851430502 # Ar
1029 1029 1 0.0 184.8053196444587 111.8352360733795 321.0906036731723 # Ar
1030 1030 1 0.0 432.67725689320594 654.6234667834826 343.63429806174446 # Ar
1031 1031 1 0.0 1091.75869029321 17.064512175452425 247.57103509556353 # Ar
1032 1032 1 0.0 465.77135480357555 1129.0683890616963 833.354841720742 # Ar
1033 1033 1 0.0 416.03093968688125 213.67814144500903 149.9438037324886 # Ar
1034 1034 1 0.0 334.5244964993713 991.3320667734196 215.25355802411917 # Ar
1035 1035 1 0.0 929.2072431025438 637.0688878671333 597.0336651366002 # Ar
1036 1036 1 0.0 1134.933003442778 312.94309780747574 500.3922115693992 # Ar
1037 1037 1 0.0 751.287931533267 110.86908985828946 820.7668661689527 # Ar
1038 1038 1 0.0 821.3859319816361 1038.4086115465118 313.32523320361406 # Ar
1039 1039 1 0.0 312.0976058940134 696.7561750365636 291.39227947333467 # Ar
1040 1040 1 0.0 1121.1278033395859 1091.383217452201 93.51334105480878 # Ar
1041 1041 1 0.0 331.1200281719398 1042.4273918848796 117.58662837755315 # Ar
1042 1042 1 0.0 600.4307030444381 736.7825372838332 615.5111861157499 # Ar
1043 1043 1 0.0 334.55867168337807 774.8630171092863 773.4685910877986 # Ar
1044 1044 1 0.0 232.66667569237106 237.49038915845165 519.6822951321064 # Ar
1045 1045 1 0.0 47.09396981138382 334.27334953417227 567.3843790162607 # Ar
1046 1046 1 0.0 326.3777409358544 699.424856318618 300.5830949775071 # Ar
1047 1047 1 0.0 210.01042442219548 255.82401797116674 661.533644952512 # Ar
1048 1048 1 0.0 387.5680482772428 567.2359107031206 27.57019560013905 # Ar
1049 1049 1 0.0 22.19602470672794 160.0789095603287 903.027601297787 # Ar
1050 1050 1 0.0 806.59905747121 402.36817637904835 587.8374812847426 # Ar
1051 1051 1 0.0 130.1104968584333 1166.7773310666068 355.52752449941954 # Ar
1052 1052 1 0.0 998.7854801245918 425.1600667963382 1200.0173140679717 # Ar
1053 1053 1 0.0 873.1449470982069 34.1563198636685 1020.8884957392206 # Ar
1054 1054 1 0.0 507.62872388985966 867.1741613310999 268.73913565887926 # Ar
1055 1055 1 0.0 738.707959725238 141.0460313315123 96.68377452441914 # Ar
1056 1056 1 0.0 756.0413688869392 826.5380749635586 99.072990628364 # Ar
1057 1057 1 0.0 669.7272003991152 199.17652051250036 690.7257764363214 # Ar
1058 1058 1 0.0 1074.2661035907108 1124.7794497143695 952.2608554942512 # Ar
1059 1059 1 0.0 800.0569914314092 468.7816816086895 316.83205805645525 # Ar
1060 1060 1 0.0 14.986821500335774 1119.4346878886658 553.5154852482715 # Ar
1061 1061 1 0.0 1107.11904819147 597.4360025757577 858.323706963657 # Ar
1062 1062 1 0.0 58.18452936503755 372.53851518435187 179.55449963300183 # Ar
1063 1063 1 0.0 313.6318416231511 569.7165001922717 612.661111003935 # Ar
1064 1064 1 0.0 186.1972213674572 222.92909871025694 433.4677781626769 # Ar
1065 1065 1 0.0 574.6252393373694 646.6878942934471 688.9495964802736 # Ar
1066 1066 1 0.0 317.7341239298333 205.75079478926543 856.2010668384555 # Ar
1067 1067 1 0.0 139.04412988381756 599.9933092800842 1204.737591522043 # Ar
1068 1068 1 0.0 1075.8978759901772 884.0663636058403 67.37717197956468 # Ar
1069 1069 1 0.0 1057.3088606113147 498.0307457670007 360.2432728087757 # Ar
1070 1070 1 0.0 947.5571688904906 1014.6728271193009 121.12832330785196 # Ar
1071 1071 1 0.0 1117.3401356728434 700.7672174974776 1047.4029200803398 # Ar
1072 1072 1 0.0 462.16575839287594 107.67636199346974 559.4286892355518 # Ar
1073 1073 1 0.0 1229.452393737459 443.8146347537145 921.9977327613434 # Ar
1074 1074 1 0.0 213.99066175280473 908.3317895902095 583.9721217055294 # Ar
1075 1075 1 0.0 35.17177474763139 1140.5507879111985 1124.3373738753355 # Ar
1076 1076 1 0.0 1229.2922133726681 82.35761742038393 849.4442010609907 # Ar
1077 1077 1 0.0 44.579257991061446 473.56740286789517 461.2768386681827 # Ar
1078 1078 1 0.0 498.8701164494887 1165.8072219884345 1098.6848461082193 # Ar
1079 1079 1 0.0 1018.6982399567335 978.1768165996048 606.1422441337656 # Ar
1080 1080 1 0.0 412.4702312135918 352.26447427240004 925.8513840356852 # Ar
1081 1081 1 0.0 1229.7114578337255 778.7648958336246 627.9727065364096 # Ar
1082 1082 1 0.0 529.6900150554137 369.6535126061185 432.6935986424724 # Ar
1083 1083 1 0.0 740.4399113482274 1086.0671822409472 899.2348610566844 # Ar
1084 1084 1 0.0 677.9460129339684 835.619227299143 603.372892304817 # Ar
1085 1085 1 0.0 1200.887649665877 1190.0235912331507 640.4084003441751 # Ar
1086 1086 1 0.0 1162.7856543063888 1222.3274040604058 1096.9847864727499 # Ar
1087 1087 1 0.0 704.3312219121827 206.71283458426822 910.8420381832369 # Ar
1088 1088 1 0.0 950.9786560804547 599.3344056356068 287.63517579720684 # Ar
1089 1089 1 0.0 391.4805723175966 1166.7750254635491 630.2596154952724 # Ar
1090 1090 1 0.0 407.2079664255678 664.5514510971601 558.20791111897 # Ar
1091 1091 1 0.0 349.3367121989472 441.0112421073245 1024.5305869031033 # Ar
1092 1092 1 0.0 693.7222923845026 792.3462569550031 977.3329594329272 # Ar
1093 1093 1 0.0 280.8922243661145 1139.965972175581 1.7113977781211578 # Ar
1094 1094 1 0.0 1167.832277160172 557.0248509968951 482.44461181741656 # Ar
1095 1095 1 0.0 152.99320421797793 92.88833151201969 1068.4822926876227 # Ar
1096 1096 1 0.0 720.2329546480893 344.4168103405144 593.7683617397978 # Ar
1097 1097 1 0.0 937.9779770229521 1160.3070982896088 1078.826608668237 # Ar
1098 1098 1 0.0 240.80555928645484 814.788381754591 897.0644550866197 # Ar
1099 1099 1 0.0 865.1071597627258 345.29301320895866 1015.9077064062752 # Ar
1100 1100 1 0.0 435.4426502065342 925.9474453539068 946.8335283036844 # Ar
1101 1101 1 0.0 916.9159639163884 17.23579052055004 913.9086121714811 # Ar
1102 1102 1 0.0 998.5310498489201 857.929948273312 703.7563531191942 # Ar
1103 1103 1 0.0 725.7294674271678 698.5576914498923 1218.4673063538485 # Ar
1104 1104 1 0.0 379.2927703404104 753.6598674219514 583.2086669353179 # Ar
1105 1105 1 0.0 253.82657071616754 887.8162453542755 800.4024067179051 # Ar
1106 1106 1 0.0 961.8623692084384 536.9997929874071 777.3313445122963 # Ar
1107 1107 1 0.0 579.6225878862558 197.1157365073887 436.1812920119698 # Ar
1108 1108 1 0.0 498.7296431024814 319.47461771408035 700.0327852140842 # Ar
1109 1109 1 0.0 923.3690700696187 1211.9203418723314 41.68476818648207 # Ar
1110 1110 1 0.0 118.79808435222687 301.54724125005384 371.65721105431703 # Ar
1111 1111 1 0.0 1130.693460013456 1036.9934391354918 482.52283720019267 # Ar
1112 1112 1 0.0 907.6290231829634 57.14801578483109 473.8723805741011 # Ar
1113 1113 1 0.0 1237.9601937703126 76.9842711394481 991.1102866739045 # Ar
1114 1114 1 0.0 258.8802119378558 850.0106274051774 342.578768741793 # Ar
1115 1115 1 0.0 621.0236807665173 226.64402533652384 581.7348813462079 # Ar
1116 1116 1 0.0 506.828873205136 269.2488223736846 1161.4030196005629 # Ar
1117 1117 1 0.0 1179.5288628895062 756.2402436765352 884.8803684892199 # Ar
1118 1118 1 0.0 812.7193681068266 751.7218699955796 1138.248033681952 # Ar
1119 1119 1 0.0 744.8887140045866 405.9541586827393 1066.3800348862549 # Ar
1120 1120 1 0.0 1220.4417422585484 715.6177096719673 376.97121509203504 # Ar
1121 1121 1 0.0 268.1432700153742 882.0909163444687 1232.9182794961323 # Ar
1122 1122 1 0.0 36.940340494257725 221.8268145168373 325.399167323556 # Ar
1123 1123 1 0.0 198.71529022030646 776.1898380439621 228.46717851456967 # Ar
1124 1124 1 0.0 890.7457514490819 200.241638830498 1105.840879384047 # Ar
1125 1125 1 0.0 377.059184572917 196.80346852782856 1223.2904082759248 # Ar
1126 1126 1 0.0 177.50599115221928 310.8841562419671 580.0928174889951 # Ar
1127 1127 1 0.0 1203.586216733748 1148.192918937955 1146.6792413566516 # Ar
1128 1128 1 0.0 575.7553917848829 717.4335820782754 601.6218063972932 # Ar
1129 1129 1 0.0 593.8404053545745 704.788262476624 494.36912059663274 # Ar
1130 1130 1 0.0 882.6622894335112 5.041316675640197 428.4793386946501 # Ar
1131 1131 1 0.0 1106.7993872890668 1078.038747496782 176.3905123781815 # Ar
1132 1132 1 0.0 393.6913953998139 693.791799345441 416.21190571401087 # Ar
1133 1133 1 0.0 356.0069213479452 728.2363398751393 130.65882806781985 # Ar
1134 1134 1 0.0 300.5929382466133 351.0425087739168 1018.1549909503725 # Ar
1135 1135 1 0.0 1002.7796542537237 380.38676035479295 617.0888892901366 # Ar
1136 1136 1 0.0 831.5111073030704 388.23128630384946 104.16948299730679 # Ar
1137 1137 1 0.0 551.5654819461042 196.85011674802152 962.0487824700023 # Ar
1138 1138 1 0.0 704.0236035721456 489.1973342389808 319.58873269276756 # Ar
1139 1139 1 0.0 964.8985921335773 1075.6677413630525 766.2478342166854 # Ar
1140 1140 1 0.0 107.23465226748854 734.9122691090141 1189.8939233900533 # Ar
1141 1141 1 0.0 788.1657224502115 833.9262885068725 711.1128810920674 # Ar
1142 1142 1 0.0 627.8650517494843 290.8670223080093 347.82413752462475 # Ar
1143 1143 1 0.0 631.7346197680829 413.44217765238255 130.68432678370178 # Ar
1144 1144 1 0.0 573.374166678315 439.17027031779645 77.19314883462597 # Ar
1145 1145 1 0.0 1221.5379729685264 202.26405655657922 1225.3404653852854 # Ar
1146 1146 1 0.0 1169.6375243255052 311.90487392548806 910.3193501341802 # Ar
1147 1147 1 0.0 1034.6102662797875 281.61739928599906 1195.4007101885015 # Ar
1148 1148 1 0.0 1207.8549570125404 554.0407417548231 195.09518230108057 # Ar
1149 1149 1 0.0 1147.6195113527097 851.2907031278615 627.2701930065584 # Ar
1150 1150 1 0.0 971.6571374102757 90.14053531007079 1095.9487111442807 # Ar
1151 1151 1 0.0 359.31996005321344 997.7609209378373 814.3217446873208 # Ar
1152 1152 1 0.0 1033.7909498110198 1120.9355195992684 1129.2742882214404 # Ar
1153 1153 1 0.0 183.8104344956965 1188.6368107268993 1187.9291103714475 # Ar
1154 1154 1 0.0 811.9491377946772 530.3293193867119 12.761611132559501 # Ar
1155 1155 1 0.0 932.1856486142034 975.0542532070605 365.7582085695188 # Ar
1156 1156 1 0.0 648.3626040545416 115.07856745839639 841.0937916995888 # Ar
1157 1157 1 0.0 284.01464386993155 876.7697919903063 939.0992790976894 # Ar
1158 1158 1 0.0 1117.7374694252762 394.04212205421527 419.78978267674694 # Ar
1159 1159 1 0.0 818.5363309462223 122.03354885175195 324.4042037960946 # Ar
1160 1160 1 0.0 305.3305929781264 996.6437849752028 95.11322681398552 # Ar
1161 1161 1 0.0 967.6166877229779 1018.27904454339 90.70183713411292 # Ar
1162 1162 1 0.0 1200.491312898614 450.7956147316188 586.303769827619 # Ar
1163 1163 1 0.0 26.75226435331776 664.3608232229371 1180.1003317502284 # Ar
1164 1164 1 0.0 429.9216169277497 1012.3591747510328 107.63630343766128 # Ar
1165 1165 1 0.0 1158.5203697342806 1052.4792955415953 374.3837377060777 # Ar
1166 1166 1 0.0 1085.219780647232 110.51625769696976 557.2836828866831 # Ar
1167 1167 1 0.0 928.676914729549 8.99858298471854 77.40937875985055 # Ar
1168 1168 1 0.0 53.04067356652503 1174.0651523691688 500.8464105227942 # Ar
1169 1169 1 0.0 415.16101578454624 844.0214292454219 502.4524243484394 # Ar
1170 1170 1 0.0 646.2007477922317 1102.4465257919583 219.4347661325633 # Ar
1171 1171 1 0.0 263.851052552618 1031.943912282613 64.84246993040391 # Ar
1172 1172 1 0.0 742.9134726336457 22.75785025069133 876.7604322815364 # Ar
1173 1173 1 0.0 950.4252698329549 916.1384209810386 736.6620337358445 # Ar
1174 1174 1 0.0 699.9853837856487 959.857126803075 1151.6651477465894 # Ar
1175 1175 1 0.0 447.3079759571339 791.6444894085718 25.694636148326563 # Ar
1176 1176 1 0.0 379.37498855018345 302.18681079008314 323.11249090682605 # Ar
1177 1177 1 0.0 268.2261485502389 53.68151461162712 348.114870956912 # Ar
1178 1178 1 0.0 444.34943173333676 705.8505753095645 750.0683970152465 # Ar
1179 1179 1 0.0 1080.5448310644174 1081.4627764487268 857.7462204380358 # Ar
1180 1180 1 0.0 713.1516408113406 677.6620840843741 200.24468414739948 # Ar
1181 1181 1 0.0 942.7620307794206 837.4506632048173 861.8452221116742 # Ar
1182 1182 1 0.0 38.00710002387764 90.19003891517097 1152.2250789812022 # Ar
1183 1183 1 0.0 869.6102875149274 845.4666958704025 204.69546350805996 # Ar
1184 1184 1 0.0 754.8376739444064 977.0089350507631 503.3879393400461 # Ar
1185 1185 1 0.0 94.86027605688274 375.0465904640968 930.0550531512906 # Ar
1186 1186 1 0.0 425.06636198012546 381.56016310172726 760.0068389358357 # Ar
1187 1187 1 0.0 399.67401124629424 939.9934481415512 376.92427253789873 # Ar
1188 1188 1 0.0 92.95598843660139 288.75193300752187 307.51293316325183 # Ar
1189 1189 1 0.0 370.06739315466194 998.6757995591771 466.9223486747355 # Ar
1190 1190 1 0.0 1188.8662560729251 1193.770546944899 711.600328601946 # Ar
1191 1191 1 0.0 1008.7985839610466 493.3602307675998 412.7659125115295 # Ar
1192 1192 1 0.0 1193.6736228733398 483.9324256910441 755.3673337977802 # Ar
1193 1193 1 0.0 1.2464794592949757 286.10857862343283 651.9171773158615 # Ar
1194 1194 1 0.0 864.8636004181642 784.2630637714396 632.3196341072556 # Ar
1195 1195 1 0.0 1043.6190476350203 939.1447960656536 1181.6777354955764 # Ar
1196 1196 1 0.0 979.1126226863764 221.50103380345558 1097.2400276848657 # Ar
1197 1197 1 0.0 1119.9356203236503 557.461968883918 515.666658891173 # Ar
1198 1198 1 0.0 1008.6611416281731 534.3092960757812 396.88402238087536 # Ar
1199 1199 1 0.0 413.47791054539016 883.2726935363729 664.2790785739378 # Ar
1200 1200 1 0.0 721.4183279008647 104.49710234401337 265.8361811551045 # Ar
1201 1201 1 0.0 1007.992324783528 651.9422378900479 982.1552340881742 # Ar
1202 1202 1 0.0 832.4986675428061 367.71322343418217 717.4123968026622 # Ar
1203 1203 1 0.0 799.4240696603131 678.5039756099451 1121.2971663197663 # Ar
1204 1204 1 0.0 5.499769215797922 605.3990854870085 148.37508555016836 # Ar
1205 1205 1 0.0 555.2189026035038 87.105577390722 961.7637341256846 # Ar
1206 1206 1 0.0 318.7033643695445 251.2164526602725 979.3155762203564 # Ar
1207 1207 1 0.0 896.2086713632008 968.5243807534761 121.04566402626207 # Ar
1208 1208 1 0.0 533.5223396367496 547.5644598571184 1197.6485042621705 # Ar
1209 1209 1 0.0 716.9900691751902 232.4912969412674 432.6110045443552 # Ar
1210 1210 1 0.0 909.2786127334471 683.1113217390558 468.64704738774446 # Ar
1211 1211 1 0.0 1189.7974469710123 543.5840942421462 1085.673258411672 # Ar
1212 1212 1 0.0 1128.9424201187087 286.5995856055536 811.0569746919258 # Ar
1213 1213 1 0.0 901.4388425068051 831.6997920921607 695.056045240817 # Ar
1214 1214 1 0.0 690.9834375991285 60.87590021132493 1150.3700227375007 # Ar
1215 1215 1 0.0 237.5784033909325 362.69455428121495 566.0927721267466 # Ar
1216 1216 1 0.0 1071.7031387712518 575.1006464609907 656.3931841660875 # Ar
1217 1217 1 0.0 33.10161609012198 623.9373178107185 1202.7324949422123 # Ar
1218 1218 1 0.0 486.2702549089979 277.7399097737571 123.89367785258096 # Ar
1219 1219 1 0.0 933.9898826049789 711.8433806383781 13.073121660821503 # Ar
1220 1220 1 0.0 969.5391252239714 290.4879734719747 968.0547942756865 # Ar
1221 1221 1 0.0 864.4380603843315 1212.6066950121797 934.1082892774584 # Ar
1222 1222 1 0.0 411.67067027930017 663.791986200895 726.8177335904729 # Ar
1223 1223 1 0.0 127.28504379069129 29.83341505317742 1227.68051425414 # Ar
1224 1224 1 0.0 786.186924907323 950.751000977676 1194.0792963493907 # Ar
1225 1225 1 0.0 385.0775264570785 850.789203847078 1221.9079554488487 # Ar
1226 1226 1 0.0 1110.417732060693 953.226980269485 722.2547204845422 # Ar
1227 1227 1 0.0 412.834942206651 416.2721560286342 160.44730626371563 # Ar
1228 1228 1 0.0 177.81745325011718 820.8184215120342 1043.095336442921 # Ar
1229 1229 1 0.0 510.08334992244056 609.4853303371161 644.9220906498944 # Ar
1230 1230 1 0.0 1040.5465576371014 701.4821746988141 388.62316247376225 # Ar
1231 1231 1 0.0 549.3919123615094 1033.0900265148894 109.47206063421562 # Ar
1232 1232 1 0.0 718.1974340433353 878.3688345404685 420.7150498466127 # Ar
1233 1233 1 0.0 139.13687498095175 570.135309494788 676.1621651142743 # Ar
1234 1234 1 0.0 209.7591724420064 346.7345087660102 1038.7603090294601 # Ar
1235 1235 1 0.0 810.7861042956368 1091.677048962559 183.32289214991354 # Ar
1236 1236 1 0.0 467.4061283127928 463.0892238143567 1083.2127831614582 # Ar
1237 1237 1 0.0 774.069341210381 793.7064208974456 863.1207087705858 # Ar
1238 1238 1 0.0 318.9437954409472 137.733248247354 827.856785562456 # Ar
1239 1239 1 0.0 929.8361007979471 1205.4448822695974 601.3795838462244 # Ar
1240 1240 1 0.0 694.9124534676511 157.09448800121658 240.21511020285345 # Ar
1241 1241 1 0.0 1213.185130370133 202.9256572698135 523.18771005211 # Ar
1242 1242 1 0.0 961.1252943841772 311.83226756647207 1004.1566013120254 # Ar
1243 1243 1 0.0 835.1348827675321 466.0759990968596 995.2009119869604 # Ar
1244 1244 1 0.0 809.9615252781243 1114.6930252164414 205.34671958117715 # Ar
1245 1245 1 0.0 192.73976719791986 366.3303476133978 864.085542988316 # Ar
1246 1246 1 0.0 371.74411709177417 579.4810890836079 1213.7948789117283 # Ar
1247 1247 1 0.0 915.9675717505256 900.2584015827608 318.90385483464274 # Ar
1248 1248 1 0.0 1027.6898131366877 351.847287890382 1206.7303843296313 # Ar
1249 1249 1 0.0 538.9363108719041 14.253427234542174 977.8403596843078 # Ar
1250 1250 1 0.0 807.8528437651986 18.074780941917663 1053.6636867333445 # Ar
1251 1251 1 0.0 783.3062819682507 450.4659356856199 731.7922610452902 # Ar
1252 1252 1 0.0 484.49384174133127 982.0805546556961 212.23604967803902 # Ar
1253 1253 1 0.0 736.9042272609971 204.05061069986598 105.47168421378214 # Ar
1254 1254 1 0.0 1011.032424277507 1203.4765150724897 754.4513082165133 # Ar
1255 1255 1 0.0 618.9193431491909 297.22479736300284 1037.9445487497544 # Ar
1256 1256 1 0.0 1144.9093792636568 878.2450513154043 840.1428520508191 # Ar
1257 1257 1 0.0 991.3448489398199 1207.0011249599324 818.4377973094352 # Ar
1258 1258 1 0.0 319.67024205054116 1213.0078872875085 280.13715402320014 # Ar
1259 1259 1 0.0 43.924208044929934 1079.2775784380046 321.95696567877553 # Ar
1260 1260 1 0.0 215.09487493484144 287.2327484725628 166.83249345321207 # Ar
1261 1261 1 0.0 1206.459830362863 363.09513405395734 295.42009310402307 # Ar
1262 1262 1 0.0 353.6290193868507 30.99944399638877 64.85579757818307 # Ar
1263 1263 1 0.0 1192.6184051073694 1172.1823925612207 900.7703261966033 # Ar
1264 1264 1 0.0 401.35533591335167 885.6033261069095 966.208232279505 # Ar
1265 1265 1 0.0 980.2407919163229 639.5248573200632 966.1832517313209 # Ar
1266 1266 1 0.0 343.32997648585143 903.2665133814419 24.922438810382474 # Ar
1267 1267 1 0.0 1167.8248129802084 666.994473029384 1129.740394040869 # Ar
1268 1268 1 0.0 826.6969162103342 155.01776530874218 779.2021620673889 # Ar
1269 1269 1 0.0 994.8125218770755 775.3956470823346 790.5756868012847 # Ar
1270 1270 1 0.0 141.00543516466132 102.940361774439 943.0168303676832 # Ar
1271 1271 1 0.0 205.21715873312075 445.7729230902315 457.46434021848785 # Ar
1272 1272 1 0.0 652.69592706709 578.8792750743806 504.7279771340813 # Ar
1273 1273 1 0.0 897.0309367004736 435.2550734199286 215.00273717116644 # Ar
1274 1274 1 0.0 631.2236746301661 328.1838931529494 156.81281865561363 # Ar
1275 1275 1 0.0 180.50622649215347 813.8711239348501 150.66344973619493 # Ar
1276 1276 1 0.0 770.7639694779137 526.9783948919907 1039.4898690059367 # Ar
1277 1277 1 0.0 1042.9274058300236 688.9249022276007 846.4993839130765 # Ar
1278 1278 1 0.0 978.0057864396732 206.73086257369144 1065.2839576349056 # Ar
1279 1279 1 0.0 499.90917934678123 1050.0901138916745 1059.0247786088999 # Ar
1280 1280 1 0.0 551.6854876946738 261.1812007426269 819.8539418641358 # Ar
1281 1281 1 0.0 1143.949289930237 1017.7741060150239 238.54738979418605 # Ar
1282 1282 1 0.0 42.29599524395544 291.26654561992643 1182.0936330986744 # Ar
1283 1283 1 0.0 506.91394015727633 204.37044265902983 810.38829502771 # Ar
1284 1284 1 0.0 979.7785737239763 875.7530073043158 130.40076188822343 # Ar
1285 1285 1 0.0 712.714357007155 277.3876841708893 1154.8516730845959 # Ar
1286 1286 1 0.0 451.51723336614384 523.7558070635612 726.5086745057083 # Ar
1287 1287 1 0.0 784.1548189985979 873.2981055251057 1086.1062470457312 # Ar
1288 1288 1 0.0 976.266056708594 500.6780890034985 985.9835673069811 # Ar
1289 1289 1 0.0 330.20318427279216 428.6691217156775 89.86404699422938 # Ar
1290 1290 1 0.0 1019.9771651371489 26.899972238411518 469.5071133081516 # Ar
1291 1291 1 0.0 1118.2840964120448 1159.6573914383218 75.44133310777488 # Ar
1292 1292 1 0.0 913.7057300593151 399.68115718158714 869.8029688956318 # Ar
1293 1293 1 0.0 442.9454771987966 715.7639116282706 1122.8181567266085 # Ar
1294 1294 1 0.0 320.66869146626794 28.90374321844553 160.71159890787 # Ar
1295 1295 1 0.0 181.4330066189627 1082.6861294848054 1200.695575938791 # Ar
1296 1296 1 0.0 544.1162831703555 1131.758134529411 220.99055337999332 # Ar
1297 1297 1 0.0 261.0372018936972 560.66095648124 1210.162366665897 # Ar
1298 1298 1 0.0 431.21178802079896 162.71458943100237 225.5331222650764 # Ar
1299 1299 1 0.0 1075.218565804522 406.31585351215165 283.8943328476696 # Ar
1300 1300 1 0.0 974.0738658348637 239.06384492207263 419.3800886776651 # Ar
1301 1301 1 0.0 1149.0449409684065 610.2705939991138 774.2831977196868 # Ar
1302 1302 1 0.0 338.2726254985348 759.2134781454333 1120.0762144948437 # Ar
1303 1303 1 0.0 394.5014830633884 279.2011278469343 1145.3296010292472 # Ar
1304 1304 1 0.0 28.443051340001833 696.4657045734123 1167.9893504633076 # Ar
1305 1305 1 0.0 158.76995083522544 314.808183060243 299.8931357212676 # Ar
1306 1306 1 0.0 1.0555746066494576 848.9073686850711 583.3577269464904 # Ar
1307 1307 1 0.0 1147.7895973942652 1222.84314242868 1013.0918719071733 # Ar
1308 1308 1 0.0 720.9775857685146 1136.0842561791558 1237.233386125935 # Ar
1309 1309 1 0.0 251.49771370390832 760.0185405509076 463.9093402330578 # Ar
1310 1310 1 0.0 1039.3023696659052 154.41438899494358 71.5994924761227 # Ar
1311 1311 1 0.0 872.4582985316338 1106.56125054047 366.45733635192903 # Ar
1312 1312 1 0.0 1036.2971663801843 574.0729311979967 825.9432663267695 # Ar
1313 1313 1 0.0 800.6145550169595 664.5583353821469 414.018728168804 # Ar
1314 1314 1 0.0 1119.7661194828886 111.66357442407917 526.5702352640226 # Ar
1315 1315 1 0.0 778.7498006667821 665.7424511886435 330.53364708066505 # Ar
1316 1316 1 0.0 344.8572478834792 987.242302054269 866.0884781171568 # Ar
1317 1317 1 0.0 1149.1235356563345 224.04088922088133 622.5455928675544 # Ar
1318 1318 1 0.0 1068.7849445060601 837.0602327978035 267.21050460263217 # Ar
1319 1319 1 0.0 364.12669964779485 808.1033968482637 84.37590808450433 # Ar
1320 1320 1 0.0 366.46247630357334 67.78798355556695 533.74709609208 # Ar
1321 1321 1 0.0 936.9155168461566 1169.9468930341852 785.40384776942 # Ar
1322 1322 1 0.0 165.43050839113783 1001.1886329197936 1032.7905662169915 # Ar
1323 1323 1 0.0 730.7764429593715 574.1154546341548 979.9234854904627 # Ar
1324 1324 1 0.0 1056.0047223485165 679.5774020163548 1020.8031070441444 # Ar
1325 1325 1 0.0 332.43070286722235 302.4601975470199 1138.7025326627188 # Ar
1326 1326 1 0.0 919.3025878643869 782.7798483407934 59.69486062833286 # Ar
1327 1327 1 0.0 457.0732199992126 106.14191579939605 306.5344141200561 # Ar
1328 1328 1 0.0 472.49531546356485 970.7844715827166 1097.01674884335 # Ar
1329 1329 1 0.0 555.7952519307283 633.8852565381393 59.48266823545092 # Ar
1330 1330 1 0.0 1123.4677890020469 443.7243135055255 888.6115232023898 # Ar
1331 1331 1 0.0 149.600453065408 936.9441944429857 530.675174349805 # Ar
1332 1332 1 0.0 851.6374283847563 1197.242950477899 462.75355027265795 # Ar
1333 1333 1 0.0 1007.7064746903957 256.70268578180196 194.70567530757566 # Ar
1334 1334 1 0.0 383.38145412939144 1133.17257143506 721.0125120445718 # Ar
1335 1335 1 0.0 172.67330422968425 265.3869705260374 158.1313798718623 # Ar
1336 1336 1 0.0 550.9770470568099 505.91319174142643 836.0624303665488 # Ar
1337 1337 1 0.0 1039.2117203469272 879.2002824176718 621.7609672407156 # Ar
1338 1338 1 0.0 419.83422677650367 717.3736737973157 508.81518252816835 # Ar
1339 1339 1 0.0 592.9148457030632 1026.5486749977472 577.0517035870307 # Ar
1340 1340 1 0.0 430.4138210634005 506.28342822829825 945.9655523483351 # Ar
1341 1341 1 0.0 277.2299421267761 579.1180993187741 1041.857928753607 # Ar
1342 1342 1 0.0 309.95851686034104 1128.6496830405215 470.64418994359556 # Ar
1343 1343 1 0.0 549.0074507628158 350.7553220202906 963.0957224433903 # Ar
1344 1344 1 0.0 452.74142270581194 518.4921080155449 819.6228587587664 # Ar
1345 1345 1 0.0 998.2327757536528 268.970678407113 1188.422798993796 # Ar
1346 1346 1 0.0 639.7431379578014 937.0571144217118 978.4982710007915 # Ar
1347 1347 1 0.0 972.6278887736086 636.1871619070268 962.2357850075631 # Ar
1348 1348 1 0.0 935.3199538180293 411.2666119006643 1066.2473732350957 # Ar
1349 1349 1 0.0 489.11723477568637 776.2148857907621 1035.813006866522 # Ar
1350 1350 1 0.0 71.85504384958571 736.5882611004517 986.1832804125928 # Ar
1351 1351 1 0.0 822.4519391995829 402.31728841279653 637.0226327020375 # Ar
1352 1352 1 0.0 268.64129884304214 242.03065145409286 550.773645805756 # Ar
1353 1353 1 0.0 383.5259570619751 683.7104406656044 134.86179239430336 # Ar
1354 1354 1 0.0 46.86657918766119 656.6439895959708 167.5095261507309 # Ar
1355 1355 1 0.0 1010.9363018300019 170.47947019258368 168.83108989255624 # Ar
1356 1356 1 0.0 981.9023754055017 957.3618855155619 252.14953298341413 # Ar
1357 1357 1 0.0 735.2411154427713 427.183883714156 547.5812254973982 # Ar
1358 1358 1 0.0 21.89517991937015 1158.028002051981 20.476009837188407 # Ar
1359 1359 1 0.0 1171.091861470123 297.4907046230103 691.3825422354181 # Ar
1360 1360 1 0.0 484.191443971744 720.9335374421676 1182.8178841025542 # Ar
1361 1361 1 0.0 865.4184418674627 770.8954695909761 26.488545725249722 # Ar
1362 1362 1 0.0 930.6316902563187 1174.130009974092 769.235382840078 # Ar
1363 1363 1 0.0 618.1877690581016 522.7211769502197 890.6891419323607 # Ar
1364 1364 1 0.0 433.70997401419777 426.75719174566893 46.052556162752275 # Ar
1365 1365 1 0.0 196.43335861471718 626.3683908815585 430.15594875440337 # Ar
1366 1366 1 0.0 1137.2433982803464 406.5755775404545 1104.1332012896792 # Ar
1367 1367 1 0.0 6.962020805761781 136.7693985632346 794.3658547925736 # Ar
1368 1368 1 0.0 620.2418901511684 689.5321469885412 870.56662610982 # Ar
1369 1369 1 0.0 818.4223969397542 1063.8672869659954 880.163009292098 # Ar
1370 1370 1 0.0 952.3231831432973 1056.399570078418 788.3423963021713 # Ar
1371 1371 1 0.0 1225.6666365709448 192.01424281896655 1180.8618284968104 # Ar
1372 1372 1 0.0 980.9273668292186 436.4978447790493 71.11127112977394 # Ar
1373 1373 1 0.0 704.0411028120401 264.3649442717184 728.0805611847443 # Ar
1374 1374 1 0.0 292.09214960761574 978.4829621417193 169.34162698819745 # Ar
1375 1375 1 0.0 1041.4525325174207 1005.6168609959311 1082.0964266571698 # Ar
1376 1376 1 0.0 1117.9021781830684 1016.7957475236387 1052.75403108783 # Ar
1377 1377 1 0.0 62.62191006671115 648.3834288681999 879.2123746946041 # Ar
1378 1378 1 0.0 177.36493964296344 247.88891166063985 655.7713518365355 # Ar
1379 1379 1 0.0 629.5491020045104 647.72596985755 968.1403086273378 # Ar
1380 1380 1 0.0 782.8279828309239 1121.0659487857552 369.81688258538236 # Ar
1381 1381 1 0.0 243.47972432096586 677.1668710294363 487.4349270995639 # Ar
1382 1382 1 0.0 1203.2100249167363 695.6052626732218 77.11784556547192 # Ar
1383 1383 1 0.0 677.4990335012601 425.0782381836967 105.93239244483213 # Ar
1384 1384 1 0.0 1095.0280455886336 882.645189712241 924.3288584277465 # Ar
1385 1385 1 0.0 276.1828132794322 598.5267147787225 763.9362478292047 # Ar
1386 1386 1 0.0 275.4888227380689 1235.4420722865077 553.2371803580752 # Ar
1387 1387 1 0.0 342.7640586500212 300.1711397314162 368.0924445705245 # Ar
1388 1388 1 0.0 708.3293324480536 864.5749965906439 126.44443458336113 # Ar
1389 1389 1 0.0 1200.92993522747 889.8260490509464 142.19953330112625 # Ar
1390 1390 1 0.0 1196.7931406327993 677.653380926474 117.20458700755796 # Ar
1391 1391 1 0.0 1108.9951147511983 28.599985522005547 1108.3776677544922 # Ar
1392 1392 1 0.0 408.7597663233855 29.525990793049946 981.6371495361157 # Ar
1393 1393 1 0.0 891.0888952309391 917.043520548491 1240.0345766475282 # Ar
1394 1394 1 0.0 671.7269938392086 844.0733140721262 320.8360453073253 # Ar
1395 1395 1 0.0 271.7555331262474 988.2434719704232 933.0263540708069 # Ar
1396 1396 1 0.0 385.4251948348898 1033.8823487607135 415.48909738524 # Ar
1397 1397 1 0.0 1129.417084794507 1010.1622465496871 381.1612638762557 # Ar
1398 1398 1 0.0 398.7487657896787 785.5445413448209 773.6036166754964 # Ar
1399 1399 1 0.0 1100.0971827902613 543.0929325115599 182.01331863275522 # Ar
1400 1400 1 0.0 450.4680198361717 129.13750509293428 304.09553671058546 # Ar
1401 1401 1 0.0 349.791303791163 284.250535438497 347.7504511592467 # Ar
1402 1402 1 0.0 1060.9381795111294 656.0939834518742 731.8140197293071 # Ar
1403 1403 1 0.0 1181.673626374993 573.7277931877875 860.8236685320651 # Ar
1404 1404 1 0.0 573.1470095179068 14.584097397715034 566.9135441677055 # Ar
1405 1405 1 0.0 313.3834005105685 1068.7053439778779 867.3104862423288 # Ar
1406 1406 1 0.0 513.1105858301627 299.5420497847778 302.2105131552235 # Ar
1407 1407 1 0.0 972.0673942215736 977.6681878940786 880.2887239351912 # Ar
1408 1408 1 0.0 167.92001928000977 312.1069007697842 741.6263887009751 # Ar
1409 1409 1 0.0 439.7947265899993 402.99875871698634 333.9056057848883 # Ar
1410 1410 1 0.0 136.5558813765842 349.0895880595867 298.07961132236494 # Ar
1411 1411 1 0.0 67.04580712194199 255.4246524391354 558.8384814234169 # Ar
1412 1412 1 0.0 696.7782827033021 668.5073484946093 19.29174769579952 # Ar
1413 1413 1 0.0 899.4705462247726 1128.4403005071035 833.616517993016 # Ar
1414 1414 1 0.0 269.7734676992612 1065.833122174974 189.2242290573966 # Ar
1415 1415 1 0.0 2.602648746975631 915.6933523483282 1037.3279992421594 # Ar
1416 1416 1 0.0 752.4776954667411 165.85864509867883 767.0569826839934 # Ar
1417 1417 1 0.0 449.51478990719244 628.728242255262 1079.1607418067115 # Ar
1418 1418 1 0.0 640.334482120538 904.1337032377163 446.1607339453231 # Ar
1419 1419 1 0.0 1187.150846192857 940.4053029067742 1096.6242643874132 # Ar
1420 1420 1 0.0 68.13144152437948 309.41405716742923 67.64959147084963 # Ar
1421 1421 1 0.0 375.71530999197824 743.3511501384899 282.66793932784884 # Ar
1422 1422 1 0.0 321.0846160641875 375.1091735607179 923.8098086969798 # Ar
1423 1423 1 0.0 810.1935139024889 890.3473170858473 1114.8536240952844 # Ar
1424 1424 1 0.0 84.07966992645585 946.6793216464946 1115.3687320468173 # Ar
1425 1425 1 0.0 13.902032284494705 448.988037674108 1025.1807504867033 # Ar
1426 1426 1 0.0 340.57935142090366 218.60162156694633 1070.2600622526704 # Ar
1427 1427 1 0.0 258.8290029814015 1126.5041697586628 495.1142913197393 # Ar
1428 1428 1 0.0 1097.6018716327417 67.31288926989652 1108.8496765684147 # Ar
1429 1429 1 0.0 718.9068815870481 841.0227369466014 145.4320017735474 # Ar
1430 1430 1 0.0 1035.5486328638108 537.1858055252326 334.8976401594011 # Ar
1431 1431 1 0.0 706.5688161556517 1097.3927487616731 969.2258877021528 # Ar
1432 1432 1 0.0 265.1507855119653 632.5887022680105 411.9508640999381 # Ar
1433 1433 1 0.0 835.4510909756382 391.555939660189 384.08401930639343 # Ar
1434 1434 1 0.0 967.7082727304361 575.2226810150803 1029.7857157197084 # Ar
1435 1435 1 0.0 170.72871123582823 895.6545375807095 659.9473476316232 # Ar
1436 1436 1 0.0 892.731690245537 173.843242293112 885.8817142985522 # Ar
1437 1437 1 0.0 518.3851360925272 421.2558281590403 877.1861814097005 # Ar
1438 1438 1 0.0 177.2426114362311 311.78078230146656 42.403484124087655 # Ar
1439 1439 1 0.0 958.4180189622931 426.60166346442537 113.22307299563863 # Ar
1440 1440 1 0.0 912.8037020391002 942.8202247194964 570.8378166819066 # Ar
1441 1441 1 0.0 228.45489738122555 1034.1455406025575 147.81163433929197 # Ar
1442 1442 1 0.0 520.17873172371 202.60758289194905 333.44261465241544 # Ar
1443 1443 1 0.0 77.0792762115033 791.7003555570795 765.0921615093038 # Ar
1444 1444 1 0.0 1162.4327681108362 821.2529529786713 932.419106690493 # Ar
1445 1445 1 0.0 725.3417001683327 252.3296303681411 696.6165142167544 # Ar
1446 1446 1 0.0 467.8999210902004 1237.1521371394497 1038.4273117278963 # Ar
1447 1447 1 0.0 445.81486463158836 270.35836003353694 752.0319158388463 # Ar
1448 1448 1 0.0 483.76588754310285 1025.3515016631418 957.5128662970991 # Ar
1449 1449 1 0.0 268.3865447159015 1178.8078310320668 470.91697106631193 # Ar
1450 1450 1 0.0 363.77285469824176 3.4066861858278594 795.1666289671767 # Ar
1451 1451 1 0.0 417.0248781717942 119.15458414379734 232.89460696405024 # Ar
1452 1452 1 0.0 49.109550187317254 756.3361315146647 884.8738377610252 # Ar
1453 1453 1 0.0 69.15012011420393 489.43692112002566 594.2008310632366 # Ar
1454 1454 1 0.0 266.24103359256065 532.6639059525147 749.6124269088432 # Ar
1455 1455 1 0.0 223.804325770786 1187.8497073364103 915.7887777492273 # Ar
1456 1456 1 0.0 551.9733024039102 234.70618538865978 584.5824178264726 # Ar
1457 1457 1 0.0 505.773545900609 285.8593826583573 1018.4475985522672 # Ar
1458 1458 1 0.0 1119.224740759845 1086.2075585316827 942.1090147719001 # Ar
1459 1459 1 0.0 764.4312175363547 644.8744568777959 1038.4569931295505 # Ar
1460 1460 1 0.0 552.7245589863325 644.6095217171588 838.1255392807428 # Ar
1461 1461 1 0.0 452.3596854436117 816.0791877289857 1198.0998981247858 # Ar
1462 1462 1 0.0 1232.92364806895 1180.0872083135112 857.301958088874 # Ar
1463 1463 1 0.0 1058.1780687856985 470.10383209615725 186.10499787886022 # Ar
1464 1464 1 0.0 518.9405670524059 505.21642962815287 656.5531500296037 # Ar
1465 1465 1 0.0 516.7917902336438 971.0227803276566 584.2471764404418 # Ar
1466 1466 1 0.0 246.4913791452787 764.9011098366082 302.5583353133264 # Ar
1467 1467 1 0.0 1235.7998624931133 188.62093428905735 134.9221689010982 # Ar
1468 1468 1 0.0 1015.1070952451 690.651113450669 709.6677769422256 # Ar
1469 1469 1 0.0 674.1494900380184 954.215249123277 826.775076047282 # Ar
1470 1470 1 0.0 59.311320208271546 264.50312904144647 215.62410704179044 # Ar
1471 1471 1 0.0 617.1058725114304 899.0035952806811 920.6460611957011 # Ar
1472 1472 1 0.0 260.25113990153 592.5659521328279 996.9700788709341 # Ar
1473 1473 1 0.0 967.8503027307156 839.9428940388005 445.40199693278987 # Ar
1474 1474 1 0.0 586.3528882691796 535.006886030838 222.6887405873087 # Ar
1475 1475 1 0.0 809.384789340965 298.99497942945845 1178.78140291307 # Ar
1476 1476 1 0.0 89.58108162559424 1129.182033997447 657.716352973477 # Ar
1477 1477 1 0.0 915.5255769634582 47.32584310914108 1083.2452265706404 # Ar
1478 1478 1 0.0 885.3635151916275 1002.651960871399 79.23554465107564 # Ar
1479 1479 1 0.0 307.99973040396543 1167.16885973129 1183.9599035288386 # Ar
1480 1480 1 0.0 1184.9805758482096 290.25408091617084 1214.3497838748751 # Ar
1481 1481 1 0.0 661.0785455730144 411.12907798273636 963.8743622621051 # Ar
1482 1482 1 0.0 769.4916458996008 133.62794304898378 1023.6042001574929 # Ar
1483 1483 1 0.0 198.94894518372337 1050.8509613081753 700.9217072235172 # Ar
1484 1484 1 0.0 1211.2638816471772 1003.424248034644 85.13029696812058 # Ar
1485 1485 1 0.0 840.4316189746625 1052.0458637784725 315.4270671904387 # Ar
1486 1486 1 0.0 329.68318804305085 520.2121472184234 506.4319201192106 # Ar
1487 1487 1 0.0 554.0961188055752 481.8929598550173 515.5285045101749 # Ar
1488 1488 1 0.0 65.03940456840573 569.3324132594398 407.01397693898076 # Ar
1489 1489 1 0.0 439.9405997806457 638.0805588159179 703.7608807757124 # Ar
1490 1490 1 0.0 811.0801955567996 87.16780533928474 755.4060282052196 # Ar
1491 1491 1 0.0 1014.3409779830406 919.7223985392126 1041.856080702372 # Ar
1492 1492 1 0.0 326.59233528979905 65.31414613908315 1059.36566752607 # Ar
1493 1493 1 0.0 960.8699779643674 83.20872690217972 1171.9721734327777 # Ar
1494 1494 1 0.0 100.18776022493827 784.8563825649225 492.25297434724945 # Ar
1495 1495 1 0.0 1200.8886075333141 148.95437025061642 733.0080614091904 # Ar
1496 1496 1 0.0 861.0366497484645 745.8950773403748 436.28532180650205 # Ar
1497 1497 1 0.0 601.8984172564083 476.0133156571653 498.5381362952861 # Ar
1498 1498 1 0.0 285.33348705750853 1144.5430564850903 1139.60816506345 # Ar
1499 1499 1 0.0 49.831827491957384 1183.2087490892138 45.322605164077885 # Ar
1500 1500 1 0.0 843.4374459098356 279.5789304562013 421.4149099415351 # Ar
1501 1501 1 0.0 1043.777374286178 184.9855926721038 902.7314239911964 # Ar
1502 1502 1 0.0 199.04831055127144 896.7264732700581 1053.852500702592 # Ar
1503 1503 1 0.0 243.2541221472684 171.51636404521568 894.5072013835685 # Ar
1504 1504 1 0.0 462.0456594209627 812.3957773773004 627.859178841297 # Ar
1505 1505 1 0.0 387.20068097351077 335.0207415477573 203.98340797369485 # Ar
1506 1506 1 0.0 86.72343028486515 820.1337418993674 960.2757673634119 # Ar
1507 1507 1 0.0 250.32656656718504 16.28018189882044 400.1845419204837 # Ar
1508 1508 1 0.0 36.432655849350205 732.2402134731426 82.26864344218899 # Ar
1509 1509 1 0.0 1096.9583938111166 82.2744644791301 895.0536333787363 # Ar
1510 1510 1 0.0 437.99517511220154 1219.344765472198 106.55067551113544 # Ar
1511 1511 1 0.0 805.5405398673894 521.0624535139929 112.484031813177 # Ar
1512 1512 1 0.0 6.35285042089933 690.2475584921921 276.0194134859303 # Ar
1513 1513 1 0.0 172.8943894375003 958.2116721419588 478.1551915949182 # Ar
1514 1514 1 0.0 461.77756549874704 86.61803121017688 222.110624605723 # Ar
1515 1515 1 0.0 766.5418531864202 956.1664684443688 130.8678333295408 # Ar
1516 1516 1 0.0 630.5945184826509 1030.1000476586987 1107.2781024003643 # Ar
1517 1517 1 0.0 901.8559129775585 322.7512437241548 203.37306319590388 # Ar
1518 1518 1 0.0 277.8971343080938 837.5574062403999 1204.405096719119 # Ar
1519 1519 1 0.0 1145.287198921488 487.93435355841706 463.25934973129364 # Ar
1520 1520 1 0.0 1038.792096891533 682.7866532687242 283.1870966049805 # Ar
1521 1521 1 0.0 963.293981426853 781.7679051374834 657.0596053927445 # Ar
1522 1522 1 0.0 347.7038652473372 1003.3286032841967 1014.584671708315 # Ar
1523 1523 1 0.0 915.5523722290217 740.6111059778743 636.2268482730952 # Ar
1524 1524 1 0.0 428.4743618210813 100.862978866505 1231.1983137421248 # Ar
1525 1525 1 0.0 394.3712383680625 1001.6235945438164 673.1576087523745 # Ar
1526 1526 1 0.0 599.9522876755105 226.08795691224947 937.8357614125304 # Ar
1527 1527 1 0.0 384.60123044224764 1153.1614914262461 1035.416473119189 # Ar
1528 1528 1 0.0 964.8630903443154 105.79477104844689 700.4002947498997 # Ar
1529 1529 1 0.0 520.3695865574377 587.9952935962831 944.9078627372317 # Ar
1530 1530 1 0.0 1034.5693734318197 397.8917524405242 808.4441010587072 # Ar
1531 1531 1 0.0 717.8452482896406 174.113823805616 789.7467259779424 # Ar
1532 1532 1 0.0 1168.7278991564149 877.9165334997379 503.9037661712814 # Ar
1533 1533 1 0.0 1231.643927599738 1116.8965566000063 1118.453928568597 # Ar
1534 1534 1 0.0 899.196673920219 323.37355419106376 909.6261595173729 # Ar
1535 1535 1 0.0 275.0584733449917 1086.5276614773522 1227.404578028296 # Ar
1536 1536 1 0.0 1190.838689359281 537.0318169213343 37.3085210650807 # Ar
1537 1537 1 0.0 844.0878275191297 941.7750784205166 9.081212264430699 # Ar
1538 1538 1 0.0 601.3919883703676 662.4380834602081 680.3420267486833 # Ar
1539 1539 1 0.0 257.43693512501466 811.8421720754686 1192.366696717461 # Ar
1540 1540 1 0.0 257.6074183391249 682.2562893693437 634.5479217967799 # Ar
1541 1541 1 0.0 405.4049190775545 1101.3324550144885 1030.1623769224382 # Ar
1542 1542 1 0.0 1015.1660073751864 833.2367217013094 1158.529400333312 # Ar
1543 1543 1 0.0 28.907120746619583 537.3302621173856 1068.8782990706584 # Ar
1544 1544 1 0.0 223.3682843122972 1224.9416572835937 1155.6245137597148 # Ar
1545 1545 1 0.0 877.6358162724767 1162.2494859115775 1217.7946365780413 # Ar
1546 1546 1 0.0 1027.4520812143164 1028.4092848639202 219.1946623404977 # Ar
1547 1547 1 0.0 412.634170317904 1078.9116347294655 139.3494037670399 # Ar
1548 1548 1 0.0 223.05577771246124 95.0163488169349 44.387844893612375 # Ar
1549 1549 1 0.0 218.41617935784402 778.2334652891983 807.9696249594296 # Ar
1550 1550 1 0.0 146.38726897798787 894.5953263302533 836.7760745788397 # Ar
1551 1551 1 0.0 1167.0670566274378 1032.8802335036198 357.49448654671534 # Ar
1552 1552 1 0.0 21.63436597867429 841.8557683251166 643.8371960691726 # Ar
1553 1553 1 0.0 898.5317255599932 1023.9780722040026 524.3824489252023 # Ar
1554 1554 1 0.0 838.7011433819337 845.6167653030559 868.4740493805725 # Ar
1555 1555 1 0.0 1130.6004378211878 922.2747080840508 395.4259088940482 # Ar
1556 1556 1 0.0 23.513277794814215 83.49004635526406 902.5153951006765 # Ar
1557 1557 1 0.0 1006.7941522270601 1214.2427709233705 825.2435559731332 # Ar
1558 1558 1 0.0 757.5517534846299 109.64545665367385 929.6261716500222 # Ar
1559 1559 1 0.0 888.6897034571134 1127.5292286207703 372.95381042448497 # Ar
1560 1560 1 0.0 872.4779208085472 1162.4224828680797 105.41649946564719 # Ar
1561 1561 1 0.0 1045.6011918824443 259.0138820576036 335.70669720496915 # Ar
1562 1562 1 0.0 240.25918091966213 967.7765718249888 1180.1777132949576 # Ar
1563 1563 1 0.0 1204.8884886274598 539.9127368173071 996.4462675438832 # Ar
1564 1564 1 0.0 310.1455366860348 1055.1282485189786 79.12412150709123 # Ar
1565 1565 1 0.0 736.6019211639957 15.643645672108967 231.0424756874546 # Ar
1566 1566 1 0.0 967.930420847372 751.0137803789947 229.720770442627 # Ar
1567 1567 1 0.0 991.4342131175632 316.85300539209305 925.3664646068092 # Ar
1568 1568 1 0.0 1208.4830119567591 722.5027696515291 824.0409414897844 # Ar
1569 1569 1 0.0 399.30827915815456 1000.7289748528791 238.77365450562 # Ar
1570 1570 1 0.0 1150.0667951633905 1067.2698779410705 433.00193133566097 # Ar
1571 1571 1 0.0 655.8160336352249 130.49997067466967 652.6521090988272 # Ar
1572 1572 1 0.0 538.9402353029182 158.5413043610589 758.9844466236436 # Ar
1573 1573 1 0.0 578.5914599657831 96.99588282772855 976.0441290122246 # Ar
1574 1574 1 0.0 1228.9642305764035 849.8665148638185 82.11289458790492 # Ar
1575 1575 1 0.0 1050.2379619842836 1184.4973581084341 1173.812518762199 # Ar
1576 1576 1 0.0 458.7441250028836 834.3850542323953 744.8257520595262 # Ar
1577 1577 1 0.0 335.73231943588763 788.4472205093887 69.50534997866635 # Ar
1578 1578 1 0.0 926.8710090854539 41.69255091797489 881.3485345198625 # Ar
1579 1579 1 0.0 574.0571748676775 446.0381613223134 272.8935740100978 # Ar
1580 1580 1 0.0 785.8784912263826 351.87793579635724 439.1244635557067 # Ar
1581 1581 1 0.0 1094.0159808073604 722.5861313336457 661.9264413351435 # Ar
1582 1582 1 0.0 117.64081728370675 519.3723339717642 652.4944510848431 # Ar
1583 1583 1 0.0 854.3247455632539 524.565270653604 1091.7856435514152 # Ar
1584 1584 1 0.0 655.4057275015937 384.19974832676456 522.6002729564862 # Ar
1585 1585 1 0.0 795.5633206758939 1060.28753705717 1229.017129036088 # Ar
1586 1586 1 0.0 1011.2901584181799 244.5009320342322 661.8552078973578 # Ar
1587 1587 1 0.0 507.0368949604438 672.986406253429 329.4221089262124 # Ar
1588 1588 1 0.0 1051.9555569911056 518.242620474495 614.9746399224997 # Ar
1589 1589 1 0.0 252.20115297288322 1053.671352509998 263.90174577176606 # Ar
1590 1590 1 0.0 890.2230921476443 525.5790287438327 395.5708077752999 # Ar
1591 1591 1 0.0 1237.491029715393 1086.1854716674757 895.8624361110133 # Ar
1592 1592 1 0.0 605.6362475873648 365.92533948552534 101.84732034667432 # Ar
1593 1593 1 0.0 1054.0828641398548 537.6504884536062 683.7009204576464 # Ar
1594 1594 1 0.0 55.68784978256263 813.1233993118085 876.8655465210419 # Ar
1595 1595 1 0.0 665.2929750648781 1200.3199091769125 540.5599674399392 # Ar
1596 1596 1 0.0 974.4106929925221 814.8460808146255 678.7241526180048 # Ar
1597 1597 1 0.0 920.9985056276922 1086.4602818474216 69.18630286511969 # Ar
1598 1598 1 0.0 630.5807379858815 706.9078117990108 905.5112652531423 # Ar
1599 1599 1 0.0 44.02965685932424 963.6735703100162 791.0992194873679 # Ar
1600 1600 1 0.0 136.38332245381605 446.5283737817295 250.00185160267316 # Ar
1601 1601 1 0.0 379.5303071797231 283.6382995337195 950.9191920619666 # Ar
1602 1602 1 0.0 538.8145628369784 292.5572101432552 615.0831799040271 # Ar
1603 1603 1 0.0 103.47929928794238 719.9171409060657 1085.251649587243 # Ar
1604 1604 1 0.0 116.21888457563848 869.5546160715867 1237.598031583851 # Ar
1605 1605 1 0.0 682.2042553569075 770.2375687460465 127.49372865025933 # Ar
1606 1606 1 0.0 57.158527717875906 448.4873013605375 533.1540421121794 # Ar
1607 1607 1 0.0 680.4956940667292 182.8259307027482 798.6023756885468 # Ar
1608 1608 1 0.0 1061.0079714660894 1021.2799336563808 732.7469554823767 # Ar
1609 1609 1 0.0 90.05261610550093 254.879354947305 1177.9027608657727 # Ar
1610 1610 1 0.0 770.2934123251684 838.9876461861892 194.89568051355636 # Ar
1611 1611 1 0.0 1150.2247411056096 184.44407614277418 959.2303254659646 # Ar
1612 1612 1 0.0 713.6028105084348 60.886866468864405 1215.752204370702 # Ar
1613 1613 1 0.0 229.37282362222004 708.7282605705407 908.8960155273713 # Ar
1614 1614 1 0.0 677.7727540398354 1114.283999102822 1143.822252120494 # Ar
1615 1615 1 0.0 879.0405086712582 378.2582470304022 1100.0729795475713 # Ar
1616 1616 1 0.0 1013.3010849561948 948.1601299696849 1101.1167519622636 # Ar
1617 1617 1 0.0 981.2195386253417 780.6323454246378 140.9183795087255 # Ar
1618 1618 1 0.0 556.1446045440973 150.66522626896267 978.6914372771198 # Ar
1619 1619 1 0.0 447.34755473137415 1021.6569833923625 504.199714567453 # Ar
1620 1620 1 0.0 67.5838968123985 8.240974329488374 1217.3828888794083 # Ar
1621 1621 1 0.0 1062.1203956269692 785.8950500082378 755.6479117045349 # Ar
1622 1622 1 0.0 553.0697224480102 865.3635818802713 1191.8168224130684 # Ar
1623 1623 1 0.0 851.0112951470275 334.7643325755069 1150.1979093453986 # Ar
1624 1624 1 0.0 853.4029922354964 155.6056606877133 1090.6678512465585 # Ar
1625 1625 1 0.0 314.9615011062336 336.79649967633145 578.6194616267159 # Ar
1626 1626 1 0.0 1130.4781781252075 1077.1188717030939 347.9367067567384 # Ar
1627 1627 1 0.0 1062.3709952011823 122.1526493540289 225.28174361731527 # Ar
1628 1628 1 0.0 619.3711354073556 226.22700953632733 1157.2518351860779 # Ar
1629 1629 1 0.0 474.5851611923116 761.3522754176009 960.5896249506285 # Ar
1630 1630 1 0.0 747.5635908258383 412.1573984463486 352.0368063441036 # Ar
1631 1631 1 0.0 929.0788782778552 323.0205906566005 376.7109976436504 # Ar
1632 1632 1 0.0 1129.4415866729314 1154.6498282518692 1160.163451943573 # Ar
1633 1633 1 0.0 814.0123600962077 563.2677269839905 800.0682615780701 # Ar
1634 1634 1 0.0 748.0332379749711 1108.0771420489275 72.3766485509707 # Ar
1635 1635 1 0.0 458.6668752578381 751.054470854238 749.5941766119424 # Ar
1636 1636 1 0.0 661.2824544624434 444.65696284036346 385.26376789140573 # Ar
1637 1637 1 0.0 23.205883439450087 79.62365190922124 542.0181838892756 # Ar
1638 1638 1 0.0 283.55990018589154 1035.2530528812172 726.7649561678721 # Ar
1639 1639 1 0.0 1032.9461434386199 749.7694455980508 218.21619409742198 # Ar
1640 1640 1 0.0 51.02959762844963 1016.5329536826184 875.8358695234626 # Ar
1641 1641 1 0.0 666.4352198532649 794.8047325869861 725.5984676611888 # Ar
1642 1642 1 0.0 1.9060074697976956 277.6544046639072 1181.1474062894101 # Ar
1643 1643 1 0.0 516.7004448628353 468.7128475447086 1006.6081214247604 # Ar
1644 1644 1 0.0 1105.070594125054 682.0050586758329 318.8916551315411 # Ar
1645 1645 1 0.0 339.7929897509673 707.8610746504237 42.27922820666801 # Ar
1646 1646 1 0.0 876.8254678688269 596.1173274270141 74.74918924834313 # Ar
1647 1647 1 0.0 389.2055340650672 116.46237872369763 192.31166783658844 # Ar
1648 1648 1 0.0 1075.0237553701165 687.0387182034455 729.0023705856486 # Ar
1649 1649 1 0.0 832.617679865234 1080.7980092187322 41.651020588149564 # Ar
1650 1650 1 0.0 932.7796573785716 1049.0464661523006 325.53005299008595 # Ar
1651 1651 1 0.0 940.0669456617728 605.9692043906965 1024.5015539593537 # Ar
1652 1652 1 0.0 1011.8677671009199 731.1338531178261 472.5788544229033 # Ar
1653 1653 1 0.0 453.96064652101603 221.9906559900279 444.15044019923846 # Ar
1654 1654 1 0.0 1167.3265659128976 999.6170844782416 138.94630312113082 # Ar
1655 1655 1 0.0 751.1364461279051 1137.675579565446 275.9491878173562 # Ar
1656 1656 1 0.0 685.7300920929895 570.4161206657986 422.9403105799443 # Ar
1657 1657 1 0.0 923.1566549041693 234.3582342720091 89.95688535303911 # Ar
1658 1658 1 0.0 31.719303606996085 1177.7357756904532 1192.3319390788258 # Ar
1659 1659 1 0.0 546.1703799329078 949.1513896448544 1027.6929673318957 # Ar
1660 1660 1 0.0 537.3463353991757 1087.607889875193 1118.8330765299056 # Ar
1661 1661 1 0.0 1032.2968912090926 574.5411136607024 561.6408351402479 # Ar
1662 1662 1 0.0 1018.0819778341062 97.62154530637352 1081.9275309308491 # Ar
1663 1663 1 0.0 303.31091292122 494.25637624112267 695.5337619701685 # Ar
1664 1664 1 0.0 658.8773822406757 604.5318226968818 552.2603817531643 # Ar
1665 1665 1 0.0 857.3287083955096 442.7504370660926 372.7140259190578 # Ar
1666 1666 1 0.0 328.1319965372849 979.7006902894043 5.840525125552477 # Ar
1667 1667 1 0.0 7.775249030771254 1220.2811992196637 78.19390001590516 # Ar
1668 1668 1 0.0 707.7808038957203 912.2884606785503 948.497651661997 # Ar
1669 1669 1 0.0 264.9851422437175 780.8301362404462 22.190283514170982 # Ar
1670 1670 1 0.0 629.3951942304672 556.1223054903339 575.4071803612927 # Ar
1671 1671 1 0.0 576.8646007412917 12.109399359308833 217.2576501883915 # Ar
1672 1672 1 0.0 540.9505266749675 1054.2487634244756 510.0128953805488 # Ar
1673 1673 1 0.0 392.68233395241305 1094.4097307146144 1068.9878377750101 # Ar
1674 1674 1 0.0 455.3696155726319 619.415712787332 838.2942870839163 # Ar
1675 1675 1 0.0 731.4339729433033 719.5463907012199 811.4024453131594 # Ar
1676 1676 1 0.0 591.9442904503481 218.09981683065388 841.5427639853834 # Ar
1677 1677 1 0.0 929.5651223912461 466.0425384454557 691.4917929748291 # Ar
1678 1678 1 0.0 1153.4690899236539 900.1742705739609 707.3760912071201 # Ar
1679 1679 1 0.0 218.95270936691026 1168.7022390058044 1158.83956295617 # Ar
1680 1680 1 0.0 1206.268179532978 572.5610435495076 679.2133630739488 # Ar
1681 1681 1 0.0 841.9510270921801 821.093369955307 357.76052344866906 # Ar
1682 1682 1 0.0 138.2603473709482 586.0998656845247 342.11050725232633 # Ar
1683 1683 1 0.0 1035.7737159536252 1115.5099174879558 846.2278907976353 # Ar
1684 1684 1 0.0 663.9979026136506 995.4204929243142 1036.1519490788737 # Ar
1685 1685 1 0.0 623.1036566083187 893.0267753415368 860.8199655306527 # Ar
1686 1686 1 0.0 553.3047788476563 775.802813135603 103.20285629087186 # Ar
1687 1687 1 0.0 60.50568377787953 80.60355123057982 598.4472851770513 # Ar
1688 1688 1 0.0 201.87125029521263 144.80976952201658 1230.871386334162 # Ar
1689 1689 1 0.0 276.54896327920574 1132.3534845901634 398.99878801715937 # Ar
1690 1690 1 0.0 568.9320280499767 911.3257846221944 657.7996036708522 # Ar
1691 1691 1 0.0 879.43702402421 1178.321800893708 385.3947133377351 # Ar
1692 1692 1 0.0 878.5082174048785 1057.0334970811548 684.2954790361381 # Ar
1693 1693 1 0.0 246.11224998538145 624.646256381108 673.1492587973418 # Ar
1694 1694 1 0.0 91.90802322121144 668.2620728877931 1177.8257555790658 # Ar
1695 1695 1 0.0 330.9680373723005 751.6208596401319 388.3944518653449 # Ar
1696 1696 1 0.0 892.5233667798844 425.5889342033284 1165.8973947612114 # Ar
1697 1697 1 0.0 923.5394585168473 229.8304659800171 903.1648882188217 # Ar
1698 1698 1 0.0 79.05931435578094 948.4356922203013 392.2354948761446 # Ar
1699 1699 1 0.0 708.0652373600266 1053.239973123784 1023.6576954078396 # Ar
1700 1700 1 0.0 716.8902451743036 14.113206130561883 82.46486008020906 # Ar
1701 1701 1 0.0 1068.1092138486645 930.6237931029196 772.421748277984 # Ar
1702 1702 1 0.0 648.3018426107558 347.18859673224654 7.945647183910095 # Ar
1703 1703 1 0.0 437.1133000595344 292.1482705542556 1054.4504053989806 # Ar
1704 1704 1 0.0 201.5134447495026 112.8351970057199 122.24330179017645 # Ar
1705 1705 1 0.0 933.8772943998171 1205.8407532095457 461.8350910452534 # Ar
1706 1706 1 0.0 758.5379567993239 366.07150283754663 325.11043214046987 # Ar
1707 1707 1 0.0 1192.3512556461285 3.9494488541683035 743.3740032426186 # Ar
1708 1708 1 0.0 175.48153970618645 816.715265278915 494.03347567205606 # Ar
1709 1709 1 0.0 1106.9000759055498 494.58069307110947 409.0093060970066 # Ar
1710 1710 1 0.0 95.88806248932411 676.3580308531784 1196.0377251524376 # Ar
1711 1711 1 0.0 828.3362118993845 346.796057049923 3.7689968548103057 # Ar
1712 1712 1 0.0 217.12391279308753 674.1844205274072 231.03081382596378 # Ar
1713 1713 1 0.0 1182.8841766733362 188.50979192865103 511.82230819929737 # Ar
1714 1714 1 0.0 1229.1357394390766 338.16217627516704 137.26469448488223 # Ar
1715 1715 1 0.0 898.684924917821 704.7627113816413 661.472425899557 # Ar
1716 1716 1 0.0 789.5142575075092 1018.0982959845603 415.4529090154136 # Ar
1717 1717 1 0.0 1161.3875754048934 937.9883198476377 128.3588505427995 # Ar
1718 1718 1 0.0 644.4579312339398 619.9182338405631 847.6049860446271 # Ar
1719 1719 1 0.0 1022.9208991221919 471.59058695742647 547.292437660582 # Ar
1720 1720 1 0.0 1070.0844022268138 1110.9090309599958 147.38140775980773 # Ar
1721 1721 1 0.0 151.5536504874625 1050.8333226949053 175.60463435325607 # Ar
1722 1722 1 0.0 1031.154164147398 631.6937445949297 1148.801605643529 # Ar
1723 1723 1 0.0 908.4363863851938 651.944695692434 383.0002180299808 # Ar
1724 1724 1 0.0 933.9461833662615 1095.7490663984765 1000.698903161553 # Ar
1725 1725 1 0.0 573.4961042194183 1207.7965472753801 307.2678413018105 # Ar
1726 1726 1 0.0 879.4381188215319 768.9785849130888 778.7605863428362 # Ar
1727 1727 1 0.0 751.004565722713 300.9910042365524 931.2985062001532 # Ar
1728 1728 1 0.0 288.05828673376897 517.1845688171553 222.23014158459637 # Ar
1729 1729 1 0.0 1177.6976531249536 744.9946639910034 353.27473443730497 # Ar
1730 1730 1 0.0 188.4268683573333 395.8735807983932 717.2706024488531 # Ar
1731 1731 1 0.0 336.7032558402738 1014.5586160408498 448.3454408938772 # Ar
1732 1732 1 0.0 343.14614661708765 1113.4840007660812 1058.1794499616565 # Ar
1733 1733 1 0.0 0.7058688044149264 314.68652942505855 918.2480347552453 # Ar
1734 1734 1 0.0 512.0421601563746 525.279732488316 557.7058604643785 # Ar
1735 1735 1 0.0 263.3422622929775 295.94904183324536 631.3891174498558 # Ar
1736 1736 1 0.0 717.5783230642222 864.5363130011151 1087.8753530912827 # Ar
1737 1737 1 0.0 929.3765163202735 547.0688883843832 7.493913768229005 # Ar
1738 1738 1 0.0 1075.9763595969234 949.5379885694275 1118.0104495756475 # Ar
1739 1739 1 0.0 589.2697755348273 570.8585233778042 127.71750357621869 # Ar
1740 1740 1 0.0 566.2242503442396 581.915241353997 569.4993232754915 # Ar
1741 1741 1 0.0 281.42981750443363 879.9206456353851 394.2818520811407 # Ar
1742 1742 1 0.0 770.6012830768425 1207.8853191192566 721.5386104677196 # Ar
1743 1743 1 0.0 626.7815749059794 196.45313090300192 35.32397546172566 # Ar
1744 1744 1 0.0 125.94515039039644 1161.3627625990741 416.75000721952034 # Ar
1745 1745 1 0.0 82.01957948931478 337.8901409296022 252.97827734899292 # Ar
1746 1746 1 0.0 264.1296428988679 449.15512727951216 1156.4479604786172 # Ar
1747 1747 1 0.0 146.3670965635668 1085.5329450386716 108.66605202558605 # Ar
1748 1748 1 0.0 696.3172480743359 540.2430193157879 503.52835210289066 # Ar
1749 1749 1 0.0 55.25704153518298 978.6301565451945 370.36866085052515 # Ar
1750 1750 1 0.0 1034.9092790497073 799.972912814958 598.4487765641468 # Ar
1751 1751 1 0.0 152.76009837268413 593.6968622720641 1085.2731401879175 # Ar
1752 1752 1 0.0 657.7235841938184 944.4889158768613 818.0623018672405 # Ar
1753 1753 1 0.0 288.77376424240157 1104.3296056319841 612.0464946103119 # Ar
1754 1754 1 0.0 532.3438536826618 292.5055062214926 472.5067812881837 # Ar
1755 1755 1 0.0 676.5129278102315 1102.436703214709 962.0156359683446 # Ar
1756 1756 1 0.0 437.09952995478244 1234.0462290178762 1152.3598238752552 # Ar
1757 1757 1 0.0 850.8356021798693 273.9905585283365 420.8683507327839 # Ar
1758 1758 1 0.0 353.7656473719925 659.2874190983406 361.0169429103127 # Ar
1759 1759 1 0.0 217.39794597522896 35.528828378450136 1183.757186716887 # Ar
1760 1760 1 0.0 447.1471710815995 1199.2196278447482 386.282226284304 # Ar
1761 1761 1 0.0 188.51216251756543 766.7828653087591 1031.932752700237 # Ar
1762 1762 1 0.0 376.8811853358454 326.23905159312324 64.29857331786809 # Ar
1763 1763 1 0.0 188.05133253776222 1003.5046130162376 384.1202184283008 # Ar
1764 1764 1 0.0 538.4726905435356 997.0215457870653 604.1357298638119 # Ar
1765 1765 1 0.0 37.94057179181437 1191.176982276697 1159.4526375419441 # Ar
1766 1766 1 0.0 1022.9394870185148 195.7233077542743 376.85267524678846 # Ar
1767 1767 1 0.0 491.2360807184986 564.1565473836013 555.4435564946201 # Ar
1768 1768 1 0.0 421.39530922535005 207.08360397714023 410.79921698560656 # Ar
1769 1769 1 0.0 490.2211809110524 1099.1601253385422 1154.5467472438486 # Ar
1770 1770 1 0.0 1188.2368243075916 1065.0108648160333 379.42799721196224 # Ar
1771 1771 1 0.0 1092.0140315499505 161.76461311793042 486.9203148122973 # Ar
1772 1772 1 0.0 212.00875430033483 912.3688387931014 936.5467417473692 # Ar
1773 1773 1 0.0 163.14509386266286 121.5997651019216 165.19509141692552 # Ar
1774 1774 1 0.0 138.61844759717215 360.13276746287215 754.2864595273038 # Ar
1775 1775 1 0.0 917.0131724760694 36.088794119771876 705.6825517785225 # Ar
1776 1776 1 0.0 408.32114071279835 574.3919639303606 849.9411876739898 # Ar
1777 1777 1 0.0 54.08218578290218 855.6659049928439 450.2576200384138 # Ar
1778 1778 1 0.0 589.1493638738925 610.9961475160496 459.47331171093265 # Ar
1779 1779 1 0.0 987.3828643307646 840.7166345084994 524.5806942699924 # Ar
1780 1780 1 0.0 768.0067354826607 704.3344996842732 834.780617155502 # Ar
1781 1781 1 0.0 1151.5016547921707 762.8174155803591 712.4687485585918 # Ar
1782 1782 1 0.0 469.31024069580303 533.77833151822 282.87481664082145 # Ar
1783 1783 1 0.0 1030.9807683927986 934.3781697733044 131.6230380012453 # Ar
1784 1784 1 0.0 1172.9614722783733 659.0298228509156 759.5911144951007 # Ar
1785 1785 1 0.0 34.712672038958864 1230.4674389172678 614.943412150584 # Ar
1786 1786 1 0.0 69.02101474877665 298.78610535201744 547.2932270788833 # Ar
1787 1787 1 0.0 1133.1176468769688 222.3868036765799 950.5145730280663 # Ar
1788 1788 1 0.0 1156.1143373030213 242.35678198023237 1011.737923545288 # Ar
1789 1789 1 0.0 1087.6888266568305 279.9250080003973 451.62004182469326 # Ar
1790 1790 1 0.0 483.5936604785455 701.4316643677003 919.1514565790004 # Ar
1791 1791 1 0.0 1155.9597040071558 797.7259441798931 590.1118551802545 # Ar
1792 1792 1 0.0 413.6770478903885 792.0752649102124 500.1962893084118 # Ar
1793 1793 1 0.0 943.221025548161 365.18278272221704 37.62541667827978 # Ar
1794 1794 1 0.0 810.0891929916844 954.5594073286849 302.3182146315059 # Ar
1795 1795 1 0.0 847.34261630521 1172.2238617501089 13.818551493423858 # Ar
1796 1796 1 0.0 235.92885009846665 59.916348795429855 606.4860492661257 # Ar
1797 1797 1 0.0 613.1169075344278 214.27488836223438 863.5992330172182 # Ar
1798 1798 1 0.0 569.1222325449429 1169.9574428600463 269.1748677285367 # Ar
1799 1799 1 0.0 35.96270326504181 789.3671450091108 717.9722065114331 # Ar
1800 1800 1 0.0 551.2588567422981 477.04654753756887 171.45907619048563 # Ar
1801 1801 1 0.0 576.0563471649889 51.691032460901994 559.6753932489788 # Ar
1802 1802 1 0.0 1219.1522060418588 494.38572310696037 739.4590188072007 # Ar
1803 1803 1 0.0 359.54073072265277 97.66979319326444 854.4689722130936 # Ar
1804 1804 1 0.0 825.7979263295028 1229.6220729856548 634.7831380397921 # Ar
1805 1805 1 0.0 901.4784403981203 636.1676226027735 836.896014801186 # Ar
1806 1806 1 0.0 274.9483651291391 348.84643860000017 962.2863281729412 # Ar
1807 1807 1 0.0 401.1190504978466 924.5816218302944 996.2888498866972 # Ar
1808 1808 1 0.0 514.8921833792147 1054.2082140942439 376.5173828422534 # Ar
1809 1809 1 0.0 756.9626102915931 723.4665892856109 740.6811637916984 # Ar
1810 1810 1 0.0 880.0688737217214 327.63995475736044 479.422080802092 # Ar
1811 1811 1 0.0 1168.2739949437937 1045.9821059448673 1162.39118283026 # Ar
1812 1812 1 0.0 904.5186777142363 10.820823442853166 100.783158918147 # Ar
1813 1813 1 0.0 245.5449890823561 633.7261053324631 1053.0776213952797 # Ar
1814 1814 1 0.0 945.0973547230103 1222.0586403676475 656.9265637921314 # Ar
1815 1815 1 0.0 639.770921163347 1196.4701852848568 309.82909398007143 # Ar
1816 1816 1 0.0 429.24965788100377 617.5066598131649 1157.1076208011284 # Ar
1817 1817 1 0.0 361.8024071262268 552.594088035272 975.4890848526384 # Ar
1818 1818 1 0.0 572.7251631953937 836.5860884237587 20.29322138388037 # Ar
1819 1819 1 0.0 269.7283487607581 450.3470976936573 773.7460902321169 # Ar
1820 1820 1 0.0 1099.9198512548523 496.3599870324795 502.48900392152194 # Ar
1821 1821 1 0.0 535.9583704263314 570.6743001411749 584.8660102746394 # Ar
1822 1822 1 0.0 1214.422358546563 1208.2618442015566 528.2452007348058 # Ar
1823 1823 1 0.0 175.49350046535488 1234.826453684832 925.8027078998673 # Ar
1824 1824 1 0.0 525.3087001942577 84.58931648459382 468.51408242191 # Ar
1825 1825 1 0.0 658.2612382362323 1180.8934700270167 142.2615693093804 # Ar
1826 1826 1 0.0 39.340848235072144 299.8148591231951 661.9871095331586 # Ar
1827 1827 1 0.0 715.0964352045205 588.7362482510526 201.00549174615753 # Ar
1828 1828 1 0.0 35.437338213938425 433.03179566279096 982.8380225397727 # Ar
1829 1829 1 0.0 1157.0648757334213 71.24854453071484 781.2768246870321 # Ar
1830 1830 1 0.0 730.359715693359 716.2101664502968 726.9460353405768 # Ar
1831 1831 1 0.0 153.57557129691077 1055.3864322895606 166.38092956300864 # Ar
1832 1832 1 0.0 1069.1179472755314 922.5819949778755 154.55842103116427 # Ar
1833 1833 1 0.0 1031.0337481890786 170.91138732683345 76.26024955352172 # Ar
1834 1834 1 0.0 363.6795244809693 995.8591127849501 34.755254407110904 # Ar
1835 1835 1 0.0 517.3808762211471 850.0103305440791 211.89233149028502 # Ar
1836 1836 1 0.0 1081.0563866148598 843.0233762123479 430.08876030900313 # Ar
1837 1837 1 0.0 1002.3389183846563 699.5743938263945 24.122431895193316 # Ar
1838 1838 1 0.0 766.8106171085318 317.6614660912635 1078.2556512833853 # Ar
1839 1839 1 0.0 503.5853136688024 694.097776831352 736.0305772099374 # Ar
1840 1840 1 0.0 764.5561531989881 604.5448927395119 179.47838188868693 # Ar
1841 1841 1 0.0 1153.1012223957334 59.3486312700313 1115.7540157925437 # Ar
1842 1842 1 0.0 389.0433672507256 168.71779972425372 41.50567820145698 # Ar
1843 1843 1 0.0 189.41855468145204 802.6018321323402 461.4488834439764 # Ar
1844 1844 1 0.0 638.4103705080112 438.9429433874638 458.72122118846136 # Ar
1845 1845 1 0.0 1112.0675977597357 122.54120416596322 904.980903720385 # Ar
1846 1846 1 0.0 1181.771647653303 650.6455476506474 374.13933207379586 # Ar
1847 1847 1 0.0 587.3357576006043 897.4681116144831 1004.7977903098872 # Ar
1848 1848 1 0.0 5.080892969113988 592.0909491547893 161.7324004939495 # Ar
1849 1849 1 0.0 525.2658475858193 225.97042901809928 124.47447893323947 # Ar
1850 1850 1 0.0 1088.620579006683 974.0550037546034 1173.130694681777 # Ar
1851 1851 1 0.0 571.7431301857645 1120.995212668934 770.4501901825579 # Ar
1852 1852 1 0.0 952.9702184260931 1181.740628105595 872.0191039677508 # Ar
1853 1853 1 0.0 851.5497053385646 831.206693462423 376.2433095780022 # Ar
1854 1854 1 0.0 699.162428172461 63.350579741488936 763.8651816092413 # Ar
1855 1855 1 0.0 400.6841697987142 184.96623891369396 107.0817849277774 # Ar
1856 1856 1 0.0 1126.0697489434845 97.90647751226435 207.58111640604 # Ar
1857 1857 1 0.0 610.152642135687 872.5130741304929 316.63074346912214 # Ar
1858 1858 1 0.0 26.586171524622333 399.5043507659358 1176.103186472474 # Ar
1859 1859 1 0.0 583.5555022001862 349.5401859931945 1148.964213295966 # Ar
1860 1860 1 0.0 389.76717829853817 131.2055145928312 768.3785943395037 # Ar
1861 1861 1 0.0 1177.5642798702406 21.00565546996384 563.1360350287937 # Ar
1862 1862 1 0.0 898.9509051353833 718.6261563887725 909.7145178343361 # Ar
1863 1863 1 0.0 936.505587196987 1232.316379157741 1091.692654685722 # Ar
1864 1864 1 0.0 279.1740336922809 644.934305531301 576.8227628499319 # Ar
1865 1865 1 0.0 1179.3065252583508 947.9333999613912 165.06934933927442 # Ar
1866 1866 1 0.0 337.2658449001066 1234.3318519875886 108.90645156331426 # Ar
1867 1867 1 0.0 73.11920067676823 40.16962504248447 100.37125646136344 # Ar
1868 1868 1 0.0 514.1155926613396 538.9470348160553 942.6693381394817 # Ar
1869 1869 1 0.0 1136.4805887288132 390.48175024282926 320.7212114091556 # Ar
1870 1870 1 0.0 1049.2015843775343 591.8947566458789 1171.8867095031812 # Ar
1871 1871 1 0.0 1040.6609557547963 287.7539336834792 123.03519235527268 # Ar
1872 1872 1 0.0 1193.36299277569 928.565301400781 266.57159995848906 # Ar
1873 1873 1 0.0 458.16479339671815 148.34146031533422 789.3747191247844 # Ar
1874 1874 1 0.0 881.7002759711511 338.68204708594396 249.18349868731573 # Ar
1875 1875 1 0.0 377.3689090792829 470.36300268647705 265.33625407092296 # Ar
1876 1876 1 0.0 1234.5576538964265 366.92539025931745 189.39650518781335 # Ar
1877 1877 1 0.0 70.08325485392203 141.68019671437264 1145.9518366799011 # Ar
1878 1878 1 0.0 633.9563346621453 52.45263344055169 781.6824990859288 # Ar
1879 1879 1 0.0 373.97370492260916 741.523840248106 147.4428191458009 # Ar
1880 1880 1 0.0 429.0942819291893 1072.1222527304255 581.9272704051597 # Ar
1881 1881 1 0.0 765.3671414287379 724.427091554442 1067.2210047964254 # Ar
1882 1882 1 0.0 63.88827505577948 732.729839704115 971.8309627780507 # Ar
1883 1883 1 0.0 1234.6028257566318 748.9590843722846 1036.84684457278 # Ar
1884 1884 1 0.0 1227.5243267066344 484.4201255366165 450.7489972299582 # Ar
1885 1885 1 0.0 620.8827751968699 248.17506993347018 546.0356030773781 # Ar
1886 1886 1 0.0 917.11116497724 135.87313639118108 830.4326292387143 # Ar
1887 1887 1 0.0 112.34496633709723 373.56302434938584 531.7244442185994 # Ar
1888 1888 1 0.0 673.8291286339029 31.11220975022304 107.09786957662973 # Ar
1889 1889 1 0.0 774.2140905567563 229.87791384156264 1222.2587385953404 # Ar
1890 1890 1 0.0 757.8790609765568 103.93194026573924 205.67196653275948 # Ar
1891 1891 1 0.0 1153.3314141591422 1199.4376511291775 1130.3332890482047 # Ar
1892 1892 1 0.0 871.0180184138661 1224.8201661689325 879.6790368682815 # Ar
1893 1893 1 0.0 273.64913234496686 371.2609515296894 955.0928245016023 # Ar
1894 1894 1 0.0 1086.0509339811754 766.9418987669537 704.3125447634606 # Ar
1895 1895 1 0.0 751.2222867731773 943.4836294902836 728.95370103047 # Ar
1896 1896 1 0.0 748.0300795084099 718.3603440259279 468.1866600672705 # Ar
1897 1897 1 0.0 111.36307954796845 23.688380720074168 144.45385347884638 # Ar
1898 1898 1 0.0 1169.4493507891775 1007.1937868012411 961.2470689430484 # Ar
1899 1899 1 0.0 657.2169041725435 462.0009951018247 249.16300557323453 # Ar
1900 1900 1 0.0 1195.918888839048 561.2160754737489 53.458715132479554 # Ar
1901 1901 1 0.0 438.2859014500499 1159.4290414792547 249.59126156218176 # Ar
1902 1902 1 0.0 484.1733639308125 269.65737380773345 1014.2968131230527 # Ar
1903 1903 1 0.0 232.85259637974912 387.63445321949627 938.1853419249578 # Ar
1904 1904 1 0.0 785.9660430645299 1084.6625385080486 328.62221298158744 # Ar
1905 1905 1 0.0 863.3130082206162 963.7962680276156 1098.6323213219337 # Ar
1906 1906 1 0.0 511.8382997297686 78.21661048219472 90.92468678346819 # Ar
1907 1907 1 0.0 921.6524448116689 436.82125615432517 186.37534819624955 # Ar
1908 1908 1 0.0 163.30389195820234 678.433480594678 787.2239992505698 # Ar
1909 1909 1 0.0 913.0229134791017 698.3519380394871 695.7859850063477 # Ar
1910 1910 1 0.0 1142.3364462022573 438.36034839898696 1175.9974208484896 # Ar
1911 1911 1 0.0 120.58960338878632 1042.883926768885 237.64507406418366 # Ar
1912 1912 1 0.0 250.6883603571793 394.04566429453007 207.36933735126578 # Ar
1913 1913 1 0.0 1047.940002749646 1141.1554390889198 660.1331510058467 # Ar
1914 1914 1 0.0 144.95479296816706 801.7911941640731 173.8272990192692 # Ar
1915 1915 1 0.0 972.0248613545334 156.9359228925546 123.7813539625774 # Ar
1916 1916 1 0.0 1146.6615257286956 715.6727207436088 1215.2493538172696 # Ar
1917 1917 1 0.0 169.86180590769703 1049.237838364834 380.2420709206094 # Ar
1918 1918 1 0.0 937.7624223980441 711.5352021974257 1059.079679553149 # Ar
1919 1919 1 0.0 383.90809777299086 774.8196047045726 488.40917043975406 # Ar
1920 1920 1 0.0 368.133593861379 996.5476229482733 342.67614113069334 # Ar
1921 1921 1 0.0 1168.281819192284 912.4873679771877 1080.0116481616974 # Ar
1922 1922 1 0.0 130.56142050682632 1026.0394675506716 1171.6118899506441 # Ar
1923 1923 1 0.0 235.37335083073714 812.5997023570599 600.2724952434863 # Ar
1924 1924 1 0.0 448.47680282048805 1000.7699033416454 267.9308248800838 # Ar
1925 1925 1 0.0 169.95016057649136 784.3547356974424 691.65251560169 # Ar
1926 1926 1 0.0 80.5722668432675 67.85503642802776 270.69469869726134 # Ar
1927 1927 1 0.0 1114.2413901678372 724.3069182325746 1001.7118516318028 # Ar
1928 1928 1 0.0 657.4057235478082 31.932304410545974 61.29518571595697 # Ar
1929 1929 1 0.0 106.72202733041992 1132.7808272914253 923.7231099202173 # Ar
1930 1930 1 0.0 1145.1277090657843 604.8104236110199 680.0489888952219 # Ar
1931 1931 1 0.0 583.7345401265112 455.4127187660084 961.2937270941719 # Ar
1932 1932 1 0.0 833.2302985062188 1224.8992007189693 776.2154053005037 # Ar
1933 1933 1 0.0 647.6199812942175 797.5930792676268 287.5151005373003 # Ar
1934 1934 1 0.0 519.7874383731673 55.76696334322275 856.4762548292965 # Ar
1935 1935 1 0.0 163.16591191389884 401.4620383828023 1099.776727789378 # Ar
1936 1936 1 0.0 30.254089645421683 1124.0565769166574 312.0105675468397 # Ar
1937 1937 1 0.0 523.3158230123618 176.79593573640284 527.8007491584492 # Ar
1938 1938 1 0.0 407.4639341396957 826.906549197201 256.3418787324522 # Ar
1939 1939 1 0.0 515.9073607255442 1222.8553097891136 947.6146825560958 # Ar
1940 1940 1 0.0 535.1135910502101 57.029187203740065 178.69533646317004 # Ar
1941 1941 1 0.0 1229.7961822739828 1152.9507815568338 571.7180206957022 # Ar
1942 1942 1 0.0 929.3131079043222 187.23682791541106 149.04705230769807 # Ar
1943 1943 1 0.0 351.08934581342044 590.7110552112202 549.3252718046692 # Ar
1944 1944 1 0.0 757.6999600390056 720.8798794718665 11.46956778832569 # Ar
1945 1945 1 0.0 482.33020357809136 72.75084461433815 691.3338831226798 # Ar
1946 1946 1 0.0 1088.0788694794235 532.9133205766286 740.7401210971783 # Ar
1947 1947 1 0.0 203.97047461462455 156.67579611402667 121.47688516987513 # Ar
1948 1948 1 0.0 324.6979393088302 876.8309617982726 1055.5428062267795 # Ar
1949 1949 1 0.0 191.18977753468823 859.2193578801259 49.91148163356613 # Ar
1950 1950 1 0.0 243.89521232410112 413.6555330458709 983.5783548537315 # Ar
1951 1951 1 0.0 1046.0129384698198 241.75364914777984 115.25714953703672 # Ar
1952 1952 1 0.0 1049.5632843887909 304.0349268724395 709.3398247577121 # Ar
1953 1953 1 0.0 755.5484809515683 1115.0132221533813 640.319572434046 # Ar
1954 1954 1 0.0 32.09873319363971 873.9160386995487 1129.2945399106798 # Ar
1955 1955 1 0.0 916.0276890603174 663.7123526471435 16.631561470856887 # Ar
1956 1956 1 0.0 354.61592026855294 260.91233311898156 172.07023984082355 # Ar
1957 1957 1 0.0 582.9060239762638 1019.7311887309189 234.55949824648692 # Ar
1958 1958 1 0.0 77.25436384756064 760.2062869297018 728.7534610001198 # Ar
1959 1959 1 0.0 171.93762115248785 1195.8711762088105 90.60234567655398 # Ar
1960 1960 1 0.0 37.912528936353056 1063.8099772981698 1007.2286918314616 # Ar
1961 1961 1 0.0 448.4616249433788 965.396470975473 195.32157735743573 # Ar
1962 1962 1 0.0 804.8433558948021 590.1858005481639 1119.5191625591094 # Ar
1963 1963 1 0.0 538.0104914433205 569.573381782759 97.02552198793823 # Ar
1964 1964 1 0.0 1027.5542394243253 1175.5867658980621 747.1968538592901 # Ar
1965 1965 1 0.0 387.9238936532214 1022.5906470578639 161.1656532199433 # Ar
1966 1966 1 0.0 336.00545693359584 1217.6359412573606 685.1249252606752 # Ar
1967 1967 1 0.0 557.0345431507482 305.94019715084033 85.42714372088447 # Ar
1968 1968 1 0.0 401.88011545856153 1176.5102937268216 367.67348081156365 # Ar
1969 1969 1 0.0 201.10667148791424 629.972457857434 375.9871634130353 # Ar
1970 1970 1 0.0 780.4667357565583 1186.4785423503279 585.0930014649638 # Ar
1971 1971 1 0.0 499.38638246141153 191.89354276763973 1097.5138114152676 # Ar
1972 1972 1 0.0 1040.4244243177961 223.72161884246347 138.32852008449845 # Ar
1973 1973 1 0.0 1013.5391408774534 416.4242721751985 274.0612740847179 # Ar
1974 1974 1 0.0 1148.6042930933754 929.892461128738 420.02640568696273 # Ar
1975 1975 1 0.0 173.07057106372807 765.6476136395436 1191.528356201178 # Ar
1976 1976 1 0.0 882.9654145984898 265.20122818825655 526.3795167808586 # Ar
1977 1977 1 0.0 647.7000454254277 617.8927023384526 744.0891725799261 # Ar
1978 1978 1 0.0 714.6325069400519 973.4374028411154 526.1427431219391 # Ar
1979 1979 1 0.0 507.66940008406874 339.6908066868594 614.5384981633111 # Ar
1980 1980 1 0.0 335.01800810893417 33.15821250331633 489.36511113660646 # Ar
1981 1981 1 0.0 215.6036358825583 481.9007420829424 1034.2733252087553 # Ar
1982 1982 1 0.0 921.5451998422851 495.61448973952054 450.847242414637 # Ar
1983 1983 1 0.0 1005.3465284158862 353.3135610465797 69.7583006084399 # Ar
1984 1984 1 0.0 372.7422978904088 859.3409617073287 903.3209718670412 # Ar
1985 1985 1 0.0 410.3197127460973 773.746021837406 281.4197907995615 # Ar
1986 1986 1 0.0 422.4734394169049 398.45875291378223 1189.302924511397 # Ar
1987 1987 1 0.0 117.04658855997921 939.6799238228793 444.06609681846425 # Ar
1988 1988 1 0.0 476.5527897309613 79.5898771342923 245.88492725695573 # Ar
1989 1989 1 0.0 707.7629065729421 968.6450295924268 1092.4689402971965 # Ar
1990 1990 1 0.0 79.18606600226444 1127.7226496811645 630.7552627068462 # Ar
1991 1991 1 0.0 264.26733352263307 535.9616833271817 328.0038608538483 # Ar
1992 1992 1 0.0 152.2050957496405 648.0394685145928 1111.3320554485706 # Ar
1993 1993 1 0.0 452.60112124931624 819.4455808263655 1142.3914456389869 # Ar
1994 1994 1 0.0 166.59460013369082 840.8109586072821 785.3479526290535 # Ar
1995 1995 1 0.0 604.218251432256 160.83634123224138 955.5957315891529 # Ar
1996 1996 1 0.0 658.803820245979 359.95693289754627 261.9206273606867 # Ar
1997 1997 1 0.0 985.9301897201638 211.61583135523415 4.196363823453089 # Ar
1998 1998 1 0.0 1103.554657991373 660.6523636329746 617.0203653018602 # Ar
1999 1999 1 0.0 1077.740234119689 544.5866847896845 516.4214449524744 # Ar
2000 2000 1 0.0 1048.4198136972939 695.9726878372306 512.5478057124396 # Ar
