LAMMPS data file -- atom_style full -- generated by chemfiles
150 atoms
0 bonds
0 angles
0 dihedrals
0 impropers
2 atom types
0 bond types
0 angle types
0 dihedral types
0 improper types
0.00000000 79.2174016 xlo xhi
0.00000000 79.2174016 ylo yhi
0.00000000 79.2174016 zlo zhi

# Pair Coeffs
# 1 Ar
# 2 Ar+

Masses

1 39.948 # Ar
2 39.948 # Ar+

Atoms # full

1 1 1 0.0 13.727801007509395 12.32983120638765 50.679583202568026 # Ar
2 2 1 0.0 77.60746099111086 41.014426220426536 18.311907569390666 # Ar
3 3 1 0.0 27.106973003648122 65.9946602749875 53.751104933503626 # Ar
4 4 1 0.0 49.32708197614607 12.676832049857323 25.83897317407481 # Ar
5 5 1 0.0 73.41919491856358 33.38579708636239 22.20605748568888 # Ar
6 6 1 0.0 22.690695879358906 2.9437982409888983 21.75550488625775 # Ar
7 7 1 0.0 54.65509698403052 62.3956318808459 79.0001610672662 # Ar
8 8 1 0.0 1.5352238406694199 1.0704047435940047 58.27790215340485 # Ar
9 9 1 0.0 33.59449780291838 10.556257571753367 44.45974383264054 # Ar
10 10 1 0.0 44.1216187129834 20.89176833165266 34.317283454363725 # Ar
11 11 1 0.0 53.84287535055944 14.882043296867435 27.618362735278495 # Ar
12 12 1 0.0 63.97509697515313 76.81645051226022 44.21188831612141 # Ar
13 13 1 0.0 56.99393776950459 51.76948011138241 76.77141688502986 # Ar
14 14 1 0.0 66.21040799871813 34.75022114121202 48.97800052907999 # Ar
15 15 1 0.0 77.89601835889066 27.416788422578552 40.76327576718003 # Ar
16 16 1 0.0 19.504328675516554 11.027164646607682 76.9098890612284 # Ar
17 17 1 0.0 53.91194084584462 9.576825013028616 76.36769797004045 # Ar
18 18 1 0.0 20.122341941343535 5.424871641072168 16.19633884852823 # Ar
19 19 1 0.0 5.609392409165325 20.76490930017788 54.336728155545636 # Ar
20 20 1 0.0 42.756847653401906 29.373679366673745 39.64796930068436 # Ar
21 21 1 0.0 68.89979556296599 78.79325374454422 7.332436580455048 # Ar
22 22 1 0.0 46.96443748981907 1.3568202271444554 24.32876758852153 # Ar
23 23 1 0.0 32.62816429566578 72.80959520972758 2.6862568587682127 # Ar
24 24 1 0.0 37.702032090710595 76.82809601197512 33.62252843464839 # Ar
25 25 1 0.0 67.0831699035659 33.95559313185631 78.24465606326356 # Ar
26 26 1 0.0 21.03761593881502 34.29645674966165 12.881021663576572 # Ar
27 27 1 0.0 15.48582616175208 27.902873084177696 52.428973458060874 # Ar
28 28 1 0.0 32.71304166897277 0.5667850660345207 6.185359249044317 # Ar
29 29 1 0.0 38.19569139761766 21.854687795187793 3.224296676949503 # Ar
30 30 1 0.0 9.20378330386033 27.337804344183432 6.241587282384926 # Ar
31 31 1 0.0 38.75245743488479 37.531199043078466 47.901024645650985 # Ar
32 32 1 0.0 40.31036211594212 26.711098445017136 68.50789262638037 # Ar
33 33 1 0.0 75.2167748486634 4.980346196726816 51.151488581266406 # Ar
34 34 1 0.0 60.66252242171943 5.466900553160325 39.84777705418436 # Ar
35 35 1 0.0 68.6105628028556 27.118658803639875 19.83592410869392 # Ar
36 36 1 0.0 74.1897763529178 66.07661121377629 3.835583251426961 # Ar
37 37 1 0.0 40.25050713299541 15.074168821081953 2.7022485498911313 # Ar
38 38 1 0.0 38.58462210810133 70.6354537216353 14.225084138565222 # Ar
39 39 1 0.0 70.99742609027527 32.55841938479523 54.814496821840244 # Ar
40 40 1 0.0 8.203114199714774 1.6338771111075403 2.8648840267242046 # Ar
41 41 1 0.0 17.518572934373214 36.0519483294868 1.9672653134105942 # Ar
42 42 1 0.0 8.82775218882296 66.54251392229924 27.11199701921863 # Ar
43 43 1 0.0 36.48736038362236 58.65565659098727 5.0338356045998 # Ar
44 44 1 0.0 65.22441620713882 66.99918203939822 46.48477836067069 # Ar
45 45 1 0.0 55.32585408013005 20.509391430595905 31.26369980459615 # Ar
46 46 1 0.0 31.834880523500157 46.4257561141914 69.0347541912583 # Ar
47 47 1 0.0 21.734916636729874 77.32536853719351 12.96287713239322 # Ar
48 48 1 0.0 50.13980325117921 74.9289657575969 38.837506476688425 # Ar
49 49 1 0.0 59.02880115376473 78.01185548201592 37.77370931140971 # Ar
50 50 1 0.0 34.85614673105154 46.77792156247749 26.068384343432573 # Ar
51 51 1 0.0 61.492576652381146 15.181620058429422 68.98458439533881 # Ar
52 52 1 0.0 61.749605869764096 13.093526590175536 30.163884373452856 # Ar
53 53 1 0.0 0.3580343871129786 71.49015940077194 13.332013273553974 # Ar
54 54 1 0.0 32.181802857735526 25.905817194275556 27.691077810289784 # Ar
55 55 1 0.0 15.964041826364367 23.263917055811707 34.89981092886282 # Ar
56 56 1 0.0 75.0304179380921 66.06079774080665 73.88928738286539 # Ar
57 57 1 0.0 56.4402717497094 50.549599421389004 27.00281905054472 # Ar
58 58 1 0.0 63.961565630836894 60.93827741019156 45.320039168290016 # Ar
59 59 1 0.0 35.569923022417115 66.20857943822327 50.38301718870541 # Ar
60 60 1 0.0 2.6922800199079213 38.82533762544786 69.72957828113802 # Ar
61 61 1 0.0 9.902387480204766 23.62127365193108 28.178414067273387 # Ar
62 62 1 0.0 46.29431342833281 70.96590961612313 2.1846366222579925 # Ar
63 63 1 0.0 38.46719285175022 49.53287455057045 37.886882015467975 # Ar
64 64 1 0.0 30.256197173543118 6.7684779249603215 19.08036689324563 # Ar
65 65 1 0.0 47.912489095645874 32.07770983074165 68.37125960871703 # Ar
66 66 1 0.0 61.04061363732338 42.43062298909752 4.032147886818636 # Ar
67 67 1 0.0 44.76494773642136 77.33344981512585 21.45151349913237 # Ar
68 68 1 0.0 71.74277206503066 50.24450168200742 31.379711395681184 # Ar
69 69 1 0.0 77.25197156422016 33.54700430981848 18.248259535405783 # Ar
70 70 1 0.0 76.05995366445157 27.337857744932712 50.57130046048519 # Ar
71 71 1 0.0 52.86562520867326 41.04706305891734 30.64241095938784 # Ar
72 72 1 0.0 52.5749078910264 26.714156581062557 55.20569487697279 # Ar
73 73 1 0.0 75.79086395937586 0.8002672892696299 43.73557183282299 # Ar
74 74 1 0.0 11.013059143583352 0.8033144079643846 37.82260600886557 # Ar
75 75 1 0.0 46.3058451580441 22.512515744765594 57.80119029689701 # Ar
76 76 1 0.0 58.92845785074571 70.46304101667936 66.61688915483647 # Ar
77 77 1 0.0 61.358068233814606 5.704023475047347 13.552619457252879 # Ar
78 78 1 0.0 10.40573900066871 63.59666107769197 41.84708730510431 # Ar
79 79 1 0.0 66.46270860359435 4.9448220921067465 16.80403977804586 # Ar
80 80 1 0.0 73.74071285668525 38.05192734284891 63.46061958789172 # Ar
81 81 1 0.0 10.69852388107793 2.479311321894838 76.67373180533134 # Ar
82 82 1 0.0 37.19948385218306 38.493276846546586 33.67142897886385 # Ar
83 83 1 0.0 10.39087999561509 59.72515768554301 3.704728022377512 # Ar
84 84 1 0.0 44.11603437377196 59.105339456992496 29.04297959287686 # Ar
85 85 1 0.0 22.54516630859588 21.206335615169078 17.912417472876953 # Ar
86 86 1 0.0 51.88796255427686 31.75232316675538 39.942499215105855 # Ar
87 87 1 0.0 35.36500599837724 36.82905122744548 42.03682195041685 # Ar
88 88 1 0.0 32.28621145273165 64.9162857862707 42.82568167971446 # Ar
89 89 1 0.0 63.25947847651516 19.324324764190216 60.377915493470596 # Ar
90 90 1 0.0 23.130908688792715 65.85819863980608 5.352884528352823 # Ar
91 91 1 0.0 27.690697816771863 34.52608082921792 74.57813123517667 # Ar
92 92 1 0.0 77.3970780954708 33.07383103163632 18.551118224893873 # Ar
93 93 1 0.0 61.94814641180046 15.59057942702777 12.726018578089581 # Ar
94 94 1 0.0 27.62307659157924 58.07159485546313 15.664708030660151 # Ar
95 95 1 0.0 7.346392326491926 15.903896404265755 26.698047054487024 # Ar
96 96 1 0.0 73.93101892600629 40.0108895028196 8.760981386589618 # Ar
97 97 1 0.0 34.93767345042854 35.884629560203244 22.553648843404996 # Ar
98 98 1 0.0 8.562585011559888 14.90106790848029 47.279662192401 # Ar
99 99 1 0.0 0.15640372392557486 22.69198289206335 46.05364888066629 # Ar
100 100 1 0.0 77.43549145849464 44.121512252726625 38.46800163350584 # Ar
101 101 1 0.0 29.418320951540124 11.915968689192995 12.967861735852557 # Ar
102 102 1 0.0 65.29271644743976 51.45622128110985 62.91729395864387 # Ar
103 103 1 0.0 59.69136703829986 2.864298185245244 69.28817609314498 # Ar
104 104 1 0.0 77.09145895927749 5.434216847878347 7.678306830678301 # Ar
105 105 1 0.0 9.04245833661005 47.90380509754912 46.3783822236241 # Ar
106 106 1 0.0 51.061220152227285 24.902896763235514 42.86014083204239 # Ar
107 107 1 0.0 61.03381344733688 53.10687279056961 48.24890622457383 # Ar
108 108 1 0.0 41.51286169396002 51.90616369514261 11.279758704468131 # Ar
109 109 1 0.0 15.312350184145751 8.623485110160727 59.19429210369097 # Ar
110 110 1 0.0 54.04433737122009 47.763423901926735 67.32346103476941 # Ar
111 111 1 0.0 31.085603529644416 46.788172673058085 50.822643770340946 # Ar
112 112 1 0.0 22.526291357472466 62.94410816852022 70.49046771254007 # Ar
113 113 1 0.0 24.880816958486825 18.899827674438132 38.91817444673386 # Ar
114 114 1 0.0 21.604705244146132 77.19097573432201 16.55965849045309 # Ar
115 115 1 0.0 22.695054224460762 69.68114979858431 3.2604887263364346 # Ar
116 116 1 0.0 16.754529132080716 64.67731148433292 45.5268985427414 # Ar
117 117 1 0.0 67.9191423878697 74.36971972549696 28.67115920861594 # Ar
118 118 1 0.0 63.38881827652464 8.548709445637678 72.49233203792502 # Ar
119 119 1 0.0 18.80631419588781 74.04779602929895 18.422562882692326 # Ar
120 120 1 0.0 68.75813765543549 22.94145510905498 70.9386829053934 # Ar
121 121 1 0.0 38.501941816186374 78.49198321593192 46.139179439657454 # Ar
122 122 1 0.0 63.14966659747011 35.599512550874124 60.09684561915643 # Ar
123 123 1 0.0 41.59681648527222 7.307054964977375 21.166923515211966 # Ar
124 124 1 0.0 21.527892964951054 63.00578026477801 70.53601053384233 # Ar
125 125 1 0.0 68.233662120391 38.885947423706426 30.545729894868202 # Ar
126 126 1 0.0 34.98776883141143 78.58355562110822 61.19756805687018 # Ar
127 127 1 0.0 26.193327619931782 50.62758502431127 35.50660317652818 # Ar
128 128 1 0.0 71.38014842775674 50.73227311204976 73.50649898038833 # Ar
129 129 1 0.0 16.46979551436727 45.12029687102911 66.927493841531 # Ar
130 130 1 0.0 53.66021827244489 68.84967457904534 37.0545276057422 # Ar
131 131 1 0.0 11.55607311958074 7.975926029234568 56.88656964526431 # Ar
132 132 1 0.0 75.54904925694605 42.95032195513031 36.737234468302375 # Ar
133 133 1 0.0 18.322027352021358 31.65966529660178 24.22333187205364 # Ar
134 134 1 0.0 5.132805460250315 19.417629069801396 59.15185892576846 # Ar
135 135 1 0.0 1.9081677497573195 65.4910153699267 4.355806366202767 # Ar
136 136 1 0.0 49.71395870292242 12.400224456724754 43.61981505511707 # Ar
137 137 1 0.0 69.95461209590879 2.843991123780453 41.71599829149037 # Ar
138 138 1 0.0 32.698178714582 5.45731358889975 49.47671582624604 # Ar
139 139 1 0.0 35.0196739882517 57.56930069170778 31.42518234965394 # Ar
140 140 1 0.0 8.811253708828307 69.25509562033758 43.691749439945774 # Ar
141 141 1 0.0 0.6703830897290385 41.988537913871426 5.545124645730746 # Ar
142 142 1 0.0 43.757020522647 67.16445727278725 40.70366979305025 # Ar
143 143 1 0.0 10.8626551274002 49.11471397673783 11.647748871548297 # Ar
144 144 1 0.0 52.86960412334325 31.922776054504364 37.82623588012827 # Ar
145 145 1 0.0 56.55833639251875 7.368309756192143 47.2468929610167 # Ar
146 146 1 0.0 62.52389796004169 35.933192340691484 1.1286045388803632 # Ar
147 147 1 0.0 16.52893425728886 0.8483643685950139 18.270130716656826 # Ar
148 148 2 0.0 49.22204625627848 22.66315550352434 54.35110837493388 # Ar+
149 149 2 0.0 7.624835281631651 74.445376088992 15.02180184928217 # Ar+
150 150 2 0.0 74.97030228305219 33.07270617699579 13.524010920968365 # Ar+
