LAMMPS data file -- atom_style full -- generated by chemfiles
2000 atoms
0 bonds
0 angles
0 dihedrals
0 impropers
1 atom types
0 bond types
0 angle types
0 dihedral types
0 improper types
0.00000000 514.583145 xlo xhi
0.00000000 514.583145 ylo yhi
0.00000000 514.583145 zlo zhi

# Pair Coeffs
# 1 Ar

Masses

1 39.948 # Ar

Atoms # full

1 1 1 0.0 383.63813734545613 36.3135438159483 143.20571775583178 # Ar
2 2 1 0.0 150.02097868059235 236.9088972610635 122.31979413966864 # Ar
3 3 1 0.0 129.8217584806272 507.0119820644144 357.92746803615387 # Ar
4 4 1 0.0 354.4110925458753 476.93927557656525 415.3869564072531 # Ar
5 5 1 0.0 215.89059487695718 196.6020044599082 375.5187502913835 # Ar
6 6 1 0.0 255.91797533112214 62.541800581860684 400.29046184800643 # Ar
7 7 1 0.0 277.63566741223667 43.35469975530036 439.3772538796527 # Ar
8 8 1 0.0 363.864247636153 341.2322557621274 201.72440798034708 # Ar
9 9 1 0.0 340.5734015093964 26.21995439430714 172.3000943365062 # Ar
10 10 1 0.0 172.5061063941544 505.75779327231874 408.46600302276937 # Ar
11 11 1 0.0 217.46458896138446 239.22535746614633 269.1754597953626 # Ar
12 12 1 0.0 243.34844058754135 372.5041491468968 399.19195549058617 # Ar
13 13 1 0.0 368.0730140184765 511.2376553246072 490.3565150557303 # Ar
14 14 1 0.0 73.24384713041013 163.72799575285367 437.7119688068143 # Ar
15 15 1 0.0 22.033696002432695 78.61212605469893 330.1972018836943 # Ar
16 16 1 0.0 65.79059586270688 26.95794523645892 179.58359100571602 # Ar
17 17 1 0.0 316.0266733671276 316.73534691231794 482.5322742911978 # Ar
18 18 1 0.0 70.39978814274755 137.7092356937535 418.90640541051056 # Ar
19 19 1 0.0 222.37752277759893 197.6692646176574 505.2958956084459 # Ar
20 20 1 0.0 128.44787134394068 411.2157803834132 109.76824460367207 # Ar
21 21 1 0.0 163.96149735820623 102.96244488308425 329.69644430765993 # Ar
22 22 1 0.0 264.32236553657367 94.60380338594345 83.30150900696937 # Ar
23 23 1 0.0 11.96010640820114 208.8920415689368 93.58652287875057 # Ar
24 24 1 0.0 7.268189650681495 326.6274793374949 287.23088335393606 # Ar
25 25 1 0.0 362.55241063993407 30.751486068408862 335.75563410936985 # Ar
26 26 1 0.0 293.4947182173271 11.741365025477622 164.48392743204792 # Ar
27 27 1 0.0 229.08342645768423 333.35797854435367 504.9081400379233 # Ar
28 28 1 0.0 56.05730792922276 250.00037577632114 278.0534268714633 # Ar
29 29 1 0.0 372.60098656125587 205.8567130540704 396.7102998492667 # Ar
30 30 1 0.0 420.21188227329924 65.23430465902632 125.25817141572243 # Ar
31 31 1 0.0 399.03218297634726 303.9700890978089 154.05311044042207 # Ar
32 32 1 0.0 180.35096635276636 2.8532169825736196 497.88056057670303 # Ar
33 33 1 0.0 194.9947608301341 247.64986188972057 288.75178125679207 # Ar
34 34 1 0.0 454.90694707458874 282.9676766615506 487.6232370707833 # Ar
35 35 1 0.0 329.19511388503383 90.14952452333068 272.80587715537087 # Ar
36 36 1 0.0 292.5624670790198 49.61807705609176 341.81736581831495 # Ar
37 37 1 0.0 85.95440559809344 434.853010461932 104.38667451920256 # Ar
38 38 1 0.0 91.69030592456062 177.37210727690234 245.4753474576745 # Ar
39 39 1 0.0 235.3357179453726 84.8383104177963 164.6729796273345 # Ar
40 40 1 0.0 371.7393795965209 235.090721788188 460.99620754280056 # Ar
41 41 1 0.0 20.12819386158469 129.36761852586025 232.84332349532454 # Ar
42 42 1 0.0 418.0349695214436 161.89406713228482 27.40853439098558 # Ar
43 43 1 0.0 293.4461799821969 464.4586800181862 256.73727472231644 # Ar
44 44 1 0.0 135.19677472638097 167.66930209826882 255.14574340563215 # Ar
45 45 1 0.0 70.2506913648591 486.84321460349935 23.927653116670694 # Ar
46 46 1 0.0 78.21277869170605 511.7451115233827 511.2303152181183 # Ar
47 47 1 0.0 69.79812122062916 261.47823562481364 503.1262719953046 # Ar
48 48 1 0.0 224.5279444679496 403.5854946431879 461.07050606624585 # Ar
49 49 1 0.0 64.94545383169807 257.48146097395573 353.2125129498021 # Ar
50 50 1 0.0 509.6753393407983 121.85663739757334 459.0610200488515 # Ar
51 51 1 0.0 42.69082214494476 67.92416030223058 118.18531886893554 # Ar
52 52 1 0.0 375.11507591091583 481.6643667669358 324.20408520964077 # Ar
53 53 1 0.0 143.36468633557476 318.57357814390605 392.09656674897747 # Ar
54 54 1 0.0 362.86075106722143 117.10624261932732 487.4290204522845 # Ar
55 55 1 0.0 487.0883303937234 289.6338620064277 15.572340233228525 # Ar
56 56 1 0.0 104.13164253824654 288.163439317142 206.49880847125252 # Ar
57 57 1 0.0 70.22951376139982 277.94571983324795 203.33300033868662 # Ar
58 58 1 0.0 494.61833137107993 28.6932709840565 325.1052071823653 # Ar
59 59 1 0.0 435.6877166682386 484.5144259005691 86.25010258556878 # Ar
60 60 1 0.0 240.6888603806859 13.35086927390893 426.3336438564398 # Ar
61 61 1 0.0 430.0010134938918 157.04336317600547 13.240553512711926 # Ar
62 62 1 0.0 227.1952019072814 198.54352503201045 6.414380981812382 # Ar
63 63 1 0.0 385.8327672110128 234.45881022202707 477.5457912223906 # Ar
64 64 1 0.0 476.4744431938319 307.17024902841735 67.97188704587687 # Ar
65 65 1 0.0 451.92571342219304 343.1736803521204 15.529736895090686 # Ar
66 66 1 0.0 511.60349445269054 345.936055014015 398.6748392650621 # Ar
67 67 1 0.0 64.24036048604019 205.54465723896362 109.93201377788871 # Ar
68 68 1 0.0 190.57374478362246 159.6853594274679 241.9422493899757 # Ar
69 69 1 0.0 329.3899045994919 112.84779136526384 222.60742625413428 # Ar
70 70 1 0.0 22.730311931365662 356.7384639090253 434.1084041948164 # Ar
71 71 1 0.0 189.28510896729784 285.57236534975647 242.13162941897005 # Ar
72 72 1 0.0 229.52162340640606 356.46910228255626 77.59253731576783 # Ar
73 73 1 0.0 250.7554741712443 425.22101211653813 265.61306484216277 # Ar
74 74 1 0.0 85.57627390436774 346.64680442607454 270.0651259277567 # Ar
75 75 1 0.0 235.55125867184717 143.78031868355404 487.03148884651165 # Ar
76 76 1 0.0 205.98905457081116 304.2709477838942 21.854375696598048 # Ar
77 77 1 0.0 269.76587548508127 193.86218097377701 111.78630351133924 # Ar
78 78 1 0.0 338.5323916433407 254.93545400665866 10.653713630824505 # Ar
79 79 1 0.0 98.26689119367612 45.37598269586643 310.3097930149588 # Ar
80 80 1 0.0 18.451269760267785 323.35732440536333 301.07682597400077 # Ar
81 81 1 0.0 355.01849006093335 180.4887852874281 243.02606539646368 # Ar
82 82 1 0.0 53.42213766438632 491.67622249774996 509.1561815403273 # Ar
83 83 1 0.0 428.68608927260817 248.39813015564525 440.1000930065513 # Ar
84 84 1 0.0 440.429560905732 307.13962810579073 468.1219471174116 # Ar
85 85 1 0.0 33.06238596678996 165.86738136200006 417.86443000210295 # Ar
86 86 1 0.0 215.11529992355074 244.13798399766182 322.59749981857493 # Ar
87 87 1 0.0 142.38553169098043 8.210468886751682 98.64884620899153 # Ar
88 88 1 0.0 259.935157861226 369.58012285089075 334.395406175814 # Ar
89 89 1 0.0 390.17179680216856 458.24396946405113 83.52250233430958 # Ar
90 90 1 0.0 87.09275790358323 214.2544345851862 97.87835100905437 # Ar
91 91 1 0.0 32.081455277725034 113.0453349198417 423.11472992587215 # Ar
92 92 1 0.0 369.3627718266208 106.93389518507095 148.73903406122184 # Ar
93 93 1 0.0 164.18505168145813 278.139809788196 470.0111902244548 # Ar
94 94 1 0.0 245.2272323097652 208.58255441525014 210.1320892892674 # Ar
95 95 1 0.0 241.02885562643155 164.48648166481428 469.7980600408898 # Ar
96 96 1 0.0 496.2314026616435 132.61173643778528 300.56531856773967 # Ar
97 97 1 0.0 247.7491033832161 207.1192506346118 383.07541493642765 # Ar
98 98 1 0.0 472.3409172450009 187.90089162997694 152.6696388789159 # Ar
99 99 1 0.0 65.73795450669009 73.46256343915137 414.969686244342 # Ar
100 100 1 0.0 408.5715380544661 262.5545488039221 84.75438934336267 # Ar
101 101 1 0.0 394.82445430671004 386.8092058011154 511.3649901185563 # Ar
102 102 1 0.0 40.26472185173535 341.5824746937811 237.53012675738017 # Ar
103 103 1 0.0 358.2252150610751 2.257683334643107 413.3411862362248 # Ar
104 104 1 0.0 163.03356672629533 313.9458226054343 449.1924589840712 # Ar
105 105 1 0.0 111.45591101699148 183.89769004314437 132.89126089145984 # Ar
106 106 1 0.0 255.0707228970831 258.13845511040404 399.8566003000979 # Ar
107 107 1 0.0 471.7909585561692 324.60750777450585 416.72120297832197 # Ar
108 108 1 0.0 467.9095987306906 406.1123537308327 271.4974587774473 # Ar
109 109 1 0.0 153.0718969785623 123.63090438409306 84.20058840475852 # Ar
110 110 1 0.0 12.375430682844806 327.5553939535372 443.8951041342885 # Ar
111 111 1 0.0 253.87549871338297 462.5159933467593 63.827347890510936 # Ar
112 112 1 0.0 341.15134219043466 303.16482122704946 169.06610147260383 # Ar
113 113 1 0.0 298.2296431026133 133.7901626985421 101.95894364600572 # Ar
114 114 1 0.0 328.1548282261781 200.4882671693484 267.7321350582848 # Ar
115 115 1 0.0 498.3218721747546 207.4936045291461 198.12297996963486 # Ar
116 116 1 0.0 472.3806584515559 142.33866668031277 245.0413667672145 # Ar
117 117 1 0.0 55.92640398008121 196.06221335423368 87.61809705727596 # Ar
118 118 1 0.0 262.54771331544634 481.59685011314525 42.31572266052242 # Ar
119 119 1 0.0 260.7073722485769 273.48492158292663 498.78323923395925 # Ar
120 120 1 0.0 321.47725566662825 233.72806176348058 392.1278460742322 # Ar
121 121 1 0.0 227.2154310862468 117.43504756677498 184.65897177452396 # Ar
122 122 1 0.0 382.9368955815323 420.7465698037578 21.90553676081185 # Ar
123 123 1 0.0 381.4801058394848 235.73412971404179 362.6953397722625 # Ar
124 124 1 0.0 403.99250302013553 176.5118505134978 247.4634759568689 # Ar
125 125 1 0.0 425.9850772478724 219.79571145534493 374.22393345677824 # Ar
126 126 1 0.0 255.88259351833267 352.1385411800915 65.62471657424894 # Ar
127 127 1 0.0 368.2024314516073 108.77600772582213 109.21417466437067 # Ar
128 128 1 0.0 147.2125171105514 252.4185315321267 425.1322978276521 # Ar
129 129 1 0.0 96.71439834287425 247.66026671430245 59.31569960304698 # Ar
130 130 1 0.0 258.57005377655327 78.03570294574877 468.7216006731587 # Ar
131 131 1 0.0 267.31131125441283 270.2686373737495 171.37036276140836 # Ar
132 132 1 0.0 361.63139651000193 214.98007760895163 394.6937247743971 # Ar
133 133 1 0.0 190.57765009599115 487.4576555926486 242.50823753742466 # Ar
134 134 1 0.0 75.31989342644653 511.42552322374524 401.5175483082027 # Ar
135 135 1 0.0 292.5987869646602 285.8314557215174 397.5402011245367 # Ar
136 136 1 0.0 304.7760429304775 251.0446385010511 239.15955833515972 # Ar
137 137 1 0.0 154.02252606010484 274.25193187724074 407.52484902231856 # Ar
138 138 1 0.0 278.4130198853103 370.49614144631846 180.01958704737373 # Ar
139 139 1 0.0 513.613843577661 297.654957327731 239.07584602312218 # Ar
140 140 1 0.0 69.41487379213436 225.18036663981817 299.7522588095672 # Ar
141 141 1 0.0 49.69778911475221 507.09883438372043 113.11305889459265 # Ar
142 142 1 0.0 192.31301313009584 262.87936160214616 58.52090813350489 # Ar
143 143 1 0.0 161.8806662728886 122.90986696457433 458.6758742734372 # Ar
144 144 1 0.0 390.98994848959336 117.87035146630775 86.88436469731576 # Ar
145 145 1 0.0 422.4527536466115 232.30065501453797 398.6258820252148 # Ar
146 146 1 0.0 390.2387598248377 217.879184360472 238.92670772242346 # Ar
147 147 1 0.0 273.16757470077465 216.85891172919247 451.4067304937273 # Ar
148 148 1 0.0 407.3857598711218 211.56177795315543 463.1086874024502 # Ar
149 149 1 0.0 21.440833292504664 368.8851766850444 210.6878837741671 # Ar
150 150 1 0.0 439.00843705826804 321.22379488752836 317.09480451174215 # Ar
151 151 1 0.0 205.165504675814 465.231164068211 454.7561362308779 # Ar
152 152 1 0.0 149.93856731247243 445.72936440306097 149.58574135057123 # Ar
153 153 1 0.0 163.99318575815494 438.0649110220156 456.03701452550604 # Ar
154 154 1 0.0 39.1972103544698 432.0893857121809 252.95394414441728 # Ar
155 155 1 0.0 266.86853967991385 232.236442497352 93.8254924814072 # Ar
156 156 1 0.0 188.11648930877897 91.96730407724208 22.795705964980776 # Ar
157 157 1 0.0 289.6218080438081 67.15043262705508 264.00850819885966 # Ar
158 158 1 0.0 22.58249105461007 267.35493546753503 479.73586953544685 # Ar
159 159 1 0.0 195.31897473160146 283.2400734373505 298.99177446936994 # Ar
160 160 1 0.0 245.38448449335115 229.27082967288072 379.4555358009053 # Ar
161 161 1 0.0 399.73052062382686 392.33183500399605 397.57581062641657 # Ar
162 162 1 0.0 188.37533175990572 428.16905513213715 368.9398633996745 # Ar
163 163 1 0.0 242.43299286771474 92.02589949025757 71.89165066895147 # Ar
164 164 1 0.0 309.0326895325031 48.20997870304562 373.9847693344804 # Ar
165 165 1 0.0 70.168564793314 124.08830991199544 437.0091389092973 # Ar
166 166 1 0.0 86.2096849461811 403.5028770992581 114.02220486000773 # Ar
167 167 1 0.0 285.6804049532398 58.056545928180725 205.73312695485848 # Ar
168 168 1 0.0 480.8572867365854 466.74115740708635 168.5701820379563 # Ar
169 169 1 0.0 477.9881320131578 40.18385009641609 448.5139493649213 # Ar
170 170 1 0.0 108.16937209069289 440.05753334660807 367.5533699981001 # Ar
171 171 1 0.0 262.60864848168035 447.18929313010455 401.69608092806226 # Ar
172 172 1 0.0 418.02284672409746 328.02940714461954 70.31335742498052 # Ar
173 173 1 0.0 132.53403556086636 74.77446257505495 409.22994770074155 # Ar
174 174 1 0.0 93.29134135731017 481.20510284270586 87.36649841875659 # Ar
175 175 1 0.0 177.62818797367288 90.85940095847154 176.57507542142673 # Ar
176 176 1 0.0 496.9107110343141 197.86807439535994 71.74239243201548 # Ar
177 177 1 0.0 42.67032682734184 113.00890629935006 403.1956040665052 # Ar
178 178 1 0.0 463.4156441413379 330.60013658534825 58.8401661640476 # Ar
179 179 1 0.0 61.15338990935281 245.10246190582046 35.77109073428161 # Ar
180 180 1 0.0 442.508933600082 162.60360709499056 488.9832547629077 # Ar
181 181 1 0.0 226.01740532003572 163.94309020785104 230.86337367747433 # Ar
182 182 1 0.0 470.06711839350197 247.38020160340017 310.7623041511768 # Ar
183 183 1 0.0 468.3810944890095 367.91630229731913 300.33374559463795 # Ar
184 184 1 0.0 425.4937878778079 427.1230752545776 136.84201414937465 # Ar
185 185 1 0.0 432.6861656396613 252.89775867242338 439.59271392431083 # Ar
186 186 1 0.0 398.80341522319316 342.854354494072 38.879299769699 # Ar
187 187 1 0.0 118.54262005280327 233.75353473451253 205.42888785321801 # Ar
188 188 1 0.0 22.748105800367934 159.0917190205978 318.51854315094516 # Ar
189 189 1 0.0 329.432943176232 149.84121197585065 318.7555905429574 # Ar
190 190 1 0.0 132.11649507965373 184.59237982485803 381.0707245773643 # Ar
191 191 1 0.0 508.6924819461226 257.04190087291687 140.0469174558942 # Ar
192 192 1 0.0 128.6797447002854 196.07261276243185 264.81841147841413 # Ar
193 193 1 0.0 97.63514294027374 253.72716371814818 13.378456732601224 # Ar
194 194 1 0.0 146.43864366042317 199.45879329902525 166.21495331534115 # Ar
195 195 1 0.0 338.90386662666305 372.38064720125965 499.7113376095088 # Ar
196 196 1 0.0 142.39221453417005 206.72714240409897 35.06645080956925 # Ar
197 197 1 0.0 124.42324406044682 36.67312955419887 24.660045890936633 # Ar
198 198 1 0.0 125.26493819186898 154.8584261671948 393.6650620389821 # Ar
199 199 1 0.0 387.8839407960926 411.7010331094023 91.0630615208339 # Ar
200 200 1 0.0 230.67639495025648 174.55807424832335 108.72567850061783 # Ar
201 201 1 0.0 12.999702843269489 157.85660645272029 371.7316992450084 # Ar
202 202 1 0.0 259.0961262753948 419.6631974396092 6.5492366658693255 # Ar
203 203 1 0.0 510.0062222479857 96.70133689353737 276.97380587105863 # Ar
204 204 1 0.0 331.14168560691974 169.00218678266452 451.29136934087916 # Ar
205 205 1 0.0 331.7225380096235 158.2616302046458 295.96872736161464 # Ar
206 206 1 0.0 404.23198741549584 31.300986497698815 181.52823022434987 # Ar
207 207 1 0.0 292.6442746522728 191.5422924389604 354.2546866089977 # Ar
208 208 1 0.0 464.6226341005554 107.38689313666866 15.88007581402708 # Ar
209 209 1 0.0 452.1129205183865 323.75242813602847 408.6519836624064 # Ar
210 210 1 0.0 315.997257581476 115.68421668000126 286.2674462591229 # Ar
211 211 1 0.0 485.90919239113873 199.6555924360845 29.142482815474565 # Ar
212 212 1 0.0 88.59773164694936 188.73599785204476 74.82832659747532 # Ar
213 213 1 0.0 241.16396535007257 256.8118951219387 451.7690906430111 # Ar
214 214 1 0.0 201.34141555826335 336.3707957632952 344.0942284269057 # Ar
215 215 1 0.0 474.94250548682146 415.4275526925239 257.9589912740838 # Ar
216 216 1 0.0 107.21730848724461 335.0481749163705 112.21966749128201 # Ar
217 217 1 0.0 252.37797194355167 136.4308648378073 29.17795129174141 # Ar
218 218 1 0.0 416.43207625078935 165.34218169555493 500.07182706102856 # Ar
219 219 1 0.0 116.02727376629522 124.56904793509683 410.0752013002635 # Ar
220 220 1 0.0 324.6441915892449 161.0901542933778 468.9294483329766 # Ar
221 221 1 0.0 376.3284812789975 407.589764103283 164.742243544384 # Ar
222 222 1 0.0 239.44953683873854 30.235700782864015 31.337941282016057 # Ar
223 223 1 0.0 381.3715161947275 55.45608585980837 385.9351181218133 # Ar
224 224 1 0.0 42.99889493167329 415.78925902137877 387.15924767864897 # Ar
225 225 1 0.0 67.62940570892539 441.81370879097017 168.96904587133733 # Ar
226 226 1 0.0 214.60331384107687 59.89811386241652 447.2011585285403 # Ar
227 227 1 0.0 28.780540758988383 295.25652567243316 257.9419040937019 # Ar
228 228 1 0.0 391.5508316078838 56.236775196219696 438.0428423379911 # Ar
229 229 1 0.0 220.58550812337734 478.31028940679346 68.89756904105978 # Ar
230 230 1 0.0 128.75157764177268 154.12339111311215 449.39388372956205 # Ar
231 231 1 0.0 225.54225087824943 148.73785634515986 477.82842711238715 # Ar
232 232 1 0.0 268.1120320191524 88.34592208497256 184.839446096709 # Ar
233 233 1 0.0 498.0703008194219 459.61640076652003 149.1559877828684 # Ar
234 234 1 0.0 237.46621954017024 40.888958911434024 103.6757029766899 # Ar
235 235 1 0.0 252.46559906168608 331.2680903309392 503.9964047241972 # Ar
236 236 1 0.0 334.10060229798694 274.72239822508004 15.658206701345216 # Ar
237 237 1 0.0 320.112076480875 410.79964707362336 407.2249111563761 # Ar
238 238 1 0.0 207.28047914802545 391.92529539694607 384.11871178061466 # Ar
239 239 1 0.0 297.4376127343642 244.71508553804955 243.19642073318198 # Ar
240 240 1 0.0 302.20542621618694 110.5936315920049 228.04623364006798 # Ar
241 241 1 0.0 109.98582536298692 412.6214188165069 43.81240292980927 # Ar
242 242 1 0.0 146.48061053931934 374.67355962066046 471.88300801375533 # Ar
243 243 1 0.0 24.090907679074995 216.42472882300436 91.62151278291324 # Ar
244 244 1 0.0 161.09271548403126 163.44178941976696 110.05314116724253 # Ar
245 245 1 0.0 263.3114227208416 67.95206335075623 266.1605279178406 # Ar
246 246 1 0.0 289.9531980201241 257.85054032128744 465.809548458452 # Ar
247 247 1 0.0 188.8004578125985 12.206024703108286 296.21110955971056 # Ar
248 248 1 0.0 259.0685758836666 122.84291368002343 413.96557380687995 # Ar
249 249 1 0.0 93.31962840778581 277.93353241233325 122.40478568402088 # Ar
250 250 1 0.0 6.769641815686919 328.4895935514343 264.0796115204856 # Ar
251 251 1 0.0 372.69446517736094 268.1980029537441 17.650660630777026 # Ar
252 252 1 0.0 73.40251580063268 474.7794547310139 85.59400003610777 # Ar
253 253 1 0.0 306.8541951113141 420.6676518155626 21.914063556778718 # Ar
254 254 1 0.0 256.42354602423876 132.74282876157682 227.9963155417786 # Ar
255 255 1 0.0 289.8812170166804 456.21982567929336 374.57625974226784 # Ar
256 256 1 0.0 512.2337306786044 4.20037786555699 156.28343927219154 # Ar
257 257 1 0.0 316.8297847017729 507.22009678611664 48.34690126160586 # Ar
258 258 1 0.0 280.78075915054427 103.23274034352501 113.6080511427053 # Ar
259 259 1 0.0 236.16366596778832 439.29321943302494 94.31759439620696 # Ar
260 260 1 0.0 228.22409898440898 262.63690413440077 373.0676107532381 # Ar
261 261 1 0.0 501.48758006343576 264.44660405530584 468.35581857401195 # Ar
262 262 1 0.0 138.6096400221391 242.86519646222712 88.44837056504608 # Ar
263 263 1 0.0 488.4593418203287 62.3362903317314 353.380928283483 # Ar
264 264 1 0.0 269.0172105085907 481.02536978937616 40.376517533096454 # Ar
265 265 1 0.0 354.73821562670884 81.94641588565199 19.77388844004672 # Ar
266 266 1 0.0 121.33753422429406 109.7296942698384 168.69367355590617 # Ar
267 267 1 0.0 496.4955077897092 338.7048485957923 109.02931983876458 # Ar
268 268 1 0.0 271.65045443357303 381.43356555751205 74.80684651716834 # Ar
269 269 1 0.0 467.72366052502 68.18806133074109 264.56808770529045 # Ar
270 270 1 0.0 15.683732708570076 263.30972350337305 423.78652500450715 # Ar
271 271 1 0.0 401.03171982643266 374.7051594112031 172.4693736429417 # Ar
272 272 1 0.0 456.03179069888245 110.85155660069213 315.0133571869886 # Ar
273 273 1 0.0 239.32440053900112 345.236752153388 409.85191444443285 # Ar
274 274 1 0.0 152.16713269426486 47.964049533248634 407.2956163545641 # Ar
275 275 1 0.0 318.1499934012112 279.6230680478057 462.5724152555343 # Ar
276 276 1 0.0 447.3327104816057 197.05965939900454 34.461029614566684 # Ar
277 277 1 0.0 444.9664331173923 468.06599129860444 364.64221020477567 # Ar
278 278 1 0.0 29.43715505087699 482.3060148950221 159.53928790937104 # Ar
279 279 1 0.0 275.1426386720604 492.5289742109269 33.19119003181929 # Ar
280 280 1 0.0 359.8073708782982 62.874505823946784 412.3604148208146 # Ar
281 281 1 0.0 234.9773700294012 353.08286467356163 202.6439147925402 # Ar
282 282 1 0.0 512.8272508400805 483.8441944856577 302.867575461878 # Ar
283 283 1 0.0 352.8212526760148 51.490984289985654 342.26693494582406 # Ar
284 284 1 0.0 80.170069203876 317.5514933311764 278.8300843936413 # Ar
285 285 1 0.0 152.9754646831682 54.75300426328848 304.1534227817458 # Ar
286 286 1 0.0 416.2904415130414 251.82144924287138 417.34456180972444 # Ar
287 287 1 0.0 314.40421849253636 337.90261447291465 55.976106917470624 # Ar
288 288 1 0.0 161.83428370857126 459.95369104947355 82.05477486708826 # Ar
289 289 1 0.0 499.78187666949145 114.59099221336297 12.588262807729278 # Ar
290 290 1 0.0 98.9993231098039 502.6861570139387 302.26304647336815 # Ar
291 291 1 0.0 199.62448087152737 285.7784229727583 87.76322692853202 # Ar
292 292 1 0.0 93.60383429056323 186.61748825657148 195.87619883700464 # Ar
293 293 1 0.0 262.56462131812947 106.24670639619086 104.86607644822215 # Ar
294 294 1 0.0 323.0987908154943 117.83614985737393 391.7889205386838 # Ar
295 295 1 0.0 448.93734232297555 440.65380304162653 11.090999052171796 # Ar
296 296 1 0.0 443.2827799256869 312.0200197581172 307.22735371649253 # Ar
297 297 1 0.0 140.06925356386446 438.13193319306635 0.2867389270253195 # Ar
298 298 1 0.0 319.2313318721661 263.7029677198446 304.36528713430374 # Ar
299 299 1 0.0 9.781515786083094 233.42368639941733 335.140076346388 # Ar
300 300 1 0.0 312.1603675198925 424.87731748953826 340.6722919353498 # Ar
301 301 1 0.0 372.89566719171006 168.31528712744816 459.60097920384794 # Ar
302 302 1 0.0 72.43624447460911 85.68332714600372 185.25427375647436 # Ar
303 303 1 0.0 430.9868427801363 309.4838518157112 395.4151079910981 # Ar
304 304 1 0.0 303.27438562384623 446.50380042272906 379.1944519392764 # Ar
305 305 1 0.0 282.52337295733815 184.21708738230654 270.542493171772 # Ar
306 306 1 0.0 406.62781074141293 422.41772520416447 237.5534138602953 # Ar
307 307 1 0.0 164.5200163029646 298.0945231251881 385.10685572087147 # Ar
308 308 1 0.0 116.96633652330691 325.7807511360453 273.1900279394452 # Ar
309 309 1 0.0 281.8407753905668 46.900605158229496 84.39499171534545 # Ar
310 310 1 0.0 430.22132197036115 485.946479171342 115.40053284421096 # Ar
311 311 1 0.0 303.8562488899273 68.18248453964254 257.977572177089 # Ar
312 312 1 0.0 107.42641013873167 317.0744863400561 359.40462524072484 # Ar
313 313 1 0.0 224.58790404847832 473.00183048891364 480.90082798229656 # Ar
314 314 1 0.0 357.6954885989592 321.0339156732497 460.3883832894034 # Ar
315 315 1 0.0 6.427412994421337 508.02425027205 174.48352976026723 # Ar
316 316 1 0.0 343.6612916056868 349.022491854597 275.15484615703025 # Ar
317 317 1 0.0 498.0682337235751 374.703265192668 278.8452327056243 # Ar
318 318 1 0.0 3.03576025332572 170.28971410984536 98.48675794771987 # Ar
319 319 1 0.0 437.11429449987924 23.328186115498696 453.24533477136237 # Ar
320 320 1 0.0 65.38160305602297 192.87988712479967 261.3104195735439 # Ar
321 321 1 0.0 76.00055097904769 198.96688978663562 513.2743692883795 # Ar
322 322 1 0.0 196.47783257226885 423.2590656754757 23.50595280278813 # Ar
323 323 1 0.0 348.48193164848806 341.95815349502044 128.4938921709859 # Ar
324 324 1 0.0 512.7962994417176 203.97574597708473 465.3316166272162 # Ar
325 325 1 0.0 424.21167792681064 346.88497530676335 172.52565227381336 # Ar
326 326 1 0.0 218.46646007307706 58.19562767921716 0.6839436659882598 # Ar
327 327 1 0.0 207.83351444274084 193.979623670203 220.51654863644558 # Ar
328 328 1 0.0 257.05412593919897 90.898637979181 342.1553672299242 # Ar
329 329 1 0.0 92.31175065177551 333.5866420384767 239.6707529372368 # Ar
330 330 1 0.0 436.57575960404364 249.38586316509372 32.751324242551725 # Ar
331 331 1 0.0 312.1951422854822 475.4973203224886 329.4549854845094 # Ar
332 332 1 0.0 488.10070855078357 324.82165305999547 249.956535551848 # Ar
333 333 1 0.0 380.69946866738246 429.0145776768077 164.590318657654 # Ar
334 334 1 0.0 205.30117541344137 224.59025628846035 421.69303790869566 # Ar
335 335 1 0.0 485.53936139310014 11.63885455305975 180.56571317982488 # Ar
336 336 1 0.0 326.5969996059458 110.66070673327947 203.96001717090823 # Ar
337 337 1 0.0 157.64513068469017 477.96396973900505 231.8444556493925 # Ar
338 338 1 0.0 278.215642857344 383.92653801299133 420.88767665618207 # Ar
339 339 1 0.0 385.2188003872541 46.900022601581504 14.637068277965106 # Ar
340 340 1 0.0 88.1400048688582 331.14579801596597 270.48362014123853 # Ar
341 341 1 0.0 300.85230243105065 217.96026416433267 498.17822401399474 # Ar
342 342 1 0.0 366.8604912275883 291.81347532648317 442.20031909714413 # Ar
343 343 1 0.0 266.8367914360591 163.52618040628204 197.75961864319603 # Ar
344 344 1 0.0 479.6254859973863 50.65745294940015 254.7361428653288 # Ar
345 345 1 0.0 401.32905848119117 477.0174184171786 78.91776239090039 # Ar
346 346 1 0.0 123.29751106210817 195.92690058280868 288.7937304255396 # Ar
347 347 1 0.0 118.1064866996654 384.5427033368221 177.78959742509605 # Ar
348 348 1 0.0 223.92918234197973 158.53878177443784 251.45910075422637 # Ar
349 349 1 0.0 430.70532437685875 356.36596921146725 305.7313016197943 # Ar
350 350 1 0.0 158.88531632037598 220.6840747053012 477.75558197133995 # Ar
351 351 1 0.0 442.7939405666833 145.98709848047537 153.78581118444023 # Ar
352 352 1 0.0 28.146987680398954 460.22201041634366 109.64276619108047 # Ar
353 353 1 0.0 297.94419534031357 321.60886074789624 98.91606857270897 # Ar
354 354 1 0.0 388.1177850741899 242.0650249542636 218.3950973580388 # Ar
355 355 1 0.0 203.68596507709657 99.16345444670414 400.76389395140967 # Ar
356 356 1 0.0 91.16616681126503 441.37899473332766 130.18230793038168 # Ar
357 357 1 0.0 131.42004693035804 30.840830705399917 347.755223478354 # Ar
358 358 1 0.0 119.46980876718337 17.82597103107953 122.7413055667808 # Ar
359 359 1 0.0 177.24627882210794 225.6442963785345 99.54189784564586 # Ar
360 360 1 0.0 422.9582581117115 347.4135854229498 407.9915825596052 # Ar
361 361 1 0.0 418.373505645096 201.0220736140271 140.02141263674105 # Ar
362 362 1 0.0 319.67339432241823 216.67853813818147 27.724905792966748 # Ar
363 363 1 0.0 384.4434654635969 141.1686305318221 59.69104529187115 # Ar
364 364 1 0.0 61.75143758504172 214.4896132515178 98.87921866472259 # Ar
365 365 1 0.0 513.5360600261871 435.4227918654633 79.01475365112665 # Ar
366 366 1 0.0 474.7817583832389 454.81297403902835 399.7337545320794 # Ar
367 367 1 0.0 33.131192438226 492.93559332820223 136.84167609212696 # Ar
368 368 1 0.0 325.8239011447603 439.41430304331885 228.8523607315928 # Ar
369 369 1 0.0 340.5603811722339 112.07792751493658 177.72943179527613 # Ar
370 370 1 0.0 321.0457995224446 115.931938028988 509.4023426362507 # Ar
371 371 1 0.0 366.251255550777 219.93193139669944 386.3669208609222 # Ar
372 372 1 0.0 346.96555235487807 423.0974871348514 367.27470162032847 # Ar
373 373 1 0.0 451.8990769752589 213.51805419769374 377.6998613299117 # Ar
374 374 1 0.0 325.3804089435683 444.76838824223546 354.72383493744144 # Ar
375 375 1 0.0 127.3565450506417 260.4240453712653 336.9630119766638 # Ar
376 376 1 0.0 171.8731917802157 426.4733592645226 159.22844049375308 # Ar
377 377 1 0.0 317.2052197685294 11.319350714578738 237.64279895427336 # Ar
378 378 1 0.0 440.71384608210496 348.18788501605513 117.32613832448179 # Ar
379 379 1 0.0 356.0995399579367 1.685054632901217 156.02525443903997 # Ar
380 380 1 0.0 41.57615997373855 283.14098349422284 218.9142413144222 # Ar
381 381 1 0.0 80.27003789024442 22.21459040980586 512.9821477455672 # Ar
382 382 1 0.0 233.8631068218905 364.0560196226342 241.09337676707642 # Ar
383 383 1 0.0 368.0678413478128 0.11464239024613485 427.04155849608287 # Ar
384 384 1 0.0 190.91948521613236 462.44960715211965 196.5761998980647 # Ar
385 385 1 0.0 133.74805985532385 360.56437529621354 126.1432688169613 # Ar
386 386 1 0.0 390.6538832796055 21.219701963376274 43.033786877351154 # Ar
387 387 1 0.0 165.70867611404665 502.04135496966836 384.7562389015421 # Ar
388 388 1 0.0 309.99720814849866 499.83236146959297 326.345813897912 # Ar
389 389 1 0.0 410.55121672014826 244.0034080084989 492.9789657860749 # Ar
390 390 1 0.0 19.09815612330016 59.48376720281636 393.72876589619403 # Ar
391 391 1 0.0 7.168444262276023 317.01544557079956 276.8129926108345 # Ar
392 392 1 0.0 483.8998231263172 390.34814845081763 16.326068341574143 # Ar
393 393 1 0.0 214.0405940422659 297.860478305047 270.3896962131692 # Ar
394 394 1 0.0 38.78641846160576 397.6628287675214 97.13540746310397 # Ar
395 395 1 0.0 461.2305601158348 254.1698489709206 61.02797919872858 # Ar
396 396 1 0.0 189.3823437480234 377.1562538935915 473.6667874448269 # Ar
397 397 1 0.0 120.69476461451703 350.6701221362057 232.08429608191196 # Ar
398 398 1 0.0 381.42986044516795 169.32402691373588 165.0632731735382 # Ar
399 399 1 0.0 44.636938990981704 336.08185883588266 119.9934187351203 # Ar
400 400 1 0.0 261.6510855416341 251.8630552734898 458.2926166024933 # Ar
401 401 1 0.0 32.381649534441735 386.3357993480979 306.5718531350919 # Ar
402 402 1 0.0 377.4373091004546 281.7602315040226 55.860818070887966 # Ar
403 403 1 0.0 265.7942987096739 466.0067787011125 460.5016030116333 # Ar
404 404 1 0.0 282.2757074373281 195.27343103607643 420.3617495406192 # Ar
405 405 1 0.0 212.33149148704828 380.9554142408049 203.9680321195905 # Ar
406 406 1 0.0 267.8723119522518 366.3691217747633 228.48819642080346 # Ar
407 407 1 0.0 106.50794247233992 106.48232199114115 327.45722790820236 # Ar
408 408 1 0.0 357.75030786139996 71.80652956792412 306.65318695335947 # Ar
409 409 1 0.0 383.5829960433288 483.0759766194041 52.157044417781805 # Ar
410 410 1 0.0 286.6057108172213 104.81437032088613 48.16293938274695 # Ar
411 411 1 0.0 497.95169261741995 158.7961016403747 454.09607843193186 # Ar
412 412 1 0.0 322.3830353729013 39.53851848955482 183.3663637319507 # Ar
413 413 1 0.0 385.24793452988666 11.465715321937864 383.7009100575922 # Ar
414 414 1 0.0 481.60435657668745 334.2407120890835 154.35541454144132 # Ar
415 415 1 0.0 314.4428119629212 453.42236446249893 85.70628661112656 # Ar
416 416 1 0.0 97.292315599136 444.09355244571907 49.098146267929074 # Ar
417 417 1 0.0 237.9943329141122 416.2072547673189 57.95280478824445 # Ar
418 418 1 0.0 440.2962308675591 120.98336139354164 69.11120644946504 # Ar
419 419 1 0.0 229.70764588336365 45.73809804484784 108.20445378728894 # Ar
420 420 1 0.0 107.63972652260847 176.0707510111107 283.0157406231311 # Ar
421 421 1 0.0 277.53861542314326 366.518645919089 401.17768795687834 # Ar
422 422 1 0.0 117.97337029237933 410.47424684386937 436.3551458971395 # Ar
423 423 1 0.0 339.24479201415596 90.68642134007601 92.3699063239051 # Ar
424 424 1 0.0 449.7738972830376 64.1280751999654 58.82195097135066 # Ar
425 425 1 0.0 447.97626715987957 414.4966970744775 372.7108053467906 # Ar
426 426 1 0.0 114.92386133596224 117.31070587114172 96.43158728502836 # Ar
427 427 1 0.0 329.2331589405746 23.458107857278574 513.2709497346024 # Ar
428 428 1 0.0 298.41740072524 10.047614552929803 398.75902923891203 # Ar
429 429 1 0.0 467.7915269710903 169.58914205339883 458.0716701094427 # Ar
430 430 1 0.0 428.5269014933793 411.82744971153926 441.1677179561022 # Ar
431 431 1 0.0 485.3635795967828 369.0281781301829 57.71116076862606 # Ar
432 432 1 0.0 469.0390661187227 428.7710151159024 55.05804641794803 # Ar
433 433 1 0.0 326.40384055847096 342.2663737740564 180.1429452740634 # Ar
434 434 1 0.0 108.35914064398695 301.28369243783123 454.155498509939 # Ar
435 435 1 0.0 276.8315844387527 137.26744008461733 84.91415503599595 # Ar
436 436 1 0.0 251.98419528878432 336.99848349348827 287.44826093611044 # Ar
437 437 1 0.0 89.54688366921488 78.30664543502888 310.9028426401602 # Ar
438 438 1 0.0 306.79324641029524 224.48849285263302 412.5249445951154 # Ar
439 439 1 0.0 141.62168930330344 225.58399593214173 94.92454627012795 # Ar
440 440 1 0.0 81.69647233459911 254.903941979513 398.64251301120737 # Ar
441 441 1 0.0 446.3493410530629 412.7260541781059 427.83081396791425 # Ar
442 442 1 0.0 299.55227245147137 373.8511403316328 46.81739729307679 # Ar
443 443 1 0.0 32.4554829915679 514.2733871718566 168.662494099292 # Ar
444 444 1 0.0 57.76594043291882 214.93085002303786 308.36650717011537 # Ar
445 445 1 0.0 437.0794992387126 369.9336613003832 438.52864490840847 # Ar
446 446 1 0.0 241.1339135463874 479.1412037146566 101.19002980529677 # Ar
447 447 1 0.0 258.06146002497593 400.82866790191514 470.7842416890118 # Ar
448 448 1 0.0 301.7720952912973 217.06293196033042 87.11621264944651 # Ar
449 449 1 0.0 507.6946931409927 373.6324030179227 105.27642148078162 # Ar
450 450 1 0.0 9.904347610393463 47.10316171595193 357.1165113759427 # Ar
451 451 1 0.0 320.9343778633171 296.4169032443814 378.0257644318286 # Ar
452 452 1 0.0 253.75691903528963 430.06205635788183 503.13757260134395 # Ar
453 453 1 0.0 413.93453765806805 223.71270074308077 30.209911965177923 # Ar
454 454 1 0.0 118.30003563718 149.01005636537894 266.4597647101775 # Ar
455 455 1 0.0 387.1435012775926 225.64342158516757 246.93769464958308 # Ar
456 456 1 0.0 370.62576153745795 261.22993889708914 307.1018516350161 # Ar
457 457 1 0.0 465.58462997377507 402.56392204985355 365.9860939769146 # Ar
458 458 1 0.0 399.7685270513416 502.8472650396336 195.99592250293867 # Ar
459 459 1 0.0 389.8211251385383 416.42673935940485 31.27043336702748 # Ar
460 460 1 0.0 506.2040344199569 244.84991442409267 193.55839658357002 # Ar
461 461 1 0.0 117.54638738135608 413.5764903266422 337.00191401799873 # Ar
462 462 1 0.0 119.71047682208388 261.78560534849606 423.0191101955791 # Ar
463 463 1 0.0 275.56727985474623 405.99157798244534 310.6478770057459 # Ar
464 464 1 0.0 146.30784857822528 308.6382890778709 480.6463730065539 # Ar
465 465 1 0.0 234.49267084924054 74.90256717000884 385.547415107937 # Ar
466 466 1 0.0 32.59235541677358 51.856584328236956 325.45250099096336 # Ar
467 467 1 0.0 153.49221271258475 33.298806121105336 132.7561552315129 # Ar
468 468 1 0.0 141.18529546697104 364.5361538543808 285.03904633412657 # Ar
469 469 1 0.0 372.2835773256568 67.96737947573436 222.57693135915488 # Ar
470 470 1 0.0 345.8739966347754 215.49009084656117 506.03063878861917 # Ar
471 471 1 0.0 467.33586767035575 388.1150223453081 49.42621778893883 # Ar
472 472 1 0.0 51.91511303432031 134.34285704270786 480.08764914033134 # Ar
473 473 1 0.0 214.39129271649884 22.669533841951445 500.203698590579 # Ar
474 474 1 0.0 26.805104330336658 420.09100244174243 236.6968262648778 # Ar
475 475 1 0.0 147.40657244149057 242.05055794615515 405.5049711489575 # Ar
476 476 1 0.0 361.4178507496453 383.6207794532506 249.91669584677172 # Ar
477 477 1 0.0 481.9165210316253 300.91969993172313 303.66866996082996 # Ar
478 478 1 0.0 18.89559915534349 53.02102864832235 91.03210333605462 # Ar
479 479 1 0.0 447.70240247800604 419.051566219531 188.91725795468722 # Ar
480 480 1 0.0 56.36235604086003 200.30074897625448 497.7642827244666 # Ar
481 481 1 0.0 488.04977348920625 147.54261931165934 76.40961584942666 # Ar
482 482 1 0.0 513.008237159517 202.55374844688876 167.76147820027413 # Ar
483 483 1 0.0 156.09093151991829 447.52429192390406 339.02400686480394 # Ar
484 484 1 0.0 155.2699720499005 346.518367551548 342.4190658120057 # Ar
485 485 1 0.0 208.07068649963054 239.87531368116132 347.21239238883317 # Ar
486 486 1 0.0 423.2954250103593 234.16450146120474 336.41165451226027 # Ar
487 487 1 0.0 492.163940383185 139.97014886938328 174.57018656516235 # Ar
488 488 1 0.0 119.79645483434363 272.14704133780884 14.909791094124206 # Ar
489 489 1 0.0 238.56374990035775 117.57134271895158 484.866703300743 # Ar
490 490 1 0.0 403.2787151426915 142.0907451879263 358.317385925833 # Ar
491 491 1 0.0 475.1714135960002 304.04532735125724 510.6282335681039 # Ar
492 492 1 0.0 83.51155372888871 353.6241781523093 29.570266834684368 # Ar
493 493 1 0.0 198.47278500468698 308.03290841577314 490.4240675043115 # Ar
494 494 1 0.0 349.0255486150642 62.016137758837715 409.2646584475363 # Ar
495 495 1 0.0 100.96654339184123 311.10000029565686 151.42236142486715 # Ar
496 496 1 0.0 482.4268733992719 192.10571346650545 13.193186895806155 # Ar
497 497 1 0.0 273.1573986904063 493.1215968447625 364.5579738809662 # Ar
498 498 1 0.0 424.0396963477206 347.47921502692486 182.0507818435168 # Ar
499 499 1 0.0 179.61716449164982 418.54925264861913 342.8998056655866 # Ar
500 500 1 0.0 86.5571742201086 504.9195403066785 410.2461694737236 # Ar
501 501 1 0.0 436.4991516599077 139.55305329578405 133.02314787672717 # Ar
502 502 1 0.0 218.1354461971827 386.7127106702803 333.26836551109136 # Ar
503 503 1 0.0 508.35720923504573 184.8197075683651 74.34241359137845 # Ar
504 504 1 0.0 378.1608296969046 176.22999539873004 436.0844122651853 # Ar
505 505 1 0.0 308.91799877743694 129.39984626439914 189.7032737650264 # Ar
506 506 1 0.0 160.9687731877459 170.2221001622686 477.00426512952384 # Ar
507 507 1 0.0 94.71817555446663 354.9652378965833 236.55469372535939 # Ar
508 508 1 0.0 412.19919261989656 190.36989213108663 229.88738904754626 # Ar
509 509 1 0.0 229.79705126199656 162.81066807356362 407.6293540588282 # Ar
510 510 1 0.0 467.3906913972668 370.4509436970905 442.86620538265146 # Ar
511 511 1 0.0 274.60058809913727 376.81382449092536 47.34990262189658 # Ar
512 512 1 0.0 163.07701924152153 454.84302075220245 1.987748142410784 # Ar
513 513 1 0.0 316.66474590858235 212.084926963778 375.7291392568853 # Ar
514 514 1 0.0 96.04139514661063 204.45095614953007 126.92942672498643 # Ar
515 515 1 0.0 283.73363739505953 371.6227552088891 35.689493327731284 # Ar
516 516 1 0.0 492.5310165679486 199.4389912344125 247.54472379043173 # Ar
517 517 1 0.0 440.1973235675183 413.53789687943885 384.80887186168735 # Ar
518 518 1 0.0 168.2839994738523 299.4812860189046 171.40059345071197 # Ar
519 519 1 0.0 318.3887794584858 460.1408303798788 121.91509645143007 # Ar
520 520 1 0.0 368.0352140545412 487.47779533072895 454.1938925148418 # Ar
521 521 1 0.0 94.3575682830627 503.73532833225175 389.98531071384434 # Ar
522 522 1 0.0 326.74301300209714 143.0657667615634 331.2579871004858 # Ar
523 523 1 0.0 322.8152213057452 128.53695646685622 373.17281811723694 # Ar
524 524 1 0.0 175.35858356710412 74.96191744205315 337.72148193947874 # Ar
525 525 1 0.0 142.48847902636183 311.4311161478206 451.1135814389664 # Ar
526 526 1 0.0 471.289075461544 386.32124063561304 160.09208628706347 # Ar
527 527 1 0.0 436.7861345278603 490.8486713152738 20.162931133799077 # Ar
528 528 1 0.0 323.0413006344658 134.31746057577445 73.38846579100262 # Ar
529 529 1 0.0 252.76577665335668 37.53736369108172 90.70822332217307 # Ar
530 530 1 0.0 341.03770676734416 441.44675490506745 120.80963918379705 # Ar
531 531 1 0.0 328.13980391174744 465.2201876798763 365.11980855850567 # Ar
532 532 1 0.0 182.60638366286008 178.79401025332308 202.9423197086128 # Ar
533 533 1 0.0 152.4957997088437 416.4428727802574 297.2051904963588 # Ar
534 534 1 0.0 514.1800053831762 392.9863262180536 409.8514549066773 # Ar
535 535 1 0.0 232.69804918523167 50.945789705300726 214.89606845737555 # Ar
536 536 1 0.0 329.524896353852 493.10170178764776 385.47514095859975 # Ar
537 537 1 0.0 90.33716740711812 261.2535397212882 80.40413250189297 # Ar
538 538 1 0.0 289.3339257360917 116.61910617952095 50.45938702527017 # Ar
539 539 1 0.0 331.3870876581525 26.842325017904457 137.76546338908437 # Ar
540 540 1 0.0 61.706683758702276 56.13687364959224 470.2195902030164 # Ar
541 541 1 0.0 338.9151097097694 255.39364085480338 231.25469066529763 # Ar
542 542 1 0.0 109.67447049472935 478.86836520520774 145.28930686291469 # Ar
543 543 1 0.0 104.50187813738687 92.21037396617402 121.81334777752288 # Ar
544 544 1 0.0 419.4052425988936 331.99809950658226 450.7655585329939 # Ar
545 545 1 0.0 413.7730466851011 143.20181716049663 62.99160216432221 # Ar
546 546 1 0.0 469.9450674181937 40.53912331560758 216.94060196540806 # Ar
547 547 1 0.0 443.0816461154818 163.6716802847587 300.45517868973565 # Ar
548 548 1 0.0 409.72121861342384 149.46384601065608 212.6434845968413 # Ar
549 549 1 0.0 84.16543127221169 47.191345559309035 309.36458283471177 # Ar
550 550 1 0.0 30.200148739380555 113.72320502172606 378.8746269910081 # Ar
551 551 1 0.0 304.515127919606 451.2557597366351 365.0287619226879 # Ar
552 552 1 0.0 185.35421215470765 398.4966779579471 306.17868577583346 # Ar
553 553 1 0.0 452.8274861155647 317.3243275775568 205.85380960989727 # Ar
554 554 1 0.0 334.25442436889153 342.7829524630969 337.74268119334783 # Ar
555 555 1 0.0 53.68711784236424 48.38149203913796 249.4728339686212 # Ar
556 556 1 0.0 8.097418589860032 410.6824131187323 161.32811918168161 # Ar
557 557 1 0.0 88.16004566895255 294.75415373028534 399.0512215707144 # Ar
558 558 1 0.0 102.95829902655998 144.34665725559992 270.27573302751193 # Ar
559 559 1 0.0 290.8878305136169 512.8566214043436 162.09044967659702 # Ar
560 560 1 0.0 353.74892583180855 477.6549940661984 42.471499305468484 # Ar
561 561 1 0.0 457.21743410124293 321.7965317349363 281.99084583466936 # Ar
562 562 1 0.0 123.50623082142745 188.90646006809416 109.8475992690317 # Ar
563 563 1 0.0 287.7401239986757 309.4102234825201 156.06362441376163 # Ar
564 564 1 0.0 78.2377871924587 142.4885584234413 48.89391156182442 # Ar
565 565 1 0.0 97.50072205023946 353.7166498759814 170.6393870400314 # Ar
566 566 1 0.0 236.43499688124075 461.31161175705654 56.34418214397496 # Ar
567 567 1 0.0 126.39306035983276 347.1433436752959 509.3464532978844 # Ar
568 568 1 0.0 121.51216007716806 352.65633790065533 12.989742140491003 # Ar
569 569 1 0.0 476.2341965563681 373.6982236905333 392.9293185639455 # Ar
570 570 1 0.0 47.93043169252506 374.81955055656573 9.66560339446175 # Ar
571 571 1 0.0 358.007066746799 293.51774809037147 236.50682681529935 # Ar
572 572 1 0.0 425.0699098010498 250.14845107863624 171.33977939490492 # Ar
573 573 1 0.0 69.27787261077451 402.4513926498465 319.263927391235 # Ar
574 574 1 0.0 304.9719196653919 62.30913948863403 340.63981589612774 # Ar
575 575 1 0.0 244.18647349794875 235.27952032198047 167.94626468547455 # Ar
576 576 1 0.0 306.7089442407228 110.29252686943174 132.21583008174906 # Ar
577 577 1 0.0 394.22191846076856 167.18789917684222 452.6686830885101 # Ar
578 578 1 0.0 148.59539534437843 204.17987763025653 144.5558794765402 # Ar
579 579 1 0.0 382.72783394607563 358.2894036334839 514.2761466603964 # Ar
580 580 1 0.0 14.890140818316713 379.91925167797245 504.2255628638626 # Ar
581 581 1 0.0 220.15668656174805 327.41213862574716 376.88896103438543 # Ar
582 582 1 0.0 38.73488456149083 442.3644769019352 272.50688634666056 # Ar
583 583 1 0.0 489.677202999422 460.53661269173557 231.01368212132027 # Ar
584 584 1 0.0 209.78294152915447 211.849916988046 494.68361810365644 # Ar
585 585 1 0.0 341.2363912635115 346.13681826875666 56.64252182902833 # Ar
586 586 1 0.0 104.08304784608808 17.11452731138862 493.6154237125793 # Ar
587 587 1 0.0 244.64612836648584 2.8084613160908174 499.161804842267 # Ar
588 588 1 0.0 504.99741635955434 238.05759277173453 297.07883647862684 # Ar
589 589 1 0.0 322.2696203740924 6.2859443062592195 298.26220223955795 # Ar
590 590 1 0.0 501.47804250264477 333.77141965056757 415.03488173009833 # Ar
591 591 1 0.0 365.271710379984 447.68920015059194 150.91980985137255 # Ar
592 592 1 0.0 52.24277687538077 132.98903844380706 392.53507131029295 # Ar
593 593 1 0.0 219.64466259579447 129.81525519012703 397.62676303532055 # Ar
594 594 1 0.0 329.35835050646716 250.48679325909296 217.16439118560288 # Ar
595 595 1 0.0 473.47957236004396 398.1026862684629 489.1391291428996 # Ar
596 596 1 0.0 486.3506661590499 346.2209530317211 139.27385037824314 # Ar
597 597 1 0.0 369.76049605658005 30.995874306217754 510.20541402966325 # Ar
598 598 1 0.0 300.509829421145 98.75393622008086 486.18506832742014 # Ar
599 599 1 0.0 196.9922232281263 502.79193785957335 399.1194063544178 # Ar
600 600 1 0.0 440.17600727349753 510.09578135188553 301.25616351355467 # Ar
601 601 1 0.0 347.00879867499776 321.9638701683906 483.7551071776684 # Ar
602 602 1 0.0 23.685838867848755 220.51721792129976 302.62012084418245 # Ar
603 603 1 0.0 481.83806429974896 10.538453860194627 63.62482494341033 # Ar
604 604 1 0.0 417.24958657748857 380.68472659923634 480.787747537878 # Ar
605 605 1 0.0 222.4426780549526 141.787285989901 398.34421718530984 # Ar
606 606 1 0.0 249.94462625268667 258.33513556404023 125.97274280507972 # Ar
607 607 1 0.0 59.43939087540049 53.809372947541206 134.22880646015602 # Ar
608 608 1 0.0 9.439424423189703 160.27374926202032 123.06225440683218 # Ar
609 609 1 0.0 61.88301952817886 330.63831031330506 164.86089200512063 # Ar
610 610 1 0.0 86.88174383532093 233.55143777246414 4.057138741728999 # Ar
611 611 1 0.0 68.5891566225257 507.0288335385923 16.728127272753532 # Ar
612 612 1 0.0 483.9572847030151 39.44069594911806 363.80324898063003 # Ar
613 613 1 0.0 429.2517041830314 428.7365533816886 433.2837722284692 # Ar
614 614 1 0.0 67.66503976731185 489.6563462309097 312.4742452032723 # Ar
615 615 1 0.0 385.2969555957589 491.4343779433145 307.3626901878129 # Ar
616 616 1 0.0 323.9315680625359 147.49948623706334 335.09263117312344 # Ar
617 617 1 0.0 149.46146141361868 477.0886661491261 142.99730925189562 # Ar
618 618 1 0.0 463.7191248385518 147.03507776238487 354.03571750662115 # Ar
619 619 1 0.0 47.10579077301406 436.4672090274757 375.6751481115415 # Ar
620 620 1 0.0 154.51342745739885 484.9462520325583 429.07859961770964 # Ar
621 621 1 0.0 237.59523597155834 359.43362156620725 481.15860588518234 # Ar
622 622 1 0.0 292.95977251753266 471.9295135504307 67.58570493009866 # Ar
623 623 1 0.0 282.7635779789479 386.4997825312289 81.417289720132 # Ar
624 624 1 0.0 316.31699167433067 130.08069417616932 513.6679872443632 # Ar
625 625 1 0.0 34.63783980182929 165.02332448642835 495.7096926343118 # Ar
626 626 1 0.0 322.80825939495224 252.3065677035217 40.962039895259274 # Ar
627 627 1 0.0 255.84091279415912 416.5641324308943 283.43640906605276 # Ar
628 628 1 0.0 412.67093120819555 108.87912201913115 233.6807743023173 # Ar
629 629 1 0.0 29.146576491011725 101.61693679143534 138.3612502565316 # Ar
630 630 1 0.0 240.33860102278425 480.19764527052666 512.4318745881893 # Ar
631 631 1 0.0 165.02776783755138 270.2685049027428 437.13112296476925 # Ar
632 632 1 0.0 484.32293913268774 218.0090653455484 195.0082646589993 # Ar
633 633 1 0.0 470.00152207563275 115.66498587998147 19.029587951665288 # Ar
634 634 1 0.0 393.384784387313 214.25942366033118 360.8268495731172 # Ar
635 635 1 0.0 328.35049867024776 406.08892951914993 117.58448551124586 # Ar
636 636 1 0.0 15.216193491067326 85.4240232499292 23.365820501407637 # Ar
637 637 1 0.0 319.22535034807834 497.53128418959926 294.01157090413477 # Ar
638 638 1 0.0 253.72835408340916 187.88332964731913 104.57232434331122 # Ar
639 639 1 0.0 21.030245375020204 178.6957512944779 304.4103143503999 # Ar
640 640 1 0.0 55.16129616924217 406.4187838438917 490.09475047667274 # Ar
641 641 1 0.0 168.53946486478182 257.8559343024615 409.8007646979948 # Ar
642 642 1 0.0 166.08294428492866 239.7096779567939 489.4166518373092 # Ar
643 643 1 0.0 330.9294292406128 490.25598236399236 429.6125252317767 # Ar
644 644 1 0.0 121.18852503126587 357.5095207267886 87.63764952817438 # Ar
645 645 1 0.0 295.6005870388807 226.04263567306054 139.65448502312344 # Ar
646 646 1 0.0 12.028501157698356 17.063943334342262 142.1279067364063 # Ar
647 647 1 0.0 438.2870139962469 478.98300264566876 439.4144831467143 # Ar
648 648 1 0.0 60.32343945440135 441.32520259796405 152.56041963785472 # Ar
649 649 1 0.0 510.7226745624119 58.73273524361131 81.92554772070311 # Ar
650 650 1 0.0 285.20338305711596 378.04996145733435 235.53736598564578 # Ar
651 651 1 0.0 216.4202995837205 390.4604703091174 44.79437244982827 # Ar
652 652 1 0.0 247.87945186062558 260.83056628287835 425.5132889505062 # Ar
653 653 1 0.0 133.8541416041369 160.1554527028103 343.608195736049 # Ar
654 654 1 0.0 366.7155943273237 467.19990863528227 308.3521850600652 # Ar
655 655 1 0.0 357.2205625136593 461.0025272172365 247.38960584505867 # Ar
656 656 1 0.0 105.09635881012517 506.8261058085957 192.85855617774527 # Ar
657 657 1 0.0 84.68816800843271 28.226249435434692 190.17339445840932 # Ar
658 658 1 0.0 446.23292817135814 356.5478712097151 421.3635448895255 # Ar
659 659 1 0.0 454.9610523343952 30.47933540430661 322.3540641481207 # Ar
660 660 1 0.0 381.93033632792765 348.70708885385426 80.3367327612737 # Ar
661 661 1 0.0 158.6496873138948 89.76919769046049 482.6152188888429 # Ar
662 662 1 0.0 355.1673204489153 490.6189535068486 343.1669854229215 # Ar
663 663 1 0.0 204.45129136190448 320.73496598388795 83.5064924941158 # Ar
664 664 1 0.0 493.05119693160856 441.1959475120664 179.88340287366964 # Ar
665 665 1 0.0 478.323030315558 414.0957644640088 414.77951121736777 # Ar
666 666 1 0.0 191.56685345140292 330.34367217749775 424.77868491935885 # Ar
667 667 1 0.0 270.86243642521885 494.53330945637856 70.51202950357329 # Ar
668 668 1 0.0 438.98333782016573 461.51404427814697 240.76850177037247 # Ar
669 669 1 0.0 82.21871502337977 244.91036415778896 83.09576907768557 # Ar
670 670 1 0.0 243.72018381644654 2.0074991377167093 389.4025730547114 # Ar
671 671 1 0.0 110.15779818517689 11.047510826242103 363.262041553984 # Ar
672 672 1 0.0 426.981869292985 151.3452915348867 369.43742150718384 # Ar
673 673 1 0.0 383.592616703322 337.7023647802212 81.39626247499352 # Ar
674 674 1 0.0 177.81878169155863 254.47690578244325 392.56047339471183 # Ar
675 675 1 0.0 125.50009662597076 396.8346066623829 261.87170180208597 # Ar
676 676 1 0.0 345.87747092494385 76.33175278908057 16.503486133602802 # Ar
677 677 1 0.0 15.021691707532346 5.77558042359292 397.8199482413704 # Ar
678 678 1 0.0 359.54867948589526 261.80122919932546 180.4991291833306 # Ar
679 679 1 0.0 4.987825630886873 332.3407290929524 30.116138159724503 # Ar
680 680 1 0.0 41.91978325160299 11.814800170039884 361.1042552889046 # Ar
681 681 1 0.0 247.14276929838425 363.0543699791087 479.8212434285564 # Ar
682 682 1 0.0 412.96246112931163 394.575476351804 29.88090281540008 # Ar
683 683 1 0.0 154.65255901324775 149.65360619976417 180.60560095581783 # Ar
684 684 1 0.0 142.37865880057208 184.96620621924572 215.55384615501245 # Ar
685 685 1 0.0 436.24891222883673 210.25472071498945 338.92734250763635 # Ar
686 686 1 0.0 10.53876899462701 249.82308370729692 356.6920416283427 # Ar
687 687 1 0.0 217.5377612598964 389.21959517362444 491.72467489559455 # Ar
688 688 1 0.0 411.9568068630322 33.45153275401301 455.27256785075485 # Ar
689 689 1 0.0 481.36488203447374 65.55801339302893 66.8213757570851 # Ar
690 690 1 0.0 449.7134028771891 93.16079073568731 338.022986857041 # Ar
691 691 1 0.0 440.3290614318745 134.9832149848404 27.550628944474145 # Ar
692 692 1 0.0 70.45179942393634 305.10314466120013 266.8060455907415 # Ar
693 693 1 0.0 1.4528479083358699 32.833311185065206 336.3854397786723 # Ar
694 694 1 0.0 374.2617782401461 259.4677786478709 202.69117018570998 # Ar
695 695 1 0.0 365.033886325906 355.02187609115305 312.66061528806847 # Ar
696 696 1 0.0 93.68376828837653 168.58855578175823 178.06903248478244 # Ar
697 697 1 0.0 22.255230968566448 101.4707324155717 347.11094256838965 # Ar
698 698 1 0.0 506.6009980211433 354.2953493525799 427.44177698699576 # Ar
699 699 1 0.0 490.4670394624906 354.8745094363105 342.49206323559474 # Ar
700 700 1 0.0 166.44885667282009 78.85856713835003 37.77364835034281 # Ar
701 701 1 0.0 421.8620495734225 347.7084005029907 452.7926891953031 # Ar
702 702 1 0.0 503.05061558172036 215.23052214307233 234.4643814627924 # Ar
703 703 1 0.0 298.5450788244386 294.87478647170786 220.24195468418162 # Ar
704 704 1 0.0 237.0284232045559 119.58192905035696 454.9186594722402 # Ar
705 705 1 0.0 503.113053374189 401.85290990768436 124.22566093024348 # Ar
706 706 1 0.0 357.80476198433473 112.83414408652683 242.53495677895907 # Ar
707 707 1 0.0 214.9076852120141 277.9192700470024 333.29292304990304 # Ar
708 708 1 0.0 484.3587954140786 390.29572593790397 48.6943671851499 # Ar
709 709 1 0.0 254.78152134097306 3.0254366790097613 289.5346063599474 # Ar
710 710 1 0.0 403.449829023837 340.5705433939737 59.502733919282655 # Ar
711 711 1 0.0 78.27598527092397 330.8946887165908 23.834620437561963 # Ar
712 712 1 0.0 229.71486168058485 236.18708471828975 62.41697173511112 # Ar
713 713 1 0.0 248.93655275210548 223.85366487994233 31.36649924493147 # Ar
714 714 1 0.0 149.49144641154285 190.81740753062792 220.1405208607739 # Ar
715 715 1 0.0 463.1062246236811 499.1847005604243 284.3111206761091 # Ar
716 716 1 0.0 146.47763884321796 90.83607891597728 156.78355676814155 # Ar
717 717 1 0.0 511.19831230199185 153.9341215309223 164.82794767470517 # Ar
718 718 1 0.0 303.4321339308874 458.54268766513405 309.54469619271566 # Ar
719 719 1 0.0 282.5225003995531 428.53252649628917 70.84619728691082 # Ar
720 720 1 0.0 509.1942091218245 411.96440097698263 71.86188302301694 # Ar
721 721 1 0.0 463.9378971045372 163.41364059571234 9.314359798173768 # Ar
722 722 1 0.0 119.87634043944708 454.39388786440696 76.61389514989477 # Ar
723 723 1 0.0 33.44799479481596 234.94521410789133 70.15685033697537 # Ar
724 724 1 0.0 117.8054066980498 203.82058841825722 482.7028917608698 # Ar
725 725 1 0.0 402.96343661771306 9.603087198652906 214.1136138808529 # Ar
726 726 1 0.0 331.4777017888404 87.38388256442899 90.9893697395238 # Ar
727 727 1 0.0 345.5259728917736 293.13500040477385 70.03918759849857 # Ar
728 728 1 0.0 113.64219625470078 394.03257504543 46.803729443452035 # Ar
729 729 1 0.0 375.8422677576524 487.01069238655094 235.56975560338168 # Ar
730 730 1 0.0 179.501046768629 419.1075590713932 111.39696321918615 # Ar
731 731 1 0.0 278.7871555293131 345.0117014882525 492.3358265246801 # Ar
732 732 1 0.0 266.9508596358706 512.8760952461947 228.61697479995271 # Ar
733 733 1 0.0 156.31068015985656 77.03798118784371 104.90709313887321 # Ar
734 734 1 0.0 88.41297528861584 499.5285997483547 127.46787995111755 # Ar
735 735 1 0.0 80.80838253237398 448.31731748686394 175.39606537829997 # Ar
736 736 1 0.0 86.83908650551811 356.048744638056 302.8340786312252 # Ar
737 737 1 0.0 70.25879948538466 355.8875248751981 72.20956438684748 # Ar
738 738 1 0.0 466.31760669014824 110.76485083128226 236.28368702568662 # Ar
739 739 1 0.0 159.44104751943385 80.01582466148932 69.36833188109026 # Ar
740 740 1 0.0 392.04137378246253 18.606826221566994 304.7922510717868 # Ar
741 741 1 0.0 153.82313972569852 503.47271082063895 35.79503895642168 # Ar
742 742 1 0.0 230.5496767347177 353.1405357980959 431.65241091912185 # Ar
743 743 1 0.0 29.12012985246586 513.0432453381233 313.2858430300675 # Ar
744 744 1 0.0 8.610853096189668 271.52982899831346 259.1239733269873 # Ar
745 745 1 0.0 145.44908488257315 172.75811134632625 313.9532386961959 # Ar
746 746 1 0.0 177.88705892632828 44.121115818474145 379.189836992977 # Ar
747 747 1 0.0 30.434389495385158 481.7678593945952 494.54037506207214 # Ar
748 748 1 0.0 89.79220822776186 514.425709165183 191.7911251478748 # Ar
749 749 1 0.0 273.1678933878655 381.2265587274606 325.33253168422397 # Ar
750 750 1 0.0 487.40315538696717 455.37136482817004 315.2991032529056 # Ar
751 751 1 0.0 81.00096574220393 432.5852050153391 368.4221826530334 # Ar
752 752 1 0.0 416.08124277932814 471.6361965772415 170.09255361533047 # Ar
753 753 1 0.0 52.593614770142295 182.66207070416132 98.24719322643433 # Ar
754 754 1 0.0 450.98648345071643 195.3511784844496 508.40558313121636 # Ar
755 755 1 0.0 50.61565694236137 61.23357132433592 505.3094944928227 # Ar
756 756 1 0.0 146.43563748325664 437.025713885106 429.06797360818956 # Ar
757 757 1 0.0 80.66118023522091 470.09207957655155 322.44492039557565 # Ar
758 758 1 0.0 219.69896658168054 483.30350141014804 314.5110046495112 # Ar
759 759 1 0.0 50.02997421700496 17.437010006730116 441.51566764537887 # Ar
760 760 1 0.0 10.241982022452834 366.43981250478805 472.3593563114937 # Ar
761 761 1 0.0 33.28752182362536 388.634054153369 434.9175527912358 # Ar
762 762 1 0.0 82.1007136333592 458.6180821622819 480.62939277903934 # Ar
763 763 1 0.0 407.5450657121717 310.56731820551244 264.8788009081086 # Ar
764 764 1 0.0 251.39142048630472 467.4639700262625 478.472355546022 # Ar
765 765 1 0.0 502.5360866114112 323.09896653050686 474.2476144171602 # Ar
766 766 1 0.0 503.91011631928717 140.0814123509093 184.4425650652485 # Ar
767 767 1 0.0 418.81464719060995 380.38352943138074 318.3605395205325 # Ar
768 768 1 0.0 94.84317998422812 339.2554661068722 18.51772927991599 # Ar
769 769 1 0.0 263.13083697439447 321.14753826410515 161.2171285929386 # Ar
770 770 1 0.0 141.45787454511563 514.4646314870275 437.27816040845954 # Ar
771 771 1 0.0 238.6306265073045 386.0869523166123 456.17822570212945 # Ar
772 772 1 0.0 190.76533262938284 441.1462848272415 352.59741650793654 # Ar
773 773 1 0.0 13.933623373720113 177.2441532063455 174.22579912352987 # Ar
774 774 1 0.0 199.70250364641493 102.30387477178132 415.62089096555627 # Ar
775 775 1 0.0 155.53337129962253 507.70461642175883 279.66325878741753 # Ar
776 776 1 0.0 327.7294919131331 106.62205880405365 235.18082810461445 # Ar
777 777 1 0.0 417.8856076872463 403.42410172244513 445.26755849289964 # Ar
778 778 1 0.0 334.82362272427645 330.9778794698671 501.8186377675615 # Ar
779 779 1 0.0 342.5669777590473 192.74717703842214 358.88840945171535 # Ar
780 780 1 0.0 277.4868654039952 68.99024138571046 425.70680579457536 # Ar
781 781 1 0.0 50.14282898502219 431.88379735795377 479.5581446020655 # Ar
782 782 1 0.0 63.57411882682837 497.3334035595618 425.1914933429838 # Ar
783 783 1 0.0 494.067957991623 5.8506702786423475 47.44890574977533 # Ar
784 784 1 0.0 176.31959361445504 381.6093070061093 11.99991729973831 # Ar
785 785 1 0.0 345.9125764930416 418.54049193665196 206.9006219255753 # Ar
786 786 1 0.0 205.30734449196265 375.2837143194455 69.13479130115704 # Ar
787 787 1 0.0 164.1222815974841 355.7845406484042 151.25730841744232 # Ar
788 788 1 0.0 489.699594627162 509.0209983812882 222.9042634771787 # Ar
789 789 1 0.0 340.52065666651447 82.72729885796637 322.4302654818434 # Ar
790 790 1 0.0 458.5237309209711 183.4650788225201 90.24897258625909 # Ar
791 791 1 0.0 91.04279548647247 294.14055898961584 248.59250382924523 # Ar
792 792 1 0.0 457.5007495457064 80.2910021793711 191.2900920375587 # Ar
793 793 1 0.0 176.97929890270095 457.1093094748689 154.16085880907292 # Ar
794 794 1 0.0 257.07452313691016 311.9222756148419 32.711872703299036 # Ar
795 795 1 0.0 214.60088580746896 456.3281797976826 149.0296904315772 # Ar
796 796 1 0.0 174.7701939695486 44.23912711424958 513.3519914457929 # Ar
797 797 1 0.0 162.09947404439114 165.37828155001083 206.1324862891214 # Ar
798 798 1 0.0 252.32017789626707 308.9148777146162 224.88525219438162 # Ar
799 799 1 0.0 160.43556930521976 181.79776089913167 22.313757718731754 # Ar
800 800 1 0.0 476.7976417207526 110.92365503809944 115.92428754999118 # Ar
801 801 1 0.0 196.3308117614015 113.61018971857858 176.9576371483373 # Ar
802 802 1 0.0 495.9290259417526 250.74341884302888 398.0589166478959 # Ar
803 803 1 0.0 500.35514938444896 31.110530291230898 376.3627516569031 # Ar
804 804 1 0.0 150.02821511687222 299.7548159611787 499.03539855969524 # Ar
805 805 1 0.0 288.87004291363746 219.57117732429907 40.91913404142507 # Ar
806 806 1 0.0 281.00931868115345 514.3561938533517 15.475991949250846 # Ar
807 807 1 0.0 296.7578045128896 357.8578561858878 420.3955285645393 # Ar
808 808 1 0.0 56.691296248583285 250.82042729845324 509.43986040517194 # Ar
809 809 1 0.0 148.46097897957927 151.20705128130083 445.40030105715203 # Ar
810 810 1 0.0 54.412895774900925 395.6827081459808 134.8310882045066 # Ar
811 811 1 0.0 193.90831944259418 236.96647445371437 393.7932607540862 # Ar
812 812 1 0.0 126.66607517894967 93.33363432225075 435.1035942050222 # Ar
813 813 1 0.0 38.78050563936452 192.35609315353543 192.1493805486957 # Ar
814 814 1 0.0 106.93738997069579 176.62740379399338 326.4169509888253 # Ar
815 815 1 0.0 494.23640188611296 462.6563845595804 388.771562574449 # Ar
816 816 1 0.0 242.04475304436292 169.01708891718357 165.97243374757056 # Ar
817 817 1 0.0 437.2776986849313 84.62670425368431 421.64489026993095 # Ar
818 818 1 0.0 290.7438288059102 113.07924497468099 307.8037835742615 # Ar
819 819 1 0.0 365.24223551737975 407.6820818473903 275.39207135447253 # Ar
820 820 1 0.0 83.19469205099716 252.077094480871 397.0883453366148 # Ar
821 821 1 0.0 406.5907338418177 385.3593293808129 366.79546879742475 # Ar
822 822 1 0.0 74.87934023971522 318.94928046859206 2.6168120463378814 # Ar
823 823 1 0.0 226.96278496977968 52.21270942730483 443.93837212678983 # Ar
824 824 1 0.0 38.1645215066122 325.94960853235375 37.30712280661062 # Ar
825 825 1 0.0 16.798036351248538 400.1904309756865 322.18107082051847 # Ar
826 826 1 0.0 386.4625793497831 244.84521965626345 135.05948259440333 # Ar
827 827 1 0.0 460.28513638478665 291.940513961871 228.9299997477713 # Ar
828 828 1 0.0 257.6214577068338 454.511918124646 104.33062728749826 # Ar
829 829 1 0.0 454.2508654530129 213.89027785058136 307.16108715945217 # Ar
830 830 1 0.0 71.35441872028339 242.9571750554332 153.58356035706547 # Ar
831 831 1 0.0 194.51070718696718 300.09191057255606 89.8803174676796 # Ar
832 832 1 0.0 66.00224455307973 419.17277551890857 120.17978218734287 # Ar
833 833 1 0.0 19.274197153506158 326.36179560198735 363.68495371297115 # Ar
834 834 1 0.0 248.21424150281698 35.014548278512905 250.6738514218306 # Ar
835 835 1 0.0 420.10670441038656 432.3145805436141 182.69103214025088 # Ar
836 836 1 0.0 199.42385085933444 481.70340678141207 410.3001829215599 # Ar
837 837 1 0.0 102.88689330362783 305.9177962620678 47.13362759162937 # Ar
838 838 1 0.0 471.6651223835741 320.2080067052696 448.40180782722877 # Ar
839 839 1 0.0 64.54353592220001 104.53742174583006 104.97251592202191 # Ar
840 840 1 0.0 281.6176804673801 138.2235289917775 166.37839172931552 # Ar
841 841 1 0.0 157.26295238653435 5.688556119201259 93.2044353265098 # Ar
842 842 1 0.0 112.7950291434152 472.3219812458671 22.08691039828842 # Ar
843 843 1 0.0 514.5474621853741 130.93059706113493 438.2307711497992 # Ar
844 844 1 0.0 80.82997256508487 242.3941540217524 236.45402280376643 # Ar
845 845 1 0.0 348.96322981875454 38.16907572914458 408.4968398665949 # Ar
846 846 1 0.0 32.7076226504243 413.52022395038665 473.9323553494216 # Ar
847 847 1 0.0 357.7179720020359 267.05427851373264 390.597983808696 # Ar
848 848 1 0.0 379.62257225991533 10.55382054000752 489.98934000592 # Ar
849 849 1 0.0 247.54667714894595 395.7444785312656 213.61295560981316 # Ar
850 850 1 0.0 328.34351005625484 195.52038614687814 45.81251026105891 # Ar
851 851 1 0.0 98.40593024774411 204.6606851888538 183.98955778637932 # Ar
852 852 1 0.0 266.21594656752313 238.92249363942184 239.93184301332087 # Ar
853 853 1 0.0 414.601613651795 217.59629317723412 358.7283216624467 # Ar
854 854 1 0.0 91.43721467370655 187.53614398265424 483.6596599351212 # Ar
855 855 1 0.0 483.9659980095883 24.526431366002303 142.1888930687768 # Ar
856 856 1 0.0 404.55835546287267 477.80923332554386 154.61293134664064 # Ar
857 857 1 0.0 111.77121888133574 361.24214313025095 361.7232606413257 # Ar
858 858 1 0.0 195.63818342918145 487.3862359834638 466.68344635369954 # Ar
859 859 1 0.0 314.2090278768115 237.12463093464936 166.38661850830223 # Ar
860 860 1 0.0 431.70528954729065 493.4568744793943 95.90035571963386 # Ar
861 861 1 0.0 70.07066438761387 217.12974730253825 461.00292347836313 # Ar
862 862 1 0.0 476.42420655983574 39.76782206944798 443.01986420007694 # Ar
863 863 1 0.0 357.4178886813758 254.56761824775327 217.5247695486211 # Ar
864 864 1 0.0 78.03608192982003 24.654330206497505 226.7400610232036 # Ar
865 865 1 0.0 484.1306657558416 355.30311690332144 84.26706231785607 # Ar
866 866 1 0.0 50.901369979899144 444.10189162601284 277.53546580055695 # Ar
867 867 1 0.0 145.55275096631763 462.07652120132167 345.23120280641837 # Ar
868 868 1 0.0 189.67974955586283 266.1982002698086 30.686447138082887 # Ar
869 869 1 0.0 151.33640275254692 155.59259167642819 155.95106996956466 # Ar
870 870 1 0.0 224.04372458448617 45.16156756963186 119.05552456571812 # Ar
871 871 1 0.0 46.3387957112416 378.3268528730512 97.32767104786633 # Ar
872 872 1 0.0 365.615673081504 188.2166216565455 86.24581259484076 # Ar
873 873 1 0.0 171.97239260444593 146.14778674092742 264.0434619170138 # Ar
874 874 1 0.0 487.29098664133903 407.13794631822293 173.9683590384445 # Ar
875 875 1 0.0 323.08311359848483 87.50848706717639 3.3463159851530015 # Ar
876 876 1 0.0 435.5325272012415 45.57157463012697 510.5650576808261 # Ar
877 877 1 0.0 17.983684221348774 427.4428310986177 290.5244603696366 # Ar
878 878 1 0.0 429.9239166784108 2.382804034853362 381.8358705946489 # Ar
879 879 1 0.0 262.64562407363627 195.19609536868913 104.22393029119955 # Ar
880 880 1 0.0 481.37924915989566 63.73574718106041 240.668529426806 # Ar
881 881 1 0.0 21.11714140528403 19.73476620861528 69.58709441935295 # Ar
882 882 1 0.0 381.85219907117244 345.2957680519561 327.38060960398826 # Ar
883 883 1 0.0 325.9367045818654 223.59305340450365 94.98463390074053 # Ar
884 884 1 0.0 176.67631843343682 416.97878447487943 180.36856424656992 # Ar
885 885 1 0.0 166.86863026005406 311.7233295490747 247.25805261248988 # Ar
886 886 1 0.0 380.68175718208676 287.2504634760292 429.0838599089403 # Ar
887 887 1 0.0 180.91155185515728 93.41113466011122 373.97377318863465 # Ar
888 888 1 0.0 98.9841035098437 353.1429392505689 479.2306651834423 # Ar
889 889 1 0.0 259.9862507998572 132.07180110395586 499.86740249200585 # Ar
890 890 1 0.0 165.2363573599211 369.1921072763144 174.21641994287307 # Ar
891 891 1 0.0 42.8082261483381 497.11801295666237 379.18618517903775 # Ar
892 892 1 0.0 434.15693054263465 313.45622060143836 224.39430253561025 # Ar
893 893 1 0.0 164.76436030648006 478.4304154107159 486.28279821363276 # Ar
894 894 1 0.0 0.047815656185393816 184.8135204445901 188.6871427614989 # Ar
895 895 1 0.0 23.25335186301984 206.38691240456728 33.346036186410224 # Ar
896 896 1 0.0 179.7617196418986 420.3422764542898 328.2695727645996 # Ar
897 897 1 0.0 297.8733177106841 276.55333859470096 362.89242224315376 # Ar
898 898 1 0.0 374.1042253138558 94.83305435246201 105.05973259834093 # Ar
899 899 1 0.0 313.04220202087373 177.83066722549339 513.9906012410164 # Ar
900 900 1 0.0 103.81593267931521 354.81514530914416 50.24079707364489 # Ar
901 901 1 0.0 167.31603418055138 136.635835557479 481.76146263521815 # Ar
902 902 1 0.0 7.734211093969866 265.8593741507885 409.94890481583263 # Ar
903 903 1 0.0 24.539362691759422 170.9543520216751 121.12857466937268 # Ar
904 904 1 0.0 184.27168426419507 200.01657722002133 375.65462003142517 # Ar
905 905 1 0.0 244.46236313466758 125.1098412763074 404.67940301004205 # Ar
906 906 1 0.0 88.51389191832617 214.91208512501012 57.33078285840151 # Ar
907 907 1 0.0 510.10447273450154 324.322928890113 334.6363916039192 # Ar
908 908 1 0.0 448.80424592774494 222.4620842998558 213.48110228494133 # Ar
909 909 1 0.0 116.79838321694885 97.98365989501164 88.26483240489232 # Ar
910 910 1 0.0 247.5846442474105 387.3855090131309 482.17111388478475 # Ar
911 911 1 0.0 41.15897293748632 264.43868935582947 88.87637677903348 # Ar
912 912 1 0.0 17.02569371456748 432.09346805864476 74.6044321932372 # Ar
913 913 1 0.0 406.1757458292172 221.48897301951865 390.25835146612883 # Ar
914 914 1 0.0 264.9246271253297 46.875952342912676 200.81114644389217 # Ar
915 915 1 0.0 391.7416323526405 371.57202279911274 319.47665424977436 # Ar
916 916 1 0.0 122.4946575087994 17.05807876081727 281.6709536589707 # Ar
917 917 1 0.0 32.388205537565206 363.92178649577625 138.20790967188182 # Ar
918 918 1 0.0 512.3369627283473 296.9991464434935 488.83187897650885 # Ar
919 919 1 0.0 314.871060330328 260.776240230045 193.87732340565486 # Ar
920 920 1 0.0 80.32696568537294 480.65904865145467 248.09344298512133 # Ar
921 921 1 0.0 358.555108529169 20.591837781075064 469.78998805835704 # Ar
922 922 1 0.0 475.29200307499406 169.428700419433 52.46760766681227 # Ar
923 923 1 0.0 109.90369261942395 62.6111714887878 71.44237054356799 # Ar
924 924 1 0.0 75.04576170644617 394.848926093071 364.687199607738 # Ar
925 925 1 0.0 190.10289532740825 314.93332531753765 504.90742768962207 # Ar
926 926 1 0.0 389.3744898955729 30.31552868056905 513.5964941887823 # Ar
927 927 1 0.0 357.0152435440865 118.7940171073629 37.30652818207652 # Ar
928 928 1 0.0 217.65895848849743 361.64918278888655 240.9664086391466 # Ar
929 929 1 0.0 373.9102829332848 459.02653660810324 427.8534839789573 # Ar
930 930 1 0.0 49.910457341401425 504.7262545825449 411.0523496846798 # Ar
931 931 1 0.0 141.92353983586452 321.08717394079713 449.6384432491306 # Ar
932 932 1 0.0 173.5226776556334 336.04865983211965 237.87558358241586 # Ar
933 933 1 0.0 512.9413999665417 94.47363943416461 446.7237325576679 # Ar
934 934 1 0.0 254.4186179217169 434.00295587496015 80.69014671171873 # Ar
935 935 1 0.0 444.75415791166614 179.6952743500671 284.4788266997853 # Ar
936 936 1 0.0 387.3708144414182 103.27303046992671 486.4710776861914 # Ar
937 937 1 0.0 383.3061126433581 231.4368673811788 396.11627832319846 # Ar
938 938 1 0.0 448.47008513969746 58.253599661853265 174.99412599252946 # Ar
939 939 1 0.0 506.2040112337784 7.962527506768048 68.813275181836 # Ar
940 940 1 0.0 387.04045555483356 337.34767004152036 141.33647135426924 # Ar
941 941 1 0.0 106.696751915272 146.1823745377122 106.21396238399178 # Ar
942 942 1 0.0 240.25479118365956 131.87280008819775 121.33782414931763 # Ar
943 943 1 0.0 326.9900110490363 356.54346304494857 336.58782539463925 # Ar
944 944 1 0.0 283.27255076094343 19.627144136253854 352.97384795643904 # Ar
945 945 1 0.0 111.60012991968179 310.6194513672775 234.06715057817735 # Ar
946 946 1 0.0 334.77029322510805 301.6816590601787 364.3793148727547 # Ar
947 947 1 0.0 217.12477231459746 396.65641707181214 402.50442205882825 # Ar
948 948 1 0.0 191.03119438537306 1.2385358625259855 238.51577841305715 # Ar
949 949 1 0.0 250.04111820940082 349.0123012686395 87.55115412688342 # Ar
950 950 1 0.0 53.16237764449193 463.09874995468795 312.3286613293642 # Ar
951 951 1 0.0 371.274813538278 154.7004043137115 419.74558707625437 # Ar
952 952 1 0.0 328.45446507714934 164.23847858375075 149.9638312598475 # Ar
953 953 1 0.0 456.87237670812397 343.22042374434284 108.80768739363941 # Ar
954 954 1 0.0 248.63001443390954 17.600012635742438 2.7933833083804442 # Ar
955 955 1 0.0 350.50752161496854 140.78005901488066 396.19792411996025 # Ar
956 956 1 0.0 458.93210586104965 474.460513816486 135.1536412526525 # Ar
957 957 1 0.0 220.19719178664968 310.0262130553949 298.69207061709744 # Ar
958 958 1 0.0 441.6021247559527 417.163518584926 244.75634332528426 # Ar
959 959 1 0.0 447.3800244393942 160.44294754529233 401.31910186105574 # Ar
960 960 1 0.0 313.437366927403 54.44630485859273 326.4397591651615 # Ar
961 961 1 0.0 318.30751159658394 351.45756437706655 25.087678412303653 # Ar
962 962 1 0.0 492.5973469255004 9.65586371007492 6.9952348951082515 # Ar
963 963 1 0.0 120.23554109465695 415.28893655112046 420.27413168263337 # Ar
964 964 1 0.0 101.25639292313518 97.7396871176434 234.03190524350202 # Ar
965 965 1 0.0 132.18860896580549 417.56654263973365 55.49827003650642 # Ar
966 966 1 0.0 316.89599162473684 287.3343493985366 47.99702835832129 # Ar
967 967 1 0.0 403.6870408323768 43.874871315793065 155.5364524492402 # Ar
968 968 1 0.0 356.50859867629754 208.37422862262892 506.1424748841845 # Ar
969 969 1 0.0 358.7237485266053 200.3624355611134 311.0629424887813 # Ar
970 970 1 0.0 454.16725074199564 387.8642893007529 112.9935815785584 # Ar
971 971 1 0.0 13.834389877001986 395.3690841977239 202.09124873658556 # Ar
972 972 1 0.0 372.06601087995335 307.5519374260353 236.2461953094401 # Ar
973 973 1 0.0 357.7662391935549 416.094470529799 340.2276535664562 # Ar
974 974 1 0.0 61.58982884619256 9.13127104322031 27.634630714679812 # Ar
975 975 1 0.0 173.0710405951537 478.56188492816455 236.41593357368828 # Ar
976 976 1 0.0 11.966525306765153 98.76004846818797 11.432975967313475 # Ar
977 977 1 0.0 398.7011544089963 69.49236236166821 130.58895137926817 # Ar
978 978 1 0.0 90.24919662592099 116.0517085855544 132.79416336751 # Ar
979 979 1 0.0 432.98583939908787 108.0685577067895 262.04375142367485 # Ar
980 980 1 0.0 128.28095779671054 135.1798591739049 78.44756629958856 # Ar
981 981 1 0.0 14.852918117160485 310.69860173562523 262.6165325574054 # Ar
982 982 1 0.0 121.51211436731015 313.42069883120513 279.7052746510627 # Ar
983 983 1 0.0 33.215018448914314 132.80342791859317 448.98189268690106 # Ar
984 984 1 0.0 5.37613031848557 7.737782418971529 294.7718319962623 # Ar
985 985 1 0.0 388.4018014412112 419.276988293859 96.15268561952477 # Ar
986 986 1 0.0 56.91784070675049 269.1915448418132 416.4665025283628 # Ar
987 987 1 0.0 126.59595438765307 282.6801306197961 36.21963286888346 # Ar
988 988 1 0.0 64.32848439360284 297.1548000154071 274.56664486919595 # Ar
989 989 1 0.0 437.89823970481956 368.53403507408126 282.3768081439525 # Ar
990 990 1 0.0 335.01096178942623 71.88519457339493 127.39390852656638 # Ar
991 991 1 0.0 173.19981690612042 495.1462508516523 249.72624727992897 # Ar
992 992 1 0.0 250.56537886020877 90.25833304355258 182.36924000328779 # Ar
993 993 1 0.0 161.85804752723874 379.9945472086029 270.152762914368 # Ar
994 994 1 0.0 54.55256015706336 435.61280546986956 57.853062020808274 # Ar
995 995 1 0.0 328.9166229967637 8.998847721864438 437.0919956317881 # Ar
996 996 1 0.0 131.82261723466115 64.23252292396285 245.35029505283427 # Ar
997 997 1 0.0 170.28817247301598 191.82457903575587 437.22380577682594 # Ar
998 998 1 0.0 178.6092911041243 373.71728340718914 68.97625550373434 # Ar
999 999 1 0.0 304.1903233111937 78.34817488910087 310.2687424754964 # Ar
1000 1000 1 0.0 382.27715235757233 66.13476416182252 244.96192958768842 # Ar
1001 1001 1 0.0 491.3102895473483 168.02873828790803 158.74870375598877 # Ar
1002 1002 1 0.0 208.86903717692164 22.62692313690251 208.33484004545898 # Ar
1003 1003 1 0.0 507.55026585177467 387.4817352689091 373.24116518656024 # Ar
1004 1004 1 0.0 76.65868246513426 179.9879272902529 45.71633984253673 # Ar
1005 1005 1 0.0 356.43902761642454 227.1469441852005 113.36664479021596 # Ar
1006 1006 1 0.0 474.3448100985308 59.162437915216486 79.02325844838055 # Ar
1007 1007 1 0.0 121.29591188474687 158.70108736960617 420.9364614572212 # Ar
1008 1008 1 0.0 114.85273210588024 23.783625534331986 243.9143352319058 # Ar
1009 1009 1 0.0 207.7554894836488 254.21996671595244 100.70477870766314 # Ar
1010 1010 1 0.0 447.56206287334436 268.53096364029045 60.96116399568764 # Ar
1011 1011 1 0.0 296.9299903563177 200.62221703130288 150.56358463352856 # Ar
1012 1012 1 0.0 34.472670075489305 51.332890931276395 416.76203485991266 # Ar
1013 1013 1 0.0 16.37424346062467 419.3119903427147 192.9730463714261 # Ar
1014 1014 1 0.0 494.43686268834864 33.20946038572587 189.8295462508238 # Ar
1015 1015 1 0.0 482.7593530991992 302.0041729883766 446.48882007638264 # Ar
1016 1016 1 0.0 76.67889181397275 514.2593811930085 325.10458211462395 # Ar
1017 1017 1 0.0 96.74342532008606 111.76123500036176 503.7289794199896 # Ar
1018 1018 1 0.0 232.3767642596587 248.98937903503938 466.30926945822375 # Ar
1019 1019 1 0.0 62.88653773522736 171.05706201331287 409.75523363014054 # Ar
1020 1020 1 0.0 184.86193472089806 260.4117423963361 233.48636559226125 # Ar
1021 1021 1 0.0 478.9263663676624 461.702277617217 390.42458998179944 # Ar
1022 1022 1 0.0 387.37272768025 472.95660242013395 116.7370669660292 # Ar
1023 1023 1 0.0 246.48329819808077 430.1871767271945 431.5224321506868 # Ar
1024 1024 1 0.0 241.1801865204593 213.49727862100036 388.8487498448459 # Ar
1025 1025 1 0.0 217.97569972076948 191.49437108686215 272.2243395632098 # Ar
1026 1026 1 0.0 63.68272787540927 18.203194810312407 220.70540723188668 # Ar
1027 1027 1 0.0 17.499646846088485 427.03186387618734 81.17880574129329 # Ar
1028 1028 1 0.0 118.03009242405089 107.37346172423497 171.71712305317212 # Ar
1029 1029 1 0.0 29.906702667079475 179.51027479292165 203.99412237225454 # Ar
1030 1030 1 0.0 351.7865425513693 379.87172385834606 269.3009663106797 # Ar
1031 1031 1 0.0 487.55675775165804 125.39153140092522 103.72946205620838 # Ar
1032 1032 1 0.0 505.99762906864163 32.02835573350466 155.10570427618356 # Ar
1033 1033 1 0.0 361.8610680980921 202.59550257662565 89.63421410038906 # Ar
1034 1034 1 0.0 431.5067893565225 334.81230119085285 188.27490847054875 # Ar
1035 1035 1 0.0 101.88180804451169 437.5208743082677 491.6756938131282 # Ar
1036 1036 1 0.0 262.7848975928081 369.3197533800575 510.3435835412381 # Ar
1037 1037 1 0.0 113.63608659373861 177.6300537553261 106.03192880558784 # Ar
1038 1038 1 0.0 448.3118367359488 203.73349673674437 463.7191339405942 # Ar
1039 1039 1 0.0 232.01744990204685 21.575637862480068 49.64109410973058 # Ar
1040 1040 1 0.0 32.003308859463296 111.74500276334639 439.0901913778844 # Ar
1041 1041 1 0.0 339.3166173251418 173.5486869595882 383.84049345827805 # Ar
1042 1042 1 0.0 368.6234203611873 460.6925169411214 3.614177853709646 # Ar
1043 1043 1 0.0 0.48908774306994035 178.43040847092104 490.0208516654422 # Ar
1044 1044 1 0.0 472.9726603095391 209.41311466696948 108.41171275455966 # Ar
1045 1045 1 0.0 23.560356393171624 8.248432814448012 459.84010415281153 # Ar
1046 1046 1 0.0 84.48765334415071 222.7770284535198 162.52657068730366 # Ar
1047 1047 1 0.0 182.14676382248223 312.0855664061758 89.9459926147955 # Ar
1048 1048 1 0.0 43.17665353465793 491.28210425872174 144.7789924459061 # Ar
1049 1049 1 0.0 353.0548028860482 102.09179122110305 149.65093006134447 # Ar
1050 1050 1 0.0 55.08015177007906 268.18981957574726 465.3988766929372 # Ar
1051 1051 1 0.0 305.7152691683754 274.1814498710669 376.3594248852526 # Ar
1052 1052 1 0.0 44.16283244188568 474.35735768352276 81.28825264972745 # Ar
1053 1053 1 0.0 88.50884547668151 379.52869682533094 53.09521669732628 # Ar
1054 1054 1 0.0 78.65387504003964 397.5133699764045 100.99156859163354 # Ar
1055 1055 1 0.0 8.081830769224826 19.391821566870114 433.5676804364859 # Ar
1056 1056 1 0.0 327.41554576707756 14.962472508041355 126.67786101274038 # Ar
1057 1057 1 0.0 482.48697757466897 181.16345521464967 113.33530970657118 # Ar
1058 1058 1 0.0 39.74410032795988 413.6759069968775 191.21240845242883 # Ar
1059 1059 1 0.0 157.9299430345721 505.4763129589807 92.9137421969641 # Ar
1060 1060 1 0.0 277.83329696662094 268.2233557883908 115.64322306167682 # Ar
1061 1061 1 0.0 357.63239113693146 17.682163046117736 44.94984958168955 # Ar
1062 1062 1 0.0 471.54565860192247 155.6073383363681 284.80415301263025 # Ar
1063 1063 1 0.0 418.53086928366463 414.2986948659469 232.7448999637574 # Ar
1064 1064 1 0.0 28.625562692085467 174.21381608802295 477.00889197261415 # Ar
1065 1065 1 0.0 454.10332035012675 113.88765097624227 162.2569455103702 # Ar
1066 1066 1 0.0 147.07305079832713 358.3483478534086 403.9996589487955 # Ar
1067 1067 1 0.0 208.8904904857793 225.12462073764607 19.64523575593332 # Ar
1068 1068 1 0.0 8.616313498935446 484.604570543565 112.01998142714721 # Ar
1069 1069 1 0.0 472.7596646009858 26.145447884816193 444.22606133315435 # Ar
1070 1070 1 0.0 107.41049371584943 66.3165500807896 281.6992754531291 # Ar
1071 1071 1 0.0 293.3387829363335 454.5056997102184 492.7875026654441 # Ar
1072 1072 1 0.0 212.23607149524773 197.49858307882153 457.3438904037148 # Ar
1073 1073 1 0.0 441.6121236167678 100.59135325985194 472.8082989633943 # Ar
1074 1074 1 0.0 35.56687572312021 283.7180111851282 297.1174842811499 # Ar
1075 1075 1 0.0 318.98586017166394 320.66785934472335 94.83277833166841 # Ar
1076 1076 1 0.0 295.58332707063715 305.11793616701755 353.51467060624304 # Ar
1077 1077 1 0.0 102.20073687163425 164.4495957936725 263.9623345451436 # Ar
1078 1078 1 0.0 98.4439134816531 151.35796479044532 63.84293348927955 # Ar
1079 1079 1 0.0 190.73203472765817 9.633498804720698 494.19581296134305 # Ar
1080 1080 1 0.0 394.9361893379706 38.96409713732046 267.07401792150654 # Ar
1081 1081 1 0.0 379.06445248099965 183.45134795843407 105.72010324877314 # Ar
1082 1082 1 0.0 342.59203001668567 489.2001889984126 153.37272678754897 # Ar
1083 1083 1 0.0 31.03047150294477 337.26725199229105 104.01708700642669 # Ar
1084 1084 1 0.0 58.537481519286004 76.35057621907315 43.71319464813127 # Ar
1085 1085 1 0.0 30.562531393718764 345.28141676247884 12.45230544273028 # Ar
1086 1086 1 0.0 121.64856409952719 396.20066518675003 37.590456494201035 # Ar
1087 1087 1 0.0 87.53583076093476 445.22485109664586 482.62365627271896 # Ar
1088 1088 1 0.0 116.33903197500955 112.45163923236247 511.36014434657324 # Ar
1089 1089 1 0.0 324.8262451461277 80.06807813249507 342.67623584470556 # Ar
1090 1090 1 0.0 72.26126422064954 17.3990011420562 150.07115755321024 # Ar
1091 1091 1 0.0 89.86578122848897 53.85075786747664 406.4966012133297 # Ar
1092 1092 1 0.0 299.85934886430954 257.7382354806304 287.58226977673695 # Ar
1093 1093 1 0.0 11.73378366521929 145.31948569382902 77.72443254215929 # Ar
1094 1094 1 0.0 108.16583773323069 263.4589002788456 287.2465566888512 # Ar
1095 1095 1 0.0 41.98862286386587 456.92432653570853 385.4736885533088 # Ar
1096 1096 1 0.0 416.96333340550524 72.53456591432914 437.021990697287 # Ar
1097 1097 1 0.0 50.83137793853558 25.56910339880207 415.1684707519914 # Ar
1098 1098 1 0.0 233.73371427974945 192.69878548748622 80.79902022794845 # Ar
1099 1099 1 0.0 394.37020093757985 380.9876348882417 277.6514019567218 # Ar
1100 1100 1 0.0 380.33469558651797 408.5314083697715 424.93004183932715 # Ar
1101 1101 1 0.0 240.0614553245213 142.93519884240047 36.84819468253884 # Ar
1102 1102 1 0.0 58.618781221716944 283.01379233867607 379.78557784239575 # Ar
1103 1103 1 0.0 449.7479873297686 425.07877050007266 372.75408502317003 # Ar
1104 1104 1 0.0 197.6023809161216 225.33654404839038 487.6115219158096 # Ar
1105 1105 1 0.0 116.18850677422694 88.9361779276522 312.0017722560097 # Ar
1106 1106 1 0.0 1.2460298739769744 233.0437566058331 288.3927803081217 # Ar
1107 1107 1 0.0 1.6751351740779166 120.7750853105756 5.200009096471412 # Ar
1108 1108 1 0.0 9.583442563211943 450.4139919637073 381.5560156600226 # Ar
1109 1109 1 0.0 222.50115425370558 107.47271778979982 203.6466964137632 # Ar
1110 1110 1 0.0 180.9780877064326 356.17552822534293 304.1484172719148 # Ar
1111 1111 1 0.0 461.0372768653624 254.72877789324448 178.74666096953183 # Ar
1112 1112 1 0.0 380.57598471603734 30.0510094083309 6.127632172654738 # Ar
1113 1113 1 0.0 511.5802098809867 179.70569346742948 2.5446489140714474 # Ar
1114 1114 1 0.0 66.45505384263222 14.482980869760581 358.4571895136834 # Ar
1115 1115 1 0.0 24.384073821242602 373.1768717630695 489.70251307148317 # Ar
1116 1116 1 0.0 266.1284732577327 398.73142875952385 510.45712128582676 # Ar
1117 1117 1 0.0 237.71170746123948 95.09091714581376 491.8581162140549 # Ar
1118 1118 1 0.0 161.77759183949553 245.56886221181713 71.79377566171269 # Ar
1119 1119 1 0.0 279.0028542819463 145.51519977668664 338.02326363937505 # Ar
1120 1120 1 0.0 227.34905604575556 300.221594372032 120.76350535008841 # Ar
1121 1121 1 0.0 249.91829859430828 254.72586369214866 62.33409777474623 # Ar
1122 1122 1 0.0 225.02819450065897 483.46519342637515 199.28119322237333 # Ar
1123 1123 1 0.0 474.59486045468384 454.8125705410811 333.96240347888954 # Ar
1124 1124 1 0.0 275.51549353486365 511.35137382916747 404.1226631705366 # Ar
1125 1125 1 0.0 320.70608058949733 289.56485977746183 381.8609913345716 # Ar
1126 1126 1 0.0 104.8534021306634 289.89143282288984 40.248231894396504 # Ar
1127 1127 1 0.0 84.96187326708895 157.36953489956272 304.35474617898876 # Ar
1128 1128 1 0.0 290.908024459098 292.4600444037169 378.8833820084364 # Ar
1129 1129 1 0.0 451.98547012478514 225.14983106463663 191.5680307218759 # Ar
1130 1130 1 0.0 357.86768269703464 374.948238252144 6.450509955312941 # Ar
1131 1131 1 0.0 56.12994171619946 97.81974450911525 491.11535373644375 # Ar
1132 1132 1 0.0 202.43563671102723 322.41410790789513 328.9682060778485 # Ar
1133 1133 1 0.0 18.65831171523603 58.473176672406154 168.3888394331388 # Ar
1134 1134 1 0.0 468.7183810112135 362.86805262031714 6.950784667857995 # Ar
1135 1135 1 0.0 178.50823904555344 150.71410972393477 494.2151160248713 # Ar
1136 1136 1 0.0 19.303701410239334 99.87584215768808 177.89351666942267 # Ar
1137 1137 1 0.0 345.9443747338996 388.8309946673959 212.26998103222252 # Ar
1138 1138 1 0.0 388.3068286258284 60.16507643854285 54.78017049405753 # Ar
1139 1139 1 0.0 275.29524204728534 340.434120136665 360.6662323879722 # Ar
1140 1140 1 0.0 239.66392254780064 223.10099835418893 178.67423625831134 # Ar
1141 1141 1 0.0 453.340155792724 315.69980963768575 503.496001079769 # Ar
1142 1142 1 0.0 59.2593746984281 204.73080350333422 206.31062869299402 # Ar
1143 1143 1 0.0 54.966461421730344 411.07221233536006 480.1470455093738 # Ar
1144 1144 1 0.0 314.78253704036626 406.75530813321393 184.47839014104966 # Ar
1145 1145 1 0.0 245.9775052958792 447.8917289403819 308.18289632658406 # Ar
1146 1146 1 0.0 236.36930078687794 170.54759672117416 63.906202851126984 # Ar
1147 1147 1 0.0 428.35445369782 243.3045345578115 55.23633341388582 # Ar
1148 1148 1 0.0 459.25427255799883 430.7125378772568 300.4769454495018 # Ar
1149 1149 1 0.0 283.8698602949285 33.04957774769987 149.2386495585939 # Ar
1150 1150 1 0.0 48.85494447984442 96.35892056508547 273.27666757239354 # Ar
1151 1151 1 0.0 454.3717781374329 9.827101857970414 446.1248128288291 # Ar
1152 1152 1 0.0 441.11595913995137 372.929333832874 171.41562049292088 # Ar
1153 1153 1 0.0 50.99313534743221 259.1571507157122 22.01889525765171 # Ar
1154 1154 1 0.0 392.20289862654124 223.36176244223404 52.451826883675004 # Ar
1155 1155 1 0.0 315.7104082007733 416.66361534476226 510.6284413302119 # Ar
1156 1156 1 0.0 465.6743321172452 227.394077315047 367.7785717722836 # Ar
1157 1157 1 0.0 346.4738418163566 96.21891894099205 385.00350922540014 # Ar
1158 1158 1 0.0 246.69916852885055 286.77774280644684 118.04044354679249 # Ar
1159 1159 1 0.0 500.0038336642077 245.55882457450653 167.03688271061998 # Ar
1160 1160 1 0.0 65.00393072127282 410.9033334673124 240.9287476728644 # Ar
1161 1161 1 0.0 286.81953536505864 176.7578464464907 137.00988643693972 # Ar
1162 1162 1 0.0 460.2558078258719 170.8066602899747 488.01902803500184 # Ar
1163 1163 1 0.0 489.01301603035114 252.7702087834853 91.85941824421117 # Ar
1164 1164 1 0.0 39.05028197821182 371.89609318587884 126.80528734915268 # Ar
1165 1165 1 0.0 407.3722867834687 183.8746107644646 308.58794775636136 # Ar
1166 1166 1 0.0 208.75554434958406 73.43358946390387 93.39150114599113 # Ar
1167 1167 1 0.0 40.93388703945658 480.8956586280171 214.78209862210727 # Ar
1168 1168 1 0.0 329.81565456582 93.99052063754104 4.41333894678279 # Ar
1169 1169 1 0.0 294.50651196873224 332.99373104619133 415.4556662763626 # Ar
1170 1170 1 0.0 107.03710260498501 212.92162088710387 470.6622511401158 # Ar
1171 1171 1 0.0 267.9815615183162 185.69288021174714 402.7094164131679 # Ar
1172 1172 1 0.0 457.36502439756237 442.68268473015087 30.459556755044026 # Ar
1173 1173 1 0.0 483.24878853125153 469.1055014617228 134.4513537119603 # Ar
1174 1174 1 0.0 51.89716338940088 439.1858958811475 73.57990531609993 # Ar
1175 1175 1 0.0 31.42339539290741 43.16730878071335 287.23416070676296 # Ar
1176 1176 1 0.0 156.07020448867218 281.0227419831468 365.53583538582166 # Ar
1177 1177 1 0.0 433.2615731370221 472.1304593824135 367.21307254876126 # Ar
1178 1178 1 0.0 409.6476704274514 158.3734424265897 211.55623637422377 # Ar
1179 1179 1 0.0 480.6857686492908 209.33814373768988 310.57510620161275 # Ar
1180 1180 1 0.0 358.24913505572994 357.83604180906605 135.02254972160478 # Ar
1181 1181 1 0.0 150.44120845156328 133.5459608678023 284.9511033951156 # Ar
1182 1182 1 0.0 37.945548106423594 19.292435168763454 149.0115235323522 # Ar
1183 1183 1 0.0 351.1238276139565 363.5927531865916 261.86257092891435 # Ar
1184 1184 1 0.0 446.20811769386677 364.83759844556 99.0580514888194 # Ar
1185 1185 1 0.0 106.37707357918173 42.74184293735895 403.7645866049905 # Ar
1186 1186 1 0.0 254.43346959047255 485.19225385963324 405.3370804349597 # Ar
1187 1187 1 0.0 137.9333114270962 435.94655500731716 471.93989365660315 # Ar
1188 1188 1 0.0 458.06185345440866 322.80896263698577 99.63181515658282 # Ar
1189 1189 1 0.0 187.28510423128392 508.44620246851156 258.71274494074345 # Ar
1190 1190 1 0.0 97.44818619991216 269.75850432923716 250.7953932585823 # Ar
1191 1191 1 0.0 426.53526635059154 464.27794315780676 9.051230158281792 # Ar
1192 1192 1 0.0 206.73536529985054 438.1586464202467 181.04945731952884 # Ar
1193 1193 1 0.0 374.98922258060605 192.95372112754316 25.641519051947526 # Ar
1194 1194 1 0.0 478.93578071174545 325.07730120545295 296.2878521490553 # Ar
1195 1195 1 0.0 95.25262890734618 460.01575285236186 240.50793149172125 # Ar
1196 1196 1 0.0 4.235218105986227 481.548546858054 163.69156594371913 # Ar
1197 1197 1 0.0 78.82017417402102 375.96342641514815 263.9511970616718 # Ar
1198 1198 1 0.0 97.62508221643328 153.6445333453494 270.6473014316076 # Ar
1199 1199 1 0.0 91.07327541466671 359.7140524407473 104.41521037092276 # Ar
1200 1200 1 0.0 333.95937095740976 170.99259050629323 164.50624174662346 # Ar
1201 1201 1 0.0 439.99132446324535 254.73632204072578 506.79064674377406 # Ar
1202 1202 1 0.0 251.55781595889877 240.30544058995895 239.2478216926174 # Ar
1203 1203 1 0.0 297.8770975708503 339.91274400604755 54.87972636327681 # Ar
1204 1204 1 0.0 303.4364670338243 289.69478625753123 357.2678491043658 # Ar
1205 1205 1 0.0 294.2735640682974 276.2544900906808 434.85487843259546 # Ar
1206 1206 1 0.0 291.53861543616136 0.828055716330611 256.081849566294 # Ar
1207 1207 1 0.0 224.94026238520559 230.2990639677901 206.36056210499626 # Ar
1208 1208 1 0.0 472.4338227825774 367.2587510692507 241.6234869527952 # Ar
1209 1209 1 0.0 12.599009381716984 64.61868161437904 376.0957881739664 # Ar
1210 1210 1 0.0 277.0942982716494 92.70811033735913 338.0832936350367 # Ar
1211 1211 1 0.0 404.908524786685 220.31175099237416 7.285977394351494 # Ar
1212 1212 1 0.0 3.0826606204330016 5.435987382898476 457.7905207643673 # Ar
1213 1213 1 0.0 7.090850650009015 161.49394076517407 399.9850366825568 # Ar
1214 1214 1 0.0 4.428918147878125 286.90358919588937 360.5372521581848 # Ar
1215 1215 1 0.0 111.815906061369 296.0588492473449 442.7094342589174 # Ar
1216 1216 1 0.0 314.2236761094279 4.072461865016029 90.74513727948182 # Ar
1217 1217 1 0.0 296.83654671136617 507.4034198385747 0.29097838011917 # Ar
1218 1218 1 0.0 245.7839403503909 247.36681667826528 14.141048099474022 # Ar
1219 1219 1 0.0 85.87914820603943 334.4903120764044 257.1767019428894 # Ar
1220 1220 1 0.0 167.89390938389923 442.34145913578254 118.48214873407858 # Ar
1221 1221 1 0.0 274.35675729894916 280.0294605617625 235.51364979551988 # Ar
1222 1222 1 0.0 176.81196642770533 301.24129306119846 321.5686700067543 # Ar
1223 1223 1 0.0 383.6768321642103 456.80485328339586 304.06195398948097 # Ar
1224 1224 1 0.0 55.592775247995796 105.88338179507514 325.3463222281086 # Ar
1225 1225 1 0.0 60.21025973007144 74.01090180906259 475.62680678037634 # Ar
1226 1226 1 0.0 113.36973193897182 361.4058777385843 111.85467059288553 # Ar
1227 1227 1 0.0 328.24453164093813 70.39795082380752 490.22513202288604 # Ar
1228 1228 1 0.0 347.1065173562412 406.1417224179201 259.7750078404554 # Ar
1229 1229 1 0.0 53.54926399846224 203.79690797628268 151.5419562228613 # Ar
1230 1230 1 0.0 147.5980362504599 7.976894906234007 398.6911429292782 # Ar
1231 1231 1 0.0 71.24338889375584 114.88532355573427 442.5562506569002 # Ar
1232 1232 1 0.0 60.80600194772211 247.00823326720513 484.3719521214578 # Ar
1233 1233 1 0.0 240.7171621883738 83.03871641729499 364.3961081952279 # Ar
1234 1234 1 0.0 404.539259129301 506.11047484940417 319.30644709605485 # Ar
1235 1235 1 0.0 216.8588237310614 187.35686195571623 389.7680192458714 # Ar
1236 1236 1 0.0 354.33481068687195 212.8262649253415 360.66145707914404 # Ar
1237 1237 1 0.0 277.87093767931475 372.2143178938013 269.12775435310954 # Ar
1238 1238 1 0.0 74.22840271005389 269.6053892527401 429.8990672105511 # Ar
1239 1239 1 0.0 289.3388326077848 493.93201726586216 442.5147754307061 # Ar
1240 1240 1 0.0 37.14610693742132 360.15579870804294 77.2509355617296 # Ar
1241 1241 1 0.0 350.52292894638265 381.65283157717687 125.64782196568002 # Ar
1242 1242 1 0.0 162.72424527447612 107.65801236711468 388.8056025719369 # Ar
1243 1243 1 0.0 389.292879386574 83.74830080292882 426.1041731282254 # Ar
1244 1244 1 0.0 332.99539658055977 376.5456202654095 200.9535910727072 # Ar
1245 1245 1 0.0 397.26199389282664 507.9642672730784 508.8583385160788 # Ar
1246 1246 1 0.0 273.8172753548892 225.9052169068925 213.27989608672075 # Ar
1247 1247 1 0.0 449.008051809571 183.88926626937868 171.22871631322224 # Ar
1248 1248 1 0.0 395.23284804700097 18.403754885558918 341.2814803735543 # Ar
1249 1249 1 0.0 376.9442380112677 425.31404253576983 4.744570248711254 # Ar
1250 1250 1 0.0 201.9673145176661 85.54611671353763 225.51559519551026 # Ar
1251 1251 1 0.0 417.18289724696734 393.0592229655256 327.90505389128305 # Ar
1252 1252 1 0.0 160.8381719868037 352.42339087969344 247.69534631716584 # Ar
1253 1253 1 0.0 511.1734994456748 162.73460355421426 364.1893333973428 # Ar
1254 1254 1 0.0 458.83968926095713 154.5033306797222 421.00216996712624 # Ar
1255 1255 1 0.0 417.86314245510215 376.1091772739326 78.35572887647984 # Ar
1256 1256 1 0.0 346.0090473493567 354.07553191910347 5.91675500697771 # Ar
1257 1257 1 0.0 48.111349742941115 174.5798169732324 324.14594596964326 # Ar
1258 1258 1 0.0 343.4318196410272 196.27174936578623 160.40509240486523 # Ar
1259 1259 1 0.0 226.1668308595521 439.21388410181817 443.4400828665675 # Ar
1260 1260 1 0.0 348.61714084028966 74.33211015905749 77.12139664930214 # Ar
1261 1261 1 0.0 92.03719026645894 235.035579561969 420.77852296620557 # Ar
1262 1262 1 0.0 260.64312000250646 397.25391829949103 150.62168956850624 # Ar
1263 1263 1 0.0 481.765622102065 303.69280656597175 282.7210740359372 # Ar
1264 1264 1 0.0 174.85809531161792 32.22091306740483 312.04965048864943 # Ar
1265 1265 1 0.0 80.79767764567991 281.0859300274383 310.81843754272165 # Ar
1266 1266 1 0.0 153.81340495143118 510.166864727126 307.87652198261156 # Ar
1267 1267 1 0.0 86.34502579790713 109.96180582665323 297.7221639008535 # Ar
1268 1268 1 0.0 252.95528193697947 369.33698283125125 77.91289603541189 # Ar
1269 1269 1 0.0 177.6044073406836 335.62151793292753 17.297984422037416 # Ar
1270 1270 1 0.0 159.6476415083132 413.22522944363635 486.3241628409301 # Ar
1271 1271 1 0.0 115.94767471150932 343.76179512811916 219.7132256657054 # Ar
1272 1272 1 0.0 344.87773172408754 387.0727434388812 64.66280010914848 # Ar
1273 1273 1 0.0 98.5161373265859 91.75530890467299 507.4191507791848 # Ar
1274 1274 1 0.0 407.2763318461319 158.20442943870987 101.29535855922498 # Ar
1275 1275 1 0.0 70.72553067201264 261.27856745858827 0.5125820211107955 # Ar
1276 1276 1 0.0 512.4496607025325 144.0444210792755 47.50653587205973 # Ar
1277 1277 1 0.0 102.10925945850384 87.60595901713504 20.537918296805287 # Ar
1278 1278 1 0.0 21.70078545429758 502.0178102767491 131.121860014207 # Ar
1279 1279 1 0.0 317.4533969893576 226.1556926938205 373.81229715570447 # Ar
1280 1280 1 0.0 481.3373825799224 322.1867102601981 335.46775614923325 # Ar
1281 1281 1 0.0 244.89501143673627 366.31496246016485 441.3886418300082 # Ar
1282 1282 1 0.0 85.42747659829641 281.7780760997041 123.2148482764645 # Ar
1283 1283 1 0.0 239.90587304637648 490.9025534254287 285.68422548945404 # Ar
1284 1284 1 0.0 123.20266527472938 111.43584408189449 342.3000595469529 # Ar
1285 1285 1 0.0 439.65933507755483 92.15629673336906 121.19123285983731 # Ar
1286 1286 1 0.0 193.7792137455132 76.89562117645015 122.32409810048713 # Ar
1287 1287 1 0.0 294.98332838254464 22.76341251499041 377.85297982419036 # Ar
1288 1288 1 0.0 57.82781950442699 455.2735192749451 86.26877784794218 # Ar
1289 1289 1 0.0 42.34390541147934 18.736277198792756 435.8822861947451 # Ar
1290 1290 1 0.0 15.003047167210456 368.7397829390119 158.76869962319978 # Ar
1291 1291 1 0.0 249.3196114099046 466.94231466687364 12.12413748494516 # Ar
1292 1292 1 0.0 79.62514665475778 346.24548028645637 414.01432312228457 # Ar
1293 1293 1 0.0 64.05764804154727 6.821057225599805 453.35956468510324 # Ar
1294 1294 1 0.0 245.39608286142007 104.56304828774759 84.28482902633299 # Ar
1295 1295 1 0.0 201.35679928760356 114.5982003404494 380.42934577909 # Ar
1296 1296 1 0.0 55.4652676678805 81.02897526782488 442.99872383855643 # Ar
1297 1297 1 0.0 510.7991466220527 322.5064455737144 439.182357855253 # Ar
1298 1298 1 0.0 477.1744164326615 449.90496794682133 290.5530466928948 # Ar
1299 1299 1 0.0 477.080960399069 255.9466606960468 244.54952710524546 # Ar
1300 1300 1 0.0 353.1898873746483 180.49604834240105 454.1471969200027 # Ar
1301 1301 1 0.0 132.5492970754664 432.65785503440776 29.775110625741576 # Ar
1302 1302 1 0.0 34.24710610477973 187.68757762232286 438.9378376840243 # Ar
1303 1303 1 0.0 498.41742223572425 193.93449255510123 217.45051637899516 # Ar
1304 1304 1 0.0 416.0439794203779 201.68980737880364 149.29867496078685 # Ar
1305 1305 1 0.0 203.2926696584211 110.04299392585922 92.38268113167442 # Ar
1306 1306 1 0.0 41.89658578903243 498.2909486975623 159.63626490340843 # Ar
1307 1307 1 0.0 254.9901345887797 333.421055865167 3.2783210715587967 # Ar
1308 1308 1 0.0 244.80863890706564 120.18194073709043 295.4653902212345 # Ar
1309 1309 1 0.0 127.18080282844714 328.70824761225566 239.6883467477765 # Ar
1310 1310 1 0.0 368.8204009299975 363.55915571591237 508.4025608764208 # Ar
1311 1311 1 0.0 171.1753322420749 227.60920163159187 246.00538019029278 # Ar
1312 1312 1 0.0 171.42737373142822 191.9847709903884 421.60197965277837 # Ar
1313 1313 1 0.0 192.90596436884954 456.65565811072975 151.00211132489147 # Ar
1314 1314 1 0.0 453.45720794981946 502.3687284169126 67.68997678734581 # Ar
1315 1315 1 0.0 53.900648776740894 292.61230885722756 466.60417591583195 # Ar
1316 1316 1 0.0 76.53552152585976 157.63236739090198 182.12540453089667 # Ar
1317 1317 1 0.0 469.3762456658504 77.74621457999694 432.4040406016568 # Ar
1318 1318 1 0.0 168.59021976320025 309.29247468782575 387.1338459472477 # Ar
1319 1319 1 0.0 365.1198878609519 39.649140773358 485.6565431580694 # Ar
1320 1320 1 0.0 74.12481547364189 415.18452239421424 181.5271026273537 # Ar
1321 1321 1 0.0 367.62010538828366 415.66767075110346 284.7264512700881 # Ar
1322 1322 1 0.0 207.5755469055919 202.46032660591968 83.48543106111228 # Ar
1323 1323 1 0.0 258.2034641800482 19.972257592971953 452.20969586002644 # Ar
1324 1324 1 0.0 166.51639036409034 135.51421241148026 100.04557465406363 # Ar
1325 1325 1 0.0 266.9405454414009 25.374588220586627 268.2589024269349 # Ar
1326 1326 1 0.0 85.31885012818897 290.0634797689832 441.48006373286 # Ar
1327 1327 1 0.0 263.61632924812835 333.84605681947687 90.57653197700941 # Ar
1328 1328 1 0.0 269.198101281153 132.0558215369921 389.0516780978878 # Ar
1329 1329 1 0.0 152.93749583943747 52.43302360712951 169.0720749642212 # Ar
1330 1330 1 0.0 16.43090775094476 365.649777860077 75.47711922041273 # Ar
1331 1331 1 0.0 427.06682001323196 334.01241072835734 138.83833686103023 # Ar
1332 1332 1 0.0 90.74331883321022 333.897864268609 238.99735131299428 # Ar
1333 1333 1 0.0 337.7199338012378 415.1922588391918 159.85001441326693 # Ar
1334 1334 1 0.0 105.64792827131579 346.0466289229943 72.49439935785978 # Ar
1335 1335 1 0.0 229.11537809901128 343.62764215521565 257.4457768781368 # Ar
1336 1336 1 0.0 393.6435429340279 8.890787910334726 203.30872743303203 # Ar
1337 1337 1 0.0 252.5681361015073 385.71514648887467 450.9830803569096 # Ar
1338 1338 1 0.0 478.1909768687888 322.2664712887075 60.131257993966955 # Ar
1339 1339 1 0.0 5.368098890072662 25.03631889972539 185.37223902936776 # Ar
1340 1340 1 0.0 222.65406979929668 378.76214155467073 457.561033323616 # Ar
1341 1341 1 0.0 381.8388502326073 68.78879514571419 442.21253128645674 # Ar
1342 1342 1 0.0 78.21296735336294 462.492217481946 358.059849894229 # Ar
1343 1343 1 0.0 351.08401680876545 257.830172809847 210.46778753599148 # Ar
1344 1344 1 0.0 405.6945912462316 37.02424217474604 298.7397481063518 # Ar
1345 1345 1 0.0 75.00298867320949 330.3946559035265 449.0807480972124 # Ar
1346 1346 1 0.0 161.90247111016126 447.11144782675666 434.72938506863994 # Ar
1347 1347 1 0.0 431.1899993483472 186.36893912182077 226.33215493749975 # Ar
1348 1348 1 0.0 465.20048320321877 3.3436456665381535 265.8203750467141 # Ar
1349 1349 1 0.0 258.9971680184202 34.425147101167774 291.9906941448688 # Ar
1350 1350 1 0.0 441.82961213956077 16.077973461494675 82.0967371977472 # Ar
1351 1351 1 0.0 293.8761573158762 70.48686250620239 395.03361713277616 # Ar
1352 1352 1 0.0 487.526175736262 403.7303579132779 47.98433252714484 # Ar
1353 1353 1 0.0 455.81905925706945 190.36323867835574 142.081227718604 # Ar
1354 1354 1 0.0 172.93552140233768 366.47466740117795 504.37992711072064 # Ar
1355 1355 1 0.0 32.65410945394178 16.764296909367104 126.89157529425016 # Ar
1356 1356 1 0.0 316.5472529093525 246.12634333019673 274.08477735771606 # Ar
1357 1357 1 0.0 69.58586934128195 227.74604354938316 175.17309112467015 # Ar
1358 1358 1 0.0 366.6713176282673 298.16319848709475 16.797051371530642 # Ar
1359 1359 1 0.0 422.8052232482064 296.87905263069814 406.63481878558133 # Ar
1360 1360 1 0.0 204.82226863467562 149.75992500782493 113.29033350549142 # Ar
1361 1361 1 0.0 320.7869574174444 50.31510087594782 456.3153055902915 # Ar
1362 1362 1 0.0 314.9456951549915 212.72325646030214 24.77618407312254 # Ar
1363 1363 1 0.0 23.31901154704442 470.6371832469347 444.61216065512093 # Ar
1364 1364 1 0.0 240.45946831677946 391.30448144325953 211.7033625820644 # Ar
1365 1365 1 0.0 313.105221257279 223.632178384769 219.28661818496093 # Ar
1366 1366 1 0.0 356.75777276145817 46.219353707051354 182.15810250491927 # Ar
1367 1367 1 0.0 332.19275960241157 436.08321376458906 96.85267889759764 # Ar
1368 1368 1 0.0 469.62719290521767 202.68084240996592 304.6125835175491 # Ar
1369 1369 1 0.0 150.44380166274664 484.2862382317203 81.68434192618778 # Ar
1370 1370 1 0.0 254.4319782355067 141.32444252419455 457.9291064983012 # Ar
1371 1371 1 0.0 88.84403682340886 170.8625501229593 267.1245591898891 # Ar
1372 1372 1 0.0 371.5914586228379 39.779356575859985 206.40195017159942 # Ar
1373 1373 1 0.0 216.19519914957905 64.61674818218782 80.83668016471168 # Ar
1374 1374 1 0.0 3.6685357603140187 195.63811954437665 412.7850571765354 # Ar
1375 1375 1 0.0 83.7353863528903 353.26399466894964 340.3143690278245 # Ar
1376 1376 1 0.0 52.92630907952243 215.7507656887568 365.56333316545613 # Ar
1377 1377 1 0.0 501.9193663872732 289.34863904276847 20.611209736331208 # Ar
1378 1378 1 0.0 144.71771918193264 265.4796346212948 141.929266996138 # Ar
1379 1379 1 0.0 255.8180246221559 276.2018381668882 147.76924650483383 # Ar
1380 1380 1 0.0 314.0837201988922 148.7529217313422 288.25743599996815 # Ar
1381 1381 1 0.0 29.315929041546994 97.07736230605671 478.98045180878955 # Ar
1382 1382 1 0.0 51.22457941190955 385.9084755770394 79.97883866569529 # Ar
1383 1383 1 0.0 404.0544260486553 155.00500075203144 397.4482005628311 # Ar
1384 1384 1 0.0 177.9270578941048 16.751910437567425 45.631141063362456 # Ar
1385 1385 1 0.0 169.84153842960362 181.8647668475076 98.16280085658438 # Ar
1386 1386 1 0.0 137.10097734055734 206.36601037327753 484.8354151586746 # Ar
1387 1387 1 0.0 509.47657516704817 182.74011923379425 31.736617047524145 # Ar
1388 1388 1 0.0 330.2422142327689 268.77891949239785 313.22089070355383 # Ar
1389 1389 1 0.0 116.49269640949704 145.4588846673701 62.40694637929395 # Ar
1390 1390 1 0.0 435.3057738065106 484.7223477770388 42.34833853632196 # Ar
1391 1391 1 0.0 266.3999126512197 459.00039000211837 170.6062692679635 # Ar
1392 1392 1 0.0 227.76477646924664 35.144797523116274 118.50749130672997 # Ar
1393 1393 1 0.0 394.037823754056 137.0730161374274 86.90124054955501 # Ar
1394 1394 1 0.0 389.59651716492914 512.9091329796004 361.9112732400319 # Ar
1395 1395 1 0.0 153.88796247466794 513.7818609896907 438.99278269894876 # Ar
1396 1396 1 0.0 401.023583491294 325.96674920781925 361.6293105923952 # Ar
1397 1397 1 0.0 459.3069414379842 201.64536242541027 464.81248111610836 # Ar
1398 1398 1 0.0 403.11002941395225 410.5530049829149 208.51210466607662 # Ar
1399 1399 1 0.0 492.84054039748287 412.9183260307365 18.51360610019185 # Ar
1400 1400 1 0.0 159.78848302818142 183.37859272970553 373.37548776953093 # Ar
1401 1401 1 0.0 78.40708251028552 94.58503689912658 488.34425387422255 # Ar
1402 1402 1 0.0 123.97640966122304 313.6277284817575 310.9083829621188 # Ar
1403 1403 1 0.0 283.5763012262596 325.6481399621185 13.375739459131825 # Ar
1404 1404 1 0.0 125.11431011838688 345.90955583834506 386.1631167651136 # Ar
1405 1405 1 0.0 128.21682753689473 262.9978094611353 367.2019073101485 # Ar
1406 1406 1 0.0 123.59681218234655 61.53068585451874 476.5939558508796 # Ar
1407 1407 1 0.0 7.685971296034669 73.95374833354361 109.85037119021537 # Ar
1408 1408 1 0.0 248.11924229286117 87.40050421379506 69.25793746227596 # Ar
1409 1409 1 0.0 489.5011916525589 79.94026752000543 438.4549774894986 # Ar
1410 1410 1 0.0 453.8721187968173 363.3684141597728 65.57097216349443 # Ar
1411 1411 1 0.0 400.4988321439227 395.1943540149568 11.306139323155872 # Ar
1412 1412 1 0.0 474.80813279490434 376.2104004777569 65.06516345548296 # Ar
1413 1413 1 0.0 403.6079105548539 277.6522336396745 189.0575560317667 # Ar
1414 1414 1 0.0 289.60689297298853 31.2980963489462 149.85003138766618 # Ar
1415 1415 1 0.0 147.80855182118103 188.24934210428393 475.5644965843973 # Ar
1416 1416 1 0.0 434.65957844492465 53.57209706224845 311.9997168271866 # Ar
1417 1417 1 0.0 327.4724201497574 21.926790542998333 396.3410993876114 # Ar
1418 1418 1 0.0 289.50015203405945 380.4865019550455 323.33157546216677 # Ar
1419 1419 1 0.0 185.04405702514788 68.96202571602123 93.62584070608673 # Ar
1420 1420 1 0.0 414.01703966484916 335.04498996891556 171.49102329545812 # Ar
1421 1421 1 0.0 34.668284759336075 365.82737804449556 127.83041051409543 # Ar
1422 1422 1 0.0 429.59365455405174 381.3330778362581 491.9647875154962 # Ar
1423 1423 1 0.0 295.27735692372283 309.36522965945306 490.5545703211865 # Ar
1424 1424 1 0.0 420.1231676618897 12.832269266968439 472.19974782975083 # Ar
1425 1425 1 0.0 256.57228731919696 500.7142519786181 489.233758608529 # Ar
1426 1426 1 0.0 433.4538515820635 5.799380238850278 184.89631777715996 # Ar
1427 1427 1 0.0 339.6821723686274 224.49479819061114 393.2396128739563 # Ar
1428 1428 1 0.0 276.3541872833532 317.007124680323 51.656176989839295 # Ar
1429 1429 1 0.0 183.63887006871727 333.15026614646285 192.14935404005277 # Ar
1430 1430 1 0.0 81.00624454918469 101.98831953976091 282.0867699343225 # Ar
1431 1431 1 0.0 220.61436320053437 168.80626937925334 385.33006007793665 # Ar
1432 1432 1 0.0 300.8886559285903 134.07014455801982 341.5504309534339 # Ar
1433 1433 1 0.0 476.4870868780149 104.40821279784284 452.9856596125141 # Ar
1434 1434 1 0.0 52.47056552843499 408.3388027549232 33.74195941640514 # Ar
1435 1435 1 0.0 379.5964890572112 51.95396190677749 61.08665185867878 # Ar
1436 1436 1 0.0 397.69106775941077 488.5340694220331 167.9474171065497 # Ar
1437 1437 1 0.0 133.79095634571448 149.97304600280106 430.0750414556791 # Ar
1438 1438 1 0.0 121.277660143384 281.33468245669394 451.2396378386096 # Ar
1439 1439 1 0.0 198.10737979292068 271.9589738180388 94.62786741232048 # Ar
1440 1440 1 0.0 50.336313155182474 120.13438764588783 507.7250747496324 # Ar
1441 1441 1 0.0 259.6490801994872 152.03586486332986 10.232363009861675 # Ar
1442 1442 1 0.0 71.61562945985575 281.87399287752794 154.52934237486568 # Ar
1443 1443 1 0.0 212.9797922049369 247.1554195072074 218.48532296936884 # Ar
1444 1444 1 0.0 280.83003732187746 316.87831404262397 365.64777057461237 # Ar
1445 1445 1 0.0 276.2001212961141 491.116801124876 35.61727890814613 # Ar
1446 1446 1 0.0 5.044472720685652 292.1016565808633 12.87110340138332 # Ar
1447 1447 1 0.0 468.13957815314126 210.76575758935897 453.80238392368454 # Ar
1448 1448 1 0.0 408.8254428710524 499.87060800973205 32.961709532381434 # Ar
1449 1449 1 0.0 355.4274232170608 232.80713748420388 65.23168027143572 # Ar
1450 1450 1 0.0 132.28452666134956 270.41027845524536 298.3903616367915 # Ar
1451 1451 1 0.0 311.3925644951274 162.52325369294388 173.00768130505074 # Ar
1452 1452 1 0.0 424.1048152689615 472.006141520058 196.02738227653174 # Ar
1453 1453 1 0.0 306.61684702602116 191.86018626668402 95.53502535617693 # Ar
1454 1454 1 0.0 237.9725490730692 44.00749757557678 227.83097358876702 # Ar
1455 1455 1 0.0 48.51174449546174 320.89934949230206 250.76816488071432 # Ar
1456 1456 1 0.0 23.160328516495134 226.20372288090837 502.8882922122138 # Ar
1457 1457 1 0.0 417.79322701042565 93.49148816689339 34.108922010773036 # Ar
1458 1458 1 0.0 52.80848621773591 318.65319603754807 18.857690401400422 # Ar
1459 1459 1 0.0 78.99473815675692 105.83601420797793 300.6972036509042 # Ar
1460 1460 1 0.0 157.85295120984378 188.88970129122887 166.1167200397394 # Ar
1461 1461 1 0.0 461.64137739457914 276.30231887769804 368.6993332373449 # Ar
1462 1462 1 0.0 156.76514641341348 71.85042490460997 167.38298956739223 # Ar
1463 1463 1 0.0 361.4229909924884 381.1026383460061 263.23534128261286 # Ar
1464 1464 1 0.0 64.4391223037169 214.47766248902283 234.76197497174536 # Ar
1465 1465 1 0.0 230.44454257462908 356.1536130954299 363.6760014734728 # Ar
1466 1466 1 0.0 93.77779914391122 324.81160174186755 100.92061788187847 # Ar
1467 1467 1 0.0 340.0123892585906 422.78055806309743 342.5010654398678 # Ar
1468 1468 1 0.0 449.3979745485503 32.37528892318999 188.55742222178534 # Ar
1469 1469 1 0.0 301.8795110698883 363.88322306763956 129.27988653537804 # Ar
1470 1470 1 0.0 174.75927722733675 253.95931011582607 315.04800697129883 # Ar
1471 1471 1 0.0 513.4607674240444 67.54041595320773 203.1243619206992 # Ar
1472 1472 1 0.0 259.8763458729751 318.5426114829667 492.38297436149145 # Ar
1473 1473 1 0.0 293.6121716966194 322.0646568801279 27.480807612820684 # Ar
1474 1474 1 0.0 277.25178490488935 276.26151352034185 485.82633562213067 # Ar
1475 1475 1 0.0 392.075504923102 482.1008651457467 425.79823638761246 # Ar
1476 1476 1 0.0 471.95114885498117 252.96704052754143 488.8172971126119 # Ar
1477 1477 1 0.0 323.47407213885316 85.43592224901832 352.52083080465655 # Ar
1478 1478 1 0.0 497.3894760597591 401.5241305051127 39.18697530252159 # Ar
1479 1479 1 0.0 463.9937494542626 54.58291555838695 387.0929444761154 # Ar
1480 1480 1 0.0 4.029282941140994 221.07437758324323 504.2561300247155 # Ar
1481 1481 1 0.0 167.15302810745982 498.49096454124026 225.94352925265733 # Ar
1482 1482 1 0.0 133.73425628974675 421.82187725798633 456.60449383412475 # Ar
1483 1483 1 0.0 473.00746446736184 199.08623409885573 485.2522496963817 # Ar
1484 1484 1 0.0 285.55965031079614 45.71212170003316 480.27416902032866 # Ar
1485 1485 1 0.0 172.8356043817406 6.170542352006938 506.2665309393593 # Ar
1486 1486 1 0.0 494.68869031410424 63.64113050273605 192.80550949762033 # Ar
1487 1487 1 0.0 424.1389050672946 451.8672307267837 89.53435828470506 # Ar
1488 1488 1 0.0 512.6991859811362 287.13040599856953 375.5609207319788 # Ar
1489 1489 1 0.0 69.192017150494 176.04188516728104 457.8109780238955 # Ar
1490 1490 1 0.0 87.86808859918095 328.5181771990955 401.62180592905 # Ar
1491 1491 1 0.0 287.1784487562304 39.02478870253409 157.62299789643708 # Ar
1492 1492 1 0.0 178.34317970818842 457.0401632593664 304.0610096434325 # Ar
1493 1493 1 0.0 475.8287267224199 303.93630093313317 67.22535287600927 # Ar
1494 1494 1 0.0 169.3708752384585 398.61116214232976 315.1763936185969 # Ar
1495 1495 1 0.0 403.95475238044065 63.37645753347481 353.7862401248223 # Ar
1496 1496 1 0.0 251.0148557897551 175.1866706704674 474.1854262019738 # Ar
1497 1497 1 0.0 140.9529203552057 462.1119729021661 352.5649799143861 # Ar
1498 1498 1 0.0 182.7268163753731 340.2603231994361 302.91614723565834 # Ar
1499 1499 1 0.0 185.4064217252184 185.39743211440538 276.4579893849057 # Ar
1500 1500 1 0.0 58.83736556169755 136.9350395946472 394.70624363553753 # Ar
1501 1501 1 0.0 104.07107376299814 94.83248857208311 368.2983584202671 # Ar
1502 1502 1 0.0 494.4062846694178 434.46117556392966 258.210571727768 # Ar
1503 1503 1 0.0 54.98421131565847 96.88803761623888 129.26092069194527 # Ar
1504 1504 1 0.0 57.80105159515038 394.54276837307185 321.7459776089388 # Ar
1505 1505 1 0.0 479.65043105521016 240.73510100376916 331.4740982859071 # Ar
1506 1506 1 0.0 192.73210175087402 214.7371456857945 359.6234843635067 # Ar
1507 1507 1 0.0 68.13590278242046 50.52137065186532 422.17517771883064 # Ar
1508 1508 1 0.0 79.89123992368624 413.71309883979376 77.07695683393912 # Ar
1509 1509 1 0.0 308.081779705761 85.43777083340393 341.1716270970054 # Ar
1510 1510 1 0.0 61.91696519139016 252.9496544076046 161.52377181540928 # Ar
1511 1511 1 0.0 177.25479705834078 49.992631388152574 333.41348484783265 # Ar
1512 1512 1 0.0 164.71688304302918 91.8363665532549 255.374808084863 # Ar
1513 1513 1 0.0 384.75342987984965 135.50114033275534 452.37077932489774 # Ar
1514 1514 1 0.0 307.5659622851864 240.1936934364726 259.17906703181836 # Ar
1515 1515 1 0.0 29.419898573021324 141.82252811334652 414.0187079381595 # Ar
1516 1516 1 0.0 304.8661861842646 323.16888412527396 65.9993385211535 # Ar
1517 1517 1 0.0 459.56908457263006 218.09472329918486 232.56984903603572 # Ar
1518 1518 1 0.0 139.19126384129848 322.18483036899295 17.062473766635136 # Ar
1519 1519 1 0.0 14.280318146294883 281.24111133555044 362.4398261738832 # Ar
1520 1520 1 0.0 273.2752822090471 215.78105653452755 18.951424535942415 # Ar
1521 1521 1 0.0 179.3573055917623 194.62703570723633 362.3018899339939 # Ar
1522 1522 1 0.0 115.57342419213154 434.2555423582903 296.9783654871544 # Ar
1523 1523 1 0.0 262.89349338784547 257.1054656717538 351.6907114925449 # Ar
1524 1524 1 0.0 351.5501387010248 487.21416511014655 355.54590284509635 # Ar
1525 1525 1 0.0 494.5016686694364 468.6430583855226 409.2753113199842 # Ar
1526 1526 1 0.0 405.2345214415246 94.27817732513047 296.0549255210904 # Ar
1527 1527 1 0.0 490.6764695701472 326.9736687388826 501.25950409533107 # Ar
1528 1528 1 0.0 189.94839290002508 113.73885759236214 376.5301691525767 # Ar
1529 1529 1 0.0 469.8284665203859 309.17230637497323 42.20252246567186 # Ar
1530 1530 1 0.0 289.32642742317233 82.58174380626315 450.9307979350676 # Ar
1531 1531 1 0.0 275.67358405688253 210.98676660546386 268.49438347992356 # Ar
1532 1532 1 0.0 123.77958616022227 156.41266112271506 239.25203927289314 # Ar
1533 1533 1 0.0 166.5016987318677 94.74272515818649 203.29300892492182 # Ar
1534 1534 1 0.0 36.60173697059561 124.24724042426875 479.62474799406675 # Ar
1535 1535 1 0.0 60.90658471279481 486.96390605728953 414.91025573756065 # Ar
1536 1536 1 0.0 106.14023936861115 389.81538441908873 13.141392941240639 # Ar
1537 1537 1 0.0 76.6534334249994 38.74934145638687 342.44099287819523 # Ar
1538 1538 1 0.0 193.76339863896098 69.26652805437082 343.8816812116402 # Ar
1539 1539 1 0.0 479.99886510170325 276.7006114470498 186.72795150752245 # Ar
1540 1540 1 0.0 181.25055679468494 433.30639859176915 95.51924447909447 # Ar
1541 1541 1 0.0 331.6981315457602 201.54084771589848 349.6495409036268 # Ar
1542 1542 1 0.0 363.84068410270095 195.3518666970337 216.72885267393676 # Ar
1543 1543 1 0.0 366.2126238459467 192.51140786616227 279.331082481598 # Ar
1544 1544 1 0.0 253.3026692264088 71.18051596442727 337.6816886600303 # Ar
1545 1545 1 0.0 9.234925079744954 331.99453283932075 315.2782757823818 # Ar
1546 1546 1 0.0 373.96863843541223 485.95858745244107 63.20292736503668 # Ar
1547 1547 1 0.0 29.92867469770049 255.95728427255466 474.3835581446398 # Ar
1548 1548 1 0.0 258.23266497402204 95.95927393157625 25.352128024086024 # Ar
1549 1549 1 0.0 83.66053824432284 101.69734602761103 420.1705772375431 # Ar
1550 1550 1 0.0 105.06229869360614 24.023860749145477 47.654200267451806 # Ar
1551 1551 1 0.0 109.15907509887548 470.5451678996604 209.3306370556926 # Ar
1552 1552 1 0.0 124.33020398307525 124.32189252811526 254.0916292015603 # Ar
1553 1553 1 0.0 210.99010453867214 57.61112396039147 440.30239423549824 # Ar
1554 1554 1 0.0 148.73385924550234 379.2023077746691 155.62261659847286 # Ar
1555 1555 1 0.0 512.6021276691853 290.465389249446 133.8818901865736 # Ar
1556 1556 1 0.0 319.5839907234512 190.35979114064338 101.30072979884913 # Ar
1557 1557 1 0.0 60.40457058201609 467.04118807822107 4.303310361315106 # Ar
1558 1558 1 0.0 307.8541273050383 0.43286912303263203 390.763323460844 # Ar
1559 1559 1 0.0 234.3078452018101 392.50907477283005 166.32916972857635 # Ar
1560 1560 1 0.0 201.19964178445272 150.6255770992127 395.81467795841036 # Ar
1561 1561 1 0.0 429.36758519611084 87.6214001243219 124.4077486794092 # Ar
1562 1562 1 0.0 179.02481218024042 151.1809077309405 413.99181323911125 # Ar
1563 1563 1 0.0 8.604098974254239 122.80155844312064 122.5668097114464 # Ar
1564 1564 1 0.0 432.12411749880675 338.6888716392274 61.37302048193205 # Ar
1565 1565 1 0.0 508.25325625279913 31.13475394018108 79.07764313127532 # Ar
1566 1566 1 0.0 373.8621628419079 133.26264139856727 325.19732329552 # Ar
1567 1567 1 0.0 98.50574050782888 479.96900866315985 406.06996986968124 # Ar
1568 1568 1 0.0 199.89246893191006 302.7284166741684 95.88264290308778 # Ar
1569 1569 1 0.0 381.0327984668907 493.59961806239505 279.592529610436 # Ar
1570 1570 1 0.0 125.92911892629719 497.48650282466826 381.15207366554915 # Ar
1571 1571 1 0.0 197.10444999294796 253.64888175168295 281.59074369461126 # Ar
1572 1572 1 0.0 386.97998978233 459.8574531537672 116.10997200898748 # Ar
1573 1573 1 0.0 89.45319647577979 52.15098096955996 197.29704429571038 # Ar
1574 1574 1 0.0 131.05448764656302 357.4738714687219 215.4303001011043 # Ar
1575 1575 1 0.0 372.8034776776399 323.8801726876862 390.5593052615496 # Ar
1576 1576 1 0.0 494.33841049908494 345.52934255314733 152.49332248693193 # Ar
1577 1577 1 0.0 124.3018807431731 304.8433371179545 458.6511274916799 # Ar
1578 1578 1 0.0 319.2251222210377 509.94776288231543 141.12513514062692 # Ar
1579 1579 1 0.0 219.1066101798619 43.2307209036252 276.04356489762705 # Ar
1580 1580 1 0.0 116.04954425476186 500.2141550182664 297.23319533348484 # Ar
1581 1581 1 0.0 339.9806822457417 71.26642086525855 471.7367594240331 # Ar
1582 1582 1 0.0 122.40217313963974 225.216498547297 485.0909713464041 # Ar
1583 1583 1 0.0 223.4983837875078 202.64381702732837 378.73683271237854 # Ar
1584 1584 1 0.0 432.8072591544142 97.56260015306894 171.724729402351 # Ar
1585 1585 1 0.0 283.51093862858806 6.792294338737102 413.43377698336656 # Ar
1586 1586 1 0.0 465.43681132473415 190.26529939286516 143.5795174046405 # Ar
1587 1587 1 0.0 443.16667610034705 150.0240034130629 221.8701885091028 # Ar
1588 1588 1 0.0 147.14223171947697 266.4735258616953 13.78403269562035 # Ar
1589 1589 1 0.0 248.27540142871882 32.835560736204954 485.08151626145997 # Ar
1590 1590 1 0.0 2.3055387554838513 148.91740119649455 126.90135906824999 # Ar
1591 1591 1 0.0 28.61160092289089 368.4013892362934 407.96748778721536 # Ar
1592 1592 1 0.0 241.9538048334387 310.15024612816853 317.76462864617366 # Ar
1593 1593 1 0.0 206.077541348799 358.8587019345585 458.5108624652149 # Ar
1594 1594 1 0.0 467.91833930021056 87.0526389247159 281.04884879698017 # Ar
1595 1595 1 0.0 13.817503337273568 273.80273434685535 226.49576513845207 # Ar
1596 1596 1 0.0 258.80521335782873 79.34203081516094 245.8017019416304 # Ar
1597 1597 1 0.0 6.49693100861644 357.016400659528 4.331323244953721 # Ar
1598 1598 1 0.0 415.4814188740401 247.2510972448451 3.135598372367861 # Ar
1599 1599 1 0.0 82.63022639151157 17.32916036882371 370.34674952267113 # Ar
1600 1600 1 0.0 225.47580551192536 199.70558483704409 73.18961409880109 # Ar
1601 1601 1 0.0 459.0028054924612 409.82656935872654 104.30119839860552 # Ar
1602 1602 1 0.0 368.14325981488906 75.60593382334717 163.8068645119972 # Ar
1603 1603 1 0.0 468.1802312490276 188.10280837191635 140.32191923596736 # Ar
1604 1604 1 0.0 203.77223229057617 400.72583638040345 39.825061289646676 # Ar
1605 1605 1 0.0 439.40650511175534 32.49207993882357 243.3020602309684 # Ar
1606 1606 1 0.0 326.6945023902045 4.883871789705097 316.54596371028526 # Ar
1607 1607 1 0.0 313.82011919600365 58.87006686018007 218.33433106982451 # Ar
1608 1608 1 0.0 187.38181080937642 405.8079589368502 277.60627130745786 # Ar
1609 1609 1 0.0 316.244586479409 354.0222178781338 395.0630559295402 # Ar
1610 1610 1 0.0 513.9079336852324 460.5826038871835 269.0768244441866 # Ar
1611 1611 1 0.0 389.95654235167206 40.15975511790283 291.9223274047532 # Ar
1612 1612 1 0.0 37.348525623091916 274.60284028674414 284.51307417405 # Ar
1613 1613 1 0.0 137.53751826251096 347.59292036822194 398.70595392616 # Ar
1614 1614 1 0.0 33.127992864995434 200.74948741917572 221.4138936795656 # Ar
1615 1615 1 0.0 322.6649399001546 321.69191060261807 218.76794717737872 # Ar
1616 1616 1 0.0 287.9162355188555 345.94802464216343 406.39186002127553 # Ar
1617 1617 1 0.0 476.2218686749606 94.20086903918086 305.65310217470693 # Ar
1618 1618 1 0.0 513.6040282297453 13.539744991829084 180.28191896759384 # Ar
1619 1619 1 0.0 355.73550272405316 311.4584334166617 265.1985877853433 # Ar
1620 1620 1 0.0 216.35854042949902 436.08932783806614 173.8314833866476 # Ar
1621 1621 1 0.0 393.7379746233811 129.23309556714543 513.6488125817211 # Ar
1622 1622 1 0.0 184.1476905747962 430.53048703617736 433.165871416275 # Ar
1623 1623 1 0.0 338.11222563337714 221.3573543538213 129.32861082233816 # Ar
1624 1624 1 0.0 324.92921513357567 222.8006678969886 475.15207497320176 # Ar
1625 1625 1 0.0 221.42436420253526 511.0475565257297 391.4716838614207 # Ar
1626 1626 1 0.0 62.836332805203526 360.575782805324 114.00622739469544 # Ar
1627 1627 1 0.0 91.73902350433805 97.85556203039674 257.8944619440032 # Ar
1628 1628 1 0.0 458.19056845107474 157.06591140330923 413.22174386077904 # Ar
1629 1629 1 0.0 216.0794855186923 315.5686589724214 41.81485525875126 # Ar
1630 1630 1 0.0 127.27086705947464 217.2308740565416 205.53121800117745 # Ar
1631 1631 1 0.0 241.90513175816304 3.5403113143966856 104.57745945115674 # Ar
1632 1632 1 0.0 320.34462296012737 286.7912554661487 460.60122477511476 # Ar
1633 1633 1 0.0 344.0440100334133 127.66972299885137 420.5811188427737 # Ar
1634 1634 1 0.0 310.58025351537367 191.6209851438823 91.88205795659024 # Ar
1635 1635 1 0.0 288.7636147055908 1.2205015760125448 197.95397754183608 # Ar
1636 1636 1 0.0 444.3300012383333 274.0246123284135 181.67522552436338 # Ar
1637 1637 1 0.0 13.255093638617778 503.79883126312035 430.3433904428597 # Ar
1638 1638 1 0.0 436.5045795275698 8.90200505346571 314.0983971078655 # Ar
1639 1639 1 0.0 306.73303949642616 234.6458784148865 488.6479445587764 # Ar
1640 1640 1 0.0 400.88654940000816 115.78952952202387 267.0005800293744 # Ar
1641 1641 1 0.0 419.5828932602548 174.1611961971113 403.67693189892583 # Ar
1642 1642 1 0.0 420.41246875896604 399.0133042255164 61.68446456543387 # Ar
1643 1643 1 0.0 490.1483260542365 372.12682661445393 283.50607788945763 # Ar
1644 1644 1 0.0 470.60620673799707 368.19161746700973 390.40202673194017 # Ar
1645 1645 1 0.0 425.13623236186635 193.98032495125724 418.6801922287842 # Ar
1646 1646 1 0.0 195.1846561792285 222.87738743540277 309.5666006662168 # Ar
1647 1647 1 0.0 390.5088899607479 19.214918103622015 103.52049163733982 # Ar
1648 1648 1 0.0 303.727871566182 379.38627260397413 14.989870450113632 # Ar
1649 1649 1 0.0 354.36927923690536 507.44822293544075 347.67168187905753 # Ar
1650 1650 1 0.0 440.83019358441356 305.8832143420333 18.43121380710774 # Ar
1651 1651 1 0.0 87.01281576405238 429.0943069227851 484.46166187184565 # Ar
1652 1652 1 0.0 30.983636645151975 127.18225769334619 334.7976333486608 # Ar
1653 1653 1 0.0 443.2803471851697 220.83806842701117 125.92997599167427 # Ar
1654 1654 1 0.0 451.3097979855767 264.0199376611311 70.96577665826415 # Ar
1655 1655 1 0.0 409.055414747303 354.4877463965637 187.57816327492608 # Ar
1656 1656 1 0.0 87.26762915220569 253.8671165847567 108.33678020788152 # Ar
1657 1657 1 0.0 75.00072161630574 54.672637428909155 425.86162077863787 # Ar
1658 1658 1 0.0 86.65088277336038 176.98862551753476 241.6521331395429 # Ar
1659 1659 1 0.0 389.6744928650675 284.542524800201 233.55322023562485 # Ar
1660 1660 1 0.0 489.9105784110823 153.10492928434945 0.39245800589664415 # Ar
1661 1661 1 0.0 436.399827703565 204.82036366940574 439.4927248482073 # Ar
1662 1662 1 0.0 353.1252716848401 226.7889146675601 43.01468265176435 # Ar
1663 1663 1 0.0 263.2844037550978 113.52175728106046 389.2091223815754 # Ar
1664 1664 1 0.0 487.5078984932046 340.9222076041565 11.265301507894767 # Ar
1665 1665 1 0.0 235.95965884425544 250.78485543638175 426.976391061165 # Ar
1666 1666 1 0.0 104.62382100150923 231.30740117504797 10.946277637708656 # Ar
1667 1667 1 0.0 152.11562384600157 88.1914608166876 110.35068573197795 # Ar
1668 1668 1 0.0 51.812689755352075 426.9215986996876 422.4977354880725 # Ar
1669 1669 1 0.0 152.24826275274353 234.7059446403091 276.49694140160483 # Ar
1670 1670 1 0.0 287.6478432067893 304.14737298278766 173.90418881653937 # Ar
1671 1671 1 0.0 172.59285421053963 407.4414856321101 430.80463011713465 # Ar
1672 1672 1 0.0 251.48720297451212 64.20140591427075 2.764381871520153 # Ar
1673 1673 1 0.0 334.9538783822832 235.62068938352343 379.51841307191523 # Ar
1674 1674 1 0.0 438.10099873276755 238.4250706142178 20.46270768064231 # Ar
1675 1675 1 0.0 399.00715779725954 218.66300828305427 65.87020718174182 # Ar
1676 1676 1 0.0 331.60020084399315 327.1723068890027 379.92736158978283 # Ar
1677 1677 1 0.0 160.23425027590562 1.8052788502300348 19.779724968071417 # Ar
1678 1678 1 0.0 472.2997511923439 265.7288963596051 20.018798706337396 # Ar
1679 1679 1 0.0 194.3916222946723 74.80004626391376 322.0197852708621 # Ar
1680 1680 1 0.0 300.9901457372358 369.9962831370982 293.59134299008065 # Ar
1681 1681 1 0.0 71.05847839794043 197.46520015962702 286.0644586710555 # Ar
1682 1682 1 0.0 169.21289696146863 498.39122919080285 260.36912145663126 # Ar
1683 1683 1 0.0 264.9215907664733 446.96135686382655 370.18466812526015 # Ar
1684 1684 1 0.0 296.32841547721966 391.3836173392119 55.07751559030884 # Ar
1685 1685 1 0.0 459.11245880201125 443.08125300712396 33.98693682618949 # Ar
1686 1686 1 0.0 184.6302343570806 8.713405479277023 440.3457833749615 # Ar
1687 1687 1 0.0 130.104580915628 296.96321102828773 18.858535850444465 # Ar
1688 1688 1 0.0 244.06789134525872 9.13777062852648 174.9637724968365 # Ar
1689 1689 1 0.0 70.18243608849681 310.99671892299017 120.1547618561745 # Ar
1690 1690 1 0.0 188.03551064821562 316.77518454716824 164.82524973629958 # Ar
1691 1691 1 0.0 174.6046538276795 66.28175502765336 53.93196535497396 # Ar
1692 1692 1 0.0 93.41834218147281 453.30934969549367 303.1673146098843 # Ar
1693 1693 1 0.0 9.1342979308937 160.90720025364104 236.48746367608197 # Ar
1694 1694 1 0.0 361.1883686452712 164.3298465255902 37.61388177013706 # Ar
1695 1695 1 0.0 504.78747232230995 178.23480488844328 350.4753187540823 # Ar
1696 1696 1 0.0 233.27693797520925 432.2191162636661 141.10535451841628 # Ar
1697 1697 1 0.0 42.55170855608248 446.1606444675049 142.40221957722616 # Ar
1698 1698 1 0.0 407.3929094906693 422.35090073811733 380.05640201962973 # Ar
1699 1699 1 0.0 11.576186942964023 234.80508882749842 236.7572683292217 # Ar
1700 1700 1 0.0 390.6182631952517 255.79241190644262 169.37589005305497 # Ar
1701 1701 1 0.0 146.92628323598376 471.9608117087244 343.07512879887884 # Ar
1702 1702 1 0.0 411.5373959496118 174.98404639232538 30.444056706792132 # Ar
1703 1703 1 0.0 301.82016965843695 11.451684602712753 94.90516144602056 # Ar
1704 1704 1 0.0 197.7093431551214 414.35369319981925 434.3671495732731 # Ar
1705 1705 1 0.0 23.669437452584997 301.4046439016164 116.29174721432598 # Ar
1706 1706 1 0.0 513.3553365327638 434.10046275758083 299.3636372010176 # Ar
1707 1707 1 0.0 434.6537817410942 296.5549704384114 466.74226166489404 # Ar
1708 1708 1 0.0 486.38464980523867 67.20653414259095 229.49729131027937 # Ar
1709 1709 1 0.0 459.67574896580084 323.97809696977765 24.014053502952574 # Ar
1710 1710 1 0.0 214.5338556889368 484.1937516676478 330.5383988346889 # Ar
1711 1711 1 0.0 369.73002161511806 306.56087558696913 456.921870586848 # Ar
1712 1712 1 0.0 244.411463670491 436.8331935067715 269.1801782541837 # Ar
1713 1713 1 0.0 291.79888844516694 30.09551918979184 412.6710691700003 # Ar
1714 1714 1 0.0 366.28014957619354 449.2021580705929 413.93579948141786 # Ar
1715 1715 1 0.0 429.29392563635884 22.170513038029373 143.65860424084903 # Ar
1716 1716 1 0.0 274.1068227421707 364.6534183416545 185.28254867521233 # Ar
1717 1717 1 0.0 105.74107029069101 247.86229689639254 186.14716912765738 # Ar
1718 1718 1 0.0 494.9266362163475 12.77231251492122 158.8372289176505 # Ar
1719 1719 1 0.0 439.0424685877203 162.3874684553351 428.2161915996685 # Ar
1720 1720 1 0.0 392.68944003841415 314.2565434772934 352.8048285972362 # Ar
1721 1721 1 0.0 336.55229519121997 32.594224842967684 85.5195502025605 # Ar
1722 1722 1 0.0 485.9785487326695 430.6229387031569 247.93111350205982 # Ar
1723 1723 1 0.0 23.933919715723057 143.05035880722173 389.1522209233394 # Ar
1724 1724 1 0.0 202.74757688785235 397.0446491842907 280.6659626041213 # Ar
1725 1725 1 0.0 59.855653426157566 222.42009608568858 248.61308385190148 # Ar
1726 1726 1 0.0 300.0619856380145 89.0374096534619 194.1591468436433 # Ar
1727 1727 1 0.0 419.0357914921251 71.79200353139586 468.4196822626969 # Ar
1728 1728 1 0.0 318.98193077668054 481.64246676688947 58.36914272530108 # Ar
1729 1729 1 0.0 222.38833016884448 50.17109730206891 492.8666509703161 # Ar
1730 1730 1 0.0 375.97959328344945 95.72150024977783 514.2030938203904 # Ar
1731 1731 1 0.0 20.847361642807243 248.3123354526146 359.83135556955955 # Ar
1732 1732 1 0.0 173.40629191053011 454.65798841135245 285.80046348926226 # Ar
1733 1733 1 0.0 334.14255057300977 299.41624276855805 286.81615443691976 # Ar
1734 1734 1 0.0 446.1516704508531 435.9001130515412 508.79404737999334 # Ar
1735 1735 1 0.0 140.0764474526531 273.5314946466687 154.89621778142396 # Ar
1736 1736 1 0.0 360.1409150485202 418.70334678030207 227.79937360324607 # Ar
1737 1737 1 0.0 135.98262885246882 260.68779592200184 409.8682093533483 # Ar
1738 1738 1 0.0 429.1654633891285 134.37170114523775 330.7894238402021 # Ar
1739 1739 1 0.0 439.7471437080694 190.62022513590836 424.3516725705453 # Ar
1740 1740 1 0.0 339.4301249362539 24.29666447584917 35.95906407766712 # Ar
1741 1741 1 0.0 137.5036407052902 264.32590097563025 385.6477595106852 # Ar
1742 1742 1 0.0 434.6603350867496 251.20210406641792 358.714988115934 # Ar
1743 1743 1 0.0 356.0033351457593 53.5012438255079 359.0756708095718 # Ar
1744 1744 1 0.0 207.34112463472727 410.1338969913287 305.4180684794526 # Ar
1745 1745 1 0.0 298.8258895411134 206.12136721572182 432.36072530889254 # Ar
1746 1746 1 0.0 407.5500847733514 367.025659587452 260.15221732249955 # Ar
1747 1747 1 0.0 385.66325162759983 294.22678509164365 413.99715982494814 # Ar
1748 1748 1 0.0 249.9360548878915 99.97710263433714 230.13144620881798 # Ar
1749 1749 1 0.0 276.37641297278486 202.5227047080221 5.717454553334228 # Ar
1750 1750 1 0.0 266.6763956982775 230.49147451980232 315.70573579040257 # Ar
1751 1751 1 0.0 389.3809048159572 99.09290117844375 29.032779327105352 # Ar
1752 1752 1 0.0 272.249836579811 159.4716974803011 184.40706468405284 # Ar
1753 1753 1 0.0 441.77742061950073 261.90764957667017 119.35993927586921 # Ar
1754 1754 1 0.0 276.054602679238 210.47737966532222 356.98464825692093 # Ar
1755 1755 1 0.0 491.0527001159597 291.23150011737005 378.43256589574986 # Ar
1756 1756 1 0.0 276.680592629089 334.4439974599689 266.18600546494946 # Ar
1757 1757 1 0.0 384.4156768733656 320.7590241972228 392.6797307624729 # Ar
1758 1758 1 0.0 232.0874322989934 344.87491604974304 212.12355489407327 # Ar
1759 1759 1 0.0 265.47163976266484 337.2645863957119 396.4312618658948 # Ar
1760 1760 1 0.0 329.7323524656022 49.95054281523413 206.24712869575487 # Ar
1761 1761 1 0.0 25.240867752196664 232.73549124227 234.67827581722952 # Ar
1762 1762 1 0.0 145.91946862802632 22.084265548745282 30.609738496336156 # Ar
1763 1763 1 0.0 138.37564824414113 252.78764706195952 229.3055043865426 # Ar
1764 1764 1 0.0 14.153000988875752 158.0646964651485 196.06182836531684 # Ar
1765 1765 1 0.0 182.67646937594785 334.0851562652439 326.3547167443914 # Ar
1766 1766 1 0.0 164.58279791573446 449.8707358234997 451.0781976554834 # Ar
1767 1767 1 0.0 35.422196853758685 393.55444621819544 440.7926608176685 # Ar
1768 1768 1 0.0 251.00578554076301 43.84786072267072 354.29166882041807 # Ar
1769 1769 1 0.0 481.96110215335864 326.8661477355397 17.92511408515545 # Ar
1770 1770 1 0.0 90.60899640637639 72.35778433527662 41.36335597556153 # Ar
1771 1771 1 0.0 213.0361457572088 137.62424147505305 380.29341683696697 # Ar
1772 1772 1 0.0 73.81248249352619 345.31095299664736 397.9963006739005 # Ar
1773 1773 1 0.0 304.8931024628203 99.02186812650388 312.28498798928445 # Ar
1774 1774 1 0.0 161.7798400660052 92.75830133898225 259.0167227938133 # Ar
1775 1775 1 0.0 264.1869985538261 155.00273211598105 416.8348037501317 # Ar
1776 1776 1 0.0 19.38598295035883 199.72219681861077 207.4789463476215 # Ar
1777 1777 1 0.0 301.8165097383715 231.64542374182454 505.5619350129889 # Ar
1778 1778 1 0.0 178.24216210520254 323.67397649244555 257.4951584380189 # Ar
1779 1779 1 0.0 378.5546409383003 41.29598303861162 466.29802185038903 # Ar
1780 1780 1 0.0 514.5270315413729 149.26185697164598 299.84622913814513 # Ar
1781 1781 1 0.0 152.28346790293372 34.36872660167571 445.5558975473661 # Ar
1782 1782 1 0.0 161.09492003970928 478.7497301925068 348.32251581722153 # Ar
1783 1783 1 0.0 233.6210667123771 87.3840282197997 306.7706812645121 # Ar
1784 1784 1 0.0 51.59294444374951 335.793322264141 323.0718068044236 # Ar
1785 1785 1 0.0 411.7783141834483 417.6145029353626 304.05106999868127 # Ar
1786 1786 1 0.0 334.317260233142 121.1412825773615 45.64355121648278 # Ar
1787 1787 1 0.0 78.09788287888789 141.70840099564504 277.98354207841345 # Ar
1788 1788 1 0.0 278.5203059853008 146.18304242814662 344.8275366785299 # Ar
1789 1789 1 0.0 364.26433177237027 296.3148795565619 330.27057549280477 # Ar
1790 1790 1 0.0 369.85831560589537 347.97457407685624 0.07214748537706964 # Ar
1791 1791 1 0.0 368.1775318176199 270.2014722537851 311.4720316078665 # Ar
1792 1792 1 0.0 179.23475505882894 372.45936561616963 341.0704341048365 # Ar
1793 1793 1 0.0 173.83821879417525 399.37973683934297 337.4590622858096 # Ar
1794 1794 1 0.0 339.0390732617406 440.8243257716194 288.04879299391837 # Ar
1795 1795 1 0.0 121.83992466312819 434.95398841867194 229.8917339565885 # Ar
1796 1796 1 0.0 502.15519595201965 87.80513070544032 0.6748553314068033 # Ar
1797 1797 1 0.0 31.4426499934324 14.827903034922187 100.83780968100244 # Ar
1798 1798 1 0.0 326.63175691322385 1.1665508858211537 473.9529867624316 # Ar
1799 1799 1 0.0 476.4739530674698 432.8311943294653 433.5231956039058 # Ar
1800 1800 1 0.0 147.1948013379066 387.06819267450476 94.18148775474496 # Ar
1801 1801 1 0.0 422.70356371338005 27.07347584395822 333.3908263773929 # Ar
1802 1802 1 0.0 371.8398415296943 487.4338681941389 423.75607484543167 # Ar
1803 1803 1 0.0 470.67067258910544 391.0262769969824 19.58592390616706 # Ar
1804 1804 1 0.0 40.100574983576266 363.1289579373616 294.60970984420453 # Ar
1805 1805 1 0.0 333.8220253802835 422.5474445509739 156.08311683371033 # Ar
1806 1806 1 0.0 296.42099979197604 339.0147792610144 437.7213828548842 # Ar
1807 1807 1 0.0 407.5692761767653 223.70730779958308 172.34652093571313 # Ar
1808 1808 1 0.0 204.8120115121996 1.3596352350501315 122.10228352331141 # Ar
1809 1809 1 0.0 46.715391702760776 82.93936090445445 389.6120796844145 # Ar
1810 1810 1 0.0 93.04236164104738 354.8651070589936 502.04945672080896 # Ar
1811 1811 1 0.0 330.4584297918191 56.656561501790385 123.49410414530749 # Ar
1812 1812 1 0.0 176.42495401744821 99.88589266111968 328.7714287985745 # Ar
1813 1813 1 0.0 141.37108913216224 390.7565403036628 385.7727500955072 # Ar
1814 1814 1 0.0 400.946096719525 497.204184213947 141.90503602098048 # Ar
1815 1815 1 0.0 393.0941464393795 426.75319646351835 81.59579345451561 # Ar
1816 1816 1 0.0 393.760441607349 121.85712468196287 37.53071020480089 # Ar
1817 1817 1 0.0 109.91015554021195 302.10290214364477 359.9470130016354 # Ar
1818 1818 1 0.0 469.93686866205036 333.4212450151664 311.88681774179156 # Ar
1819 1819 1 0.0 416.772645740405 216.03962264745763 329.9943005827855 # Ar
1820 1820 1 0.0 302.43985668891725 65.73889199841338 452.82141261345873 # Ar
1821 1821 1 0.0 251.11123850956176 182.53485026221693 367.0289410945883 # Ar
1822 1822 1 0.0 162.06891460423722 105.24589525427847 121.70469889040521 # Ar
1823 1823 1 0.0 308.7434849969275 193.61149031402329 363.8504751190383 # Ar
1824 1824 1 0.0 455.6183259624037 323.3482207763451 326.3081052235451 # Ar
1825 1825 1 0.0 395.18878829520065 207.4514041399934 15.06998282857251 # Ar
1826 1826 1 0.0 19.573363281648255 80.48702958737634 54.013948728500196 # Ar
1827 1827 1 0.0 241.01892854674682 503.52370095615834 168.2006640811266 # Ar
1828 1828 1 0.0 135.2485378875895 489.8286170676786 484.81981326919373 # Ar
1829 1829 1 0.0 152.24262962279664 205.34076736469646 178.35462189399723 # Ar
1830 1830 1 0.0 120.52496685623021 46.87369856231669 224.1671939216818 # Ar
1831 1831 1 0.0 139.67440609558125 104.4340956748125 86.34510463580621 # Ar
1832 1832 1 0.0 287.0006495670423 277.486722572369 425.29617433706323 # Ar
1833 1833 1 0.0 446.29620056571616 432.1129463677504 333.85444559222964 # Ar
1834 1834 1 0.0 60.58148288854366 169.9699851114564 438.3915236852004 # Ar
1835 1835 1 0.0 185.29081924167122 509.35812477809174 269.2984170061262 # Ar
1836 1836 1 0.0 183.1007800502987 429.59419847981724 138.96537265639412 # Ar
1837 1837 1 0.0 363.33308792656055 473.53700069220514 281.98580446941673 # Ar
1838 1838 1 0.0 330.33811096316 286.21925799504385 408.2231714294839 # Ar
1839 1839 1 0.0 444.0942517068742 388.0578660287339 503.449964839195 # Ar
1840 1840 1 0.0 149.75322823707296 44.41562626237243 415.26952057484704 # Ar
1841 1841 1 0.0 142.8145292418778 408.33215809922393 271.38036293013806 # Ar
1842 1842 1 0.0 375.49207737193257 173.80330740553433 86.9920675439959 # Ar
1843 1843 1 0.0 455.6175901427393 481.41292625265953 259.06142656448054 # Ar
1844 1844 1 0.0 377.7473339851835 235.78028690404966 26.752596237094835 # Ar
1845 1845 1 0.0 476.63420389909567 15.772038481164737 90.37160720921958 # Ar
1846 1846 1 0.0 506.85686808518483 435.4940694176481 135.01972448007558 # Ar
1847 1847 1 0.0 271.6973458455051 485.89517135652335 163.52301889340683 # Ar
1848 1848 1 0.0 157.9621314486818 306.79770828921244 470.5414000844405 # Ar
1849 1849 1 0.0 309.5477365033015 489.23557340192497 276.75517417978074 # Ar
1850 1850 1 0.0 292.6844627603979 444.9940891899812 57.07969219446625 # Ar
1851 1851 1 0.0 78.3688269857639 201.7844250108897 62.948587623377726 # Ar
1852 1852 1 0.0 233.25474893232848 492.1144450989205 495.75452023213955 # Ar
1853 1853 1 0.0 333.0416562185122 175.85104415157357 94.67622085439164 # Ar
1854 1854 1 0.0 477.71492865109985 343.8337514346365 417.28671705134906 # Ar
1855 1855 1 0.0 248.46267629027417 141.22805104956325 119.84541604241971 # Ar
1856 1856 1 0.0 224.06759387753868 263.66258912835906 206.36259208420924 # Ar
1857 1857 1 0.0 462.37328354522475 310.5115780100009 102.53169172282496 # Ar
1858 1858 1 0.0 124.40986306024045 417.87673439759953 394.0910398039631 # Ar
1859 1859 1 0.0 261.6465757565142 489.6275588554834 222.16298644247905 # Ar
1860 1860 1 0.0 43.37478469227474 283.0548880787644 240.06570489549753 # Ar
1861 1861 1 0.0 306.70964935382364 124.72796787362688 424.7017899409889 # Ar
1862 1862 1 0.0 343.31646818738716 292.76775091639473 428.2923941270423 # Ar
1863 1863 1 0.0 224.35066222645636 207.43580361746203 112.39464765384673 # Ar
1864 1864 1 0.0 64.13753697319285 331.71460115347645 121.84621878087111 # Ar
1865 1865 1 0.0 101.80718021210949 457.9226344839789 196.56047900530675 # Ar
1866 1866 1 0.0 96.4914559170284 80.65638809396178 278.87717233500905 # Ar
1867 1867 1 0.0 79.99062402424096 268.7455480455098 209.994477415322 # Ar
1868 1868 1 0.0 144.47012502766972 116.37184559152216 407.59530989374224 # Ar
1869 1869 1 0.0 168.76612923856678 281.33451730726176 244.69801973478255 # Ar
1870 1870 1 0.0 328.25615734888083 407.12548190901117 310.51647166335397 # Ar
1871 1871 1 0.0 479.28919867674205 31.48688369271556 406.6333476527686 # Ar
1872 1872 1 0.0 436.5814450719168 369.0375882145863 242.21360645608465 # Ar
1873 1873 1 0.0 342.56154170431927 485.49923903088757 274.60400280661344 # Ar
1874 1874 1 0.0 357.3643490004882 72.85095683590279 146.79648197883176 # Ar
1875 1875 1 0.0 429.2563158444173 212.56870444127793 102.58291379936894 # Ar
1876 1876 1 0.0 391.6729082340728 443.96722678178315 494.78070790886113 # Ar
1877 1877 1 0.0 57.553655281004524 70.22755639601323 486.810939848824 # Ar
1878 1878 1 0.0 239.44529018442987 369.5761042515947 83.47350523876428 # Ar
1879 1879 1 0.0 378.2949748121171 287.67298766483657 128.94944613601655 # Ar
1880 1880 1 0.0 472.7742794322174 495.1389230791947 292.4840010735922 # Ar
1881 1881 1 0.0 276.2658362009354 469.59124993551825 510.338615775505 # Ar
1882 1882 1 0.0 398.26771247025994 109.1742782166958 37.17018637172373 # Ar
1883 1883 1 0.0 412.7666719655457 198.6105003501049 305.4418391759787 # Ar
1884 1884 1 0.0 57.37449014725036 124.43202086690722 270.0248534682421 # Ar
1885 1885 1 0.0 374.243030874152 58.63153391234443 457.88954905167634 # Ar
1886 1886 1 0.0 40.07190615507112 72.79449319114329 12.468622265247276 # Ar
1887 1887 1 0.0 131.45254283944575 342.4038647260911 337.49294248076103 # Ar
1888 1888 1 0.0 51.64221178310774 175.15516883061565 245.8946710511767 # Ar
1889 1889 1 0.0 248.31533927856287 450.98090923882 349.3283133989081 # Ar
1890 1890 1 0.0 420.959621899439 472.625918617456 155.01402235756646 # Ar
1891 1891 1 0.0 511.2427871001923 121.4840700922206 305.3747288711006 # Ar
1892 1892 1 0.0 45.84587746139902 126.35660896551283 265.2947361382478 # Ar
1893 1893 1 0.0 314.0191853460814 384.7157453506271 134.6256723914753 # Ar
1894 1894 1 0.0 283.7495442955493 189.47012511449722 383.31014972502555 # Ar
1895 1895 1 0.0 208.37882201603767 117.04026947465096 411.4923746320512 # Ar
1896 1896 1 0.0 1.165697507592243 417.75392428048906 315.74965457589315 # Ar
1897 1897 1 0.0 487.33819016653365 482.06942951831394 186.11814004749127 # Ar
1898 1898 1 0.0 312.8519001544904 240.36782554988903 342.16723701052894 # Ar
1899 1899 1 0.0 299.53448763060834 74.41353888810013 284.7168679279331 # Ar
1900 1900 1 0.0 143.50072118879854 293.36913044975734 76.34079011161668 # Ar
1901 1901 1 0.0 488.1532952676267 162.11470253243579 267.4749614673507 # Ar
1902 1902 1 0.0 469.71019412645285 498.2561600500549 488.594814295271 # Ar
1903 1903 1 0.0 24.049742776014035 357.7297914753543 47.710322640059076 # Ar
1904 1904 1 0.0 308.7146905220256 82.96636171806294 467.5270577664767 # Ar
1905 1905 1 0.0 416.5003146322937 58.959422350593606 9.64120383532598 # Ar
1906 1906 1 0.0 476.4397627604324 230.27167974245307 425.0787902577915 # Ar
1907 1907 1 0.0 262.1428662872515 209.0592957606603 138.82188404740526 # Ar
1908 1908 1 0.0 450.8126498936775 333.4217827554909 356.02466297535176 # Ar
1909 1909 1 0.0 295.0549796107883 207.54958871892046 9.012644447290754 # Ar
1910 1910 1 0.0 287.3993805994913 278.8784097918767 17.40155052999699 # Ar
1911 1911 1 0.0 421.54845649794555 287.3488421248186 481.1767098445287 # Ar
1912 1912 1 0.0 53.02972798404468 92.85672163093444 416.28667966910433 # Ar
1913 1913 1 0.0 468.53918556848384 194.5486717873501 414.21316949087475 # Ar
1914 1914 1 0.0 366.83653879600047 41.741899686908695 412.1646103608127 # Ar
1915 1915 1 0.0 406.4783469054642 40.08533139979408 499.9137636930591 # Ar
1916 1916 1 0.0 383.61152484754416 80.72617062592694 138.92171253904536 # Ar
1917 1917 1 0.0 353.2238019676355 28.07801868038497 183.90427919307956 # Ar
1918 1918 1 0.0 304.0512952784982 354.04882917581244 370.19574881229835 # Ar
1919 1919 1 0.0 209.20129277307925 3.2103777036275862 284.8149945808931 # Ar
1920 1920 1 0.0 28.365105956906387 2.406201043593502 130.72164816562145 # Ar
1921 1921 1 0.0 234.82747625829595 191.85838486870688 266.928936161723 # Ar
1922 1922 1 0.0 455.75025084753395 381.0387061318544 53.728522047124436 # Ar
1923 1923 1 0.0 136.65715550724443 222.1587923583217 101.00740594166069 # Ar
1924 1924 1 0.0 374.75991202234275 457.113998084023 311.13459648487975 # Ar
1925 1925 1 0.0 331.55507455507643 472.895886940749 31.8952303063712 # Ar
1926 1926 1 0.0 396.1166320467768 2.9274868958573355 371.21689624379087 # Ar
1927 1927 1 0.0 435.87343902628237 278.116097198403 225.08158177836515 # Ar
1928 1928 1 0.0 137.9320284890342 394.20420900023294 454.26529748739364 # Ar
1929 1929 1 0.0 290.6015231182153 69.33870911553801 183.7997994192246 # Ar
1930 1930 1 0.0 347.32374551594 250.00567496883352 161.12354509979795 # Ar
1931 1931 1 0.0 249.4361515554616 441.3588629164804 208.28495032511063 # Ar
1932 1932 1 0.0 288.39344327264143 187.62707340522684 153.99455410012527 # Ar
1933 1933 1 0.0 312.3887766570521 341.3010123773392 144.13829579805625 # Ar
1934 1934 1 0.0 151.1493189416469 278.44477842421173 80.84008930448759 # Ar
1935 1935 1 0.0 481.3236257319046 482.51403276606413 431.63946731162207 # Ar
1936 1936 1 0.0 82.69173460153938 336.2444755837737 77.03526165239032 # Ar
1937 1937 1 0.0 471.69667428428465 68.76783556513371 67.43766198666042 # Ar
1938 1938 1 0.0 346.80748070297216 236.02042601540919 0.3723024105521069 # Ar
1939 1939 1 0.0 291.29123041499014 385.70938404346924 173.75770880700298 # Ar
1940 1940 1 0.0 418.72730914025266 416.2852062902015 496.4211815369992 # Ar
1941 1941 1 0.0 442.8942347657665 67.36850525918787 190.14099724900868 # Ar
1942 1942 1 0.0 491.10996160104867 242.81090405873346 3.8186235410525335 # Ar
1943 1943 1 0.0 181.48033657249556 96.55934922278678 264.8888625282071 # Ar
1944 1944 1 0.0 415.402023567371 332.7442719840604 92.24287871121986 # Ar
1945 1945 1 0.0 265.6656186025667 478.1232742268664 342.6444217126522 # Ar
1946 1946 1 0.0 269.31055945354257 295.1620526847562 171.37128682963507 # Ar
1947 1947 1 0.0 33.882072303411036 312.11783071372776 241.09060994828042 # Ar
1948 1948 1 0.0 236.92250031830724 88.66213288216645 38.84099494129902 # Ar
1949 1949 1 0.0 203.53330978964638 125.722497597388 15.922730292682548 # Ar
1950 1950 1 0.0 108.65151550557931 82.30370032172273 487.39633425163004 # Ar
1951 1951 1 0.0 374.6364071091323 129.07223723445728 455.91165803842625 # Ar
1952 1952 1 0.0 158.95636879514754 333.73267594754003 175.11541545571885 # Ar
1953 1953 1 0.0 278.3301439094096 420.72978013092336 403.35411619379806 # Ar
1954 1954 1 0.0 420.44285956662947 233.6136828011959 321.2092363247116 # Ar
1955 1955 1 0.0 202.32113170744856 40.29829309423734 481.26644644421947 # Ar
1956 1956 1 0.0 133.68836423398437 110.23955926971496 445.96626455402674 # Ar
1957 1957 1 0.0 332.8315568161104 254.63385112144016 509.97089189812476 # Ar
1958 1958 1 0.0 42.33244839944501 176.80125315824546 380.033161016101 # Ar
1959 1959 1 0.0 176.8904701898571 476.6672568876301 496.45413735574687 # Ar
1960 1960 1 0.0 384.4379365665518 162.47157776836875 28.945305672139064 # Ar
1961 1961 1 0.0 297.2043130647907 140.44767875168085 57.71033446383956 # Ar
1962 1962 1 0.0 103.37490121406456 146.87032927016597 433.12359055728416 # Ar
1963 1963 1 0.0 105.85132529706378 375.7351306211652 363.6115814153982 # Ar
1964 1964 1 0.0 373.21592481393867 355.3490501325784 24.614530111301693 # Ar
1965 1965 1 0.0 471.61747496338523 498.6060833162542 328.1238917965882 # Ar
1966 1966 1 0.0 393.99637137790376 37.108970150911574 224.30270797571472 # Ar
1967 1967 1 0.0 371.4998247565714 409.2117927848309 401.6922408908886 # Ar
1968 1968 1 0.0 312.311770760499 363.0948902315611 390.9765008498869 # Ar
1969 1969 1 0.0 504.4588688533379 59.67877919734893 286.31001442600655 # Ar
1970 1970 1 0.0 39.84261043834019 287.8819826970831 320.80104517001473 # Ar
1971 1971 1 0.0 16.651794815861784 212.42642720213044 89.20935598636353 # Ar
1972 1972 1 0.0 68.61266458245444 143.35697397735547 302.26643390360726 # Ar
1973 1973 1 0.0 197.44478312586014 353.5663845928627 158.86592557281296 # Ar
1974 1974 1 0.0 511.84160949665693 179.52528178948543 1.863408445836026 # Ar
1975 1975 1 0.0 390.305992081159 407.2953219862516 132.87898292470612 # Ar
1976 1976 1 0.0 192.50742212281497 201.54284105174088 312.03032213984164 # Ar
1977 1977 1 0.0 123.1862230695616 476.72318019481014 287.6017671377387 # Ar
1978 1978 1 0.0 471.2404021753589 210.3090288857085 370.4826925705694 # Ar
1979 1979 1 0.0 364.7380433815694 367.16898952976214 320.13546209704396 # Ar
1980 1980 1 0.0 484.0270451225315 184.06154611894206 286.3370862682482 # Ar
1981 1981 1 0.0 272.8312436162282 227.405320238558 315.9423513847647 # Ar
1982 1982 1 0.0 9.73101760355565 460.68971753502586 239.27058695035836 # Ar
1983 1983 1 0.0 164.72709419599735 286.23895739674856 46.84138600637829 # Ar
1984 1984 1 0.0 127.8731477944058 195.53548042631076 354.37859179172494 # Ar
1985 1985 1 0.0 510.3133531022577 415.04768915853947 420.9291931396423 # Ar
1986 1986 1 0.0 90.22250996822162 59.127587468151816 475.10283358220425 # Ar
1987 1987 1 0.0 168.1086567190838 78.48565931028885 62.97321692869945 # Ar
1988 1988 1 0.0 219.76771958724413 55.442166101057914 503.7508384266131 # Ar
1989 1989 1 0.0 146.47262285481753 215.31709691859336 408.9157157414667 # Ar
1990 1990 1 0.0 247.35100291833427 125.88060488963467 254.7980990778498 # Ar
1991 1991 1 0.0 502.1721710399437 481.3108878033249 276.03731953426484 # Ar
1992 1992 1 0.0 346.70373344673993 104.80761938235659 168.920827392755 # Ar
1993 1993 1 0.0 333.45971792510664 146.71004365722857 268.8166223682343 # Ar
1994 1994 1 0.0 28.731261989031314 351.05290287962686 150.8040632020613 # Ar
1995 1995 1 0.0 180.74911324395126 371.0703416635859 479.2852562506112 # Ar
1996 1996 1 0.0 23.14622466108378 491.39545334608994 162.65544893077853 # Ar
1997 1997 1 0.0 509.49950700881925 360.0528994649823 256.70090181672094 # Ar
1998 1998 1 0.0 505.08896771787255 138.4816714285732 48.63129000886042 # Ar
1999 1999 1 0.0 309.60059549467553 240.9604046804236 183.59679842035428 # Ar
2000 2000 1 0.0 127.39388305564628 501.9901762489057 406.1539445515383 # Ar
