LAMMPS data file -- atom_style full -- generated by chemfiles
2000 atoms
0 bonds
0 angles
0 dihedrals
0 impropers
1 atom types
0 bond types
0 angle types
0 dihedral types
0 improper types
0.00000000 1029.16629 xlo xhi
0.00000000 1029.16629 ylo yhi
0.00000000 1029.16629 zlo zhi

# Pair Coeffs
# 1 Ar

Masses

1 39.948 # Ar

Atoms # full

1 1 1 0.0 77.54576647591286 444.33464560796483 651.9200186636018 # Ar
2 2 1 0.0 3.945133903547245 236.68265995341497 39.33360106492019 # Ar
3 3 1 0.0 900.2966324840359 23.890982584986606 314.17908569642833 # Ar
4 4 1 0.0 880.0569273995771 400.20273180588293 26.235926492693252 # Ar
5 5 1 0.0 494.4877814560575 34.87144121817695 215.02384537079325 # Ar
6 6 1 0.0 659.2087875590157 284.6225796295038 310.2189036850904 # Ar
7 7 1 0.0 1010.7472951619843 608.4913952309877 773.0395470416992 # Ar
8 8 1 0.0 306.18357509559866 156.06767055529394 835.8067972014894 # Ar
9 9 1 0.0 827.0590442403934 380.19247336029326 145.83249113590696 # Ar
10 10 1 0.0 1024.8243775905435 713.6628292929064 271.31681123898386 # Ar
11 11 1 0.0 223.65825399951711 922.533865978307 187.10447988003932 # Ar
12 12 1 0.0 983.5050123890547 1011.3010913745909 535.3262948141746 # Ar
13 13 1 0.0 116.6516153484668 455.3892387636233 685.9081675057064 # Ar
14 14 1 0.0 493.80490246224616 123.89677479457207 990.5419294066991 # Ar
15 15 1 0.0 521.8869021755502 115.64365152697012 20.04319985327725 # Ar
16 16 1 0.0 411.59176751751284 275.2738382401924 340.6408112543368 # Ar
17 17 1 0.0 400.8829467652486 432.91392390236086 917.2244828171728 # Ar
18 18 1 0.0 320.4001817140987 956.1956498771079 608.6637633586727 # Ar
19 19 1 0.0 964.8229121421272 11.44073749473399 63.26464241144482 # Ar
20 20 1 0.0 977.7635999795729 776.3810382628541 65.46116622840817 # Ar
21 21 1 0.0 144.52963880637043 285.3139692429705 679.2920662269368 # Ar
22 22 1 0.0 54.9601235153562 939.7176644339676 733.8639216527936 # Ar
23 23 1 0.0 748.8149807535676 727.0146918470066 713.6676793193536 # Ar
24 24 1 0.0 503.93249650659726 492.62990127418345 377.1960941753002 # Ar
25 25 1 0.0 576.8333689550047 535.5049691450469 611.4387365498176 # Ar
26 26 1 0.0 834.5922223259616 857.7307104316361 247.65072023459086 # Ar
27 27 1 0.0 378.9666401178918 472.88179737217143 531.3557250284127 # Ar
28 28 1 0.0 269.7572762097374 553.8686926044442 532.6241793714369 # Ar
29 29 1 0.0 235.60339468865047 593.1574101644069 196.11088670125667 # Ar
30 30 1 0.0 482.2998715948983 769.9382714046197 312.0491865517677 # Ar
31 31 1 0.0 590.8396582335208 478.7645391657099 918.4757543008307 # Ar
32 32 1 0.0 158.12116271857684 1011.1709340757218 966.2522732286703 # Ar
33 33 1 0.0 235.56544725120162 373.8307871968014 774.4431668345472 # Ar
34 34 1 0.0 221.0010014536818 238.6835316841541 161.46192643443382 # Ar
35 35 1 0.0 292.88873709400633 992.1183454969254 888.7040361511247 # Ar
36 36 1 0.0 576.9214844991078 420.68970925891455 726.1139919032973 # Ar
37 37 1 0.0 303.50669933199566 597.6172820311756 920.063856340539 # Ar
38 38 1 0.0 146.84193107104934 855.6057200356264 849.4161306606248 # Ar
39 39 1 0.0 314.95571471826673 670.0770896204491 606.7734888773307 # Ar
40 40 1 0.0 501.99025044959006 483.1413121149926 209.47314943255515 # Ar
41 41 1 0.0 436.2182634103115 625.3713719911508 854.4005971657529 # Ar
42 42 1 0.0 142.41864238812155 26.16749000809956 759.4542815785923 # Ar
43 43 1 0.0 640.6759330567871 501.1753729947681 430.59217562992853 # Ar
44 44 1 0.0 221.8969181237902 554.5873234656983 67.54991766506679 # Ar
45 45 1 0.0 447.53241231895083 502.725114052973 156.986148684105 # Ar
46 46 1 0.0 843.486219169152 71.67471997286141 573.9687350521335 # Ar
47 47 1 0.0 262.292271354622 702.0357612119868 317.8312426010524 # Ar
48 48 1 0.0 231.6449201712296 222.29644882162913 291.5045640073334 # Ar
49 49 1 0.0 344.3229921196284 327.3871071728554 567.4610419067807 # Ar
50 50 1 0.0 441.85208023499854 958.6797015165378 348.8571779931723 # Ar
51 51 1 0.0 246.10075458750538 485.52049225225136 447.4849438617273 # Ar
52 52 1 0.0 63.59963926464857 440.03353677106156 730.4240747524213 # Ar
53 53 1 0.0 526.8716845417329 885.9610882753819 225.62565824681485 # Ar
54 54 1 0.0 208.39426981092967 62.74935197379164 91.04234199480175 # Ar
55 55 1 0.0 569.9652244682518 482.09933463312694 189.0149907530743 # Ar
56 56 1 0.0 906.1538598619416 1022.4982524798903 100.12668466595224 # Ar
57 57 1 0.0 884.1631045298885 911.5921484314163 159.9632060426312 # Ar
58 58 1 0.0 203.00312340149915 980.6550852223095 132.6009135152957 # Ar
59 59 1 0.0 752.0305957673846 35.210328292372594 310.14545101941246 # Ar
60 60 1 0.0 325.24049964045633 909.2518694298655 628.0440560092474 # Ar
61 61 1 0.0 700.6175503484297 235.7185927652865 445.652297273776 # Ar
62 62 1 0.0 335.3432790789552 978.7077808383581 964.7882974565681 # Ar
63 63 1 0.0 670.1908691488948 599.1090889946337 144.1597281643376 # Ar
64 64 1 0.0 993.9055171087339 843.2663692517125 689.9912933847005 # Ar
65 65 1 0.0 775.0426677837936 231.54796390002505 281.16930451750426 # Ar
66 66 1 0.0 289.7826613424764 156.26534127513816 1026.7801069062589 # Ar
67 67 1 0.0 611.4239494043659 246.0368599645986 114.264675334186 # Ar
68 68 1 0.0 527.5992734613476 128.13524039518427 113.79516683456404 # Ar
69 69 1 0.0 847.5631701771366 744.690871614247 61.55333046486273 # Ar
70 70 1 0.0 174.99127064143389 47.35403729173283 576.3961920262392 # Ar
71 71 1 0.0 456.84966103956214 406.57344521295846 28.00227708094132 # Ar
72 72 1 0.0 993.4967486345456 394.6895569083156 111.0203072693261 # Ar
73 73 1 0.0 999.2341324209432 500.4615715745732 802.5983633913636 # Ar
74 74 1 0.0 626.1295923888274 601.9417175481465 983.6008502773345 # Ar
75 75 1 0.0 715.9520917269267 714.4827264629399 899.837357598156 # Ar
76 76 1 0.0 676.1765492695524 1028.6238093503923 367.7456598239937 # Ar
77 77 1 0.0 831.1096262887 722.4352615388334 182.90681754401353 # Ar
78 78 1 0.0 582.706869642751 474.28433878356225 463.72229313966164 # Ar
79 79 1 0.0 811.874874555476 923.8802141045412 758.7359704228946 # Ar
80 80 1 0.0 1025.5244969935095 66.35844770339567 548.4813450174037 # Ar
81 81 1 0.0 171.82368171127743 560.1418096926576 736.7444709578648 # Ar
82 82 1 0.0 145.52951285379916 915.8438993642143 843.9835235656897 # Ar
83 83 1 0.0 223.40731664126577 41.999704734753216 216.21763143544595 # Ar
84 84 1 0.0 594.83428584146 583.7806866204853 184.20252766883488 # Ar
85 85 1 0.0 533.568670993819 456.24419531517145 848.6962363433045 # Ar
86 86 1 0.0 883.2854172543889 609.5285890455706 578.2049915067731 # Ar
87 87 1 0.0 171.76007685210692 431.3964998900979 934.2782139674197 # Ar
88 88 1 0.0 275.74169669720595 54.97422992206565 97.45144192958662 # Ar
89 89 1 0.0 648.7226561016962 816.1067979097973 22.109891738049015 # Ar
90 90 1 0.0 951.997686686547 772.1925332468423 933.469131058312 # Ar
91 91 1 0.0 671.296107529602 739.8437901219992 112.23302298010522 # Ar
92 92 1 0.0 74.45365576826977 849.5329473639995 684.5973112695472 # Ar
93 93 1 0.0 860.2260882610473 846.1096180490475 804.592449930244 # Ar
94 94 1 0.0 112.88144471387365 731.7928733560782 325.7067453242506 # Ar
95 95 1 0.0 592.1063694188263 203.09313841668228 283.19248821591924 # Ar
96 96 1 0.0 221.97815069569126 90.29499774705302 737.9541591977969 # Ar
97 97 1 0.0 736.2532249863533 490.37154837015953 345.5928400297142 # Ar
98 98 1 0.0 181.14687592234552 276.02578285478154 741.3769928814046 # Ar
99 99 1 0.0 673.8546358455657 59.526945090921096 66.01541252672314 # Ar
100 100 1 0.0 349.6771958337307 878.4483332210676 605.9798782642002 # Ar
101 101 1 0.0 829.7601279399987 674.0789695962443 29.10561179792094 # Ar
102 102 1 0.0 731.2207524793859 366.4753567229534 457.58507400177206 # Ar
103 103 1 0.0 169.60531573660646 645.3923726257309 563.2596685555602 # Ar
104 104 1 0.0 185.1649993130552 767.4459333265046 465.37761694886973 # Ar
105 105 1 0.0 707.8110507343189 295.5131877285525 33.7266631552845 # Ar
106 106 1 0.0 297.700493181139 645.6939676040133 371.8711442091673 # Ar
107 107 1 0.0 551.7435802089776 846.4991523271209 205.03862321019912 # Ar
108 108 1 0.0 947.9433589475167 213.3393202546442 663.4273107316354 # Ar
109 109 1 0.0 731.4962593703176 166.48485599790018 1023.1344795460292 # Ar
110 110 1 0.0 278.48171183079455 384.9892708208967 834.3240099231026 # Ar
111 111 1 0.0 707.6687540941839 334.32726186525156 43.67594016198686 # Ar
112 112 1 0.0 578.7307458174865 679.1783656661606 704.9258136486363 # Ar
113 113 1 0.0 740.605575432738 804.7824519342187 342.7389833396253 # Ar
114 114 1 0.0 126.27810455848247 89.70363496374199 797.4777823080138 # Ar
115 115 1 0.0 414.98179920962343 58.02976779990449 44.895764690829786 # Ar
116 116 1 0.0 948.7503051719865 717.2512173847506 930.2538032427501 # Ar
117 117 1 0.0 439.0235960928702 750.2837976454955 336.9153269868017 # Ar
118 118 1 0.0 158.02365686485825 755.0778562650328 138.00243252040678 # Ar
119 119 1 0.0 236.6377407030662 1024.472596168506 204.20694812657794 # Ar
120 120 1 0.0 725.3470750900651 742.2741394080198 167.52019505694005 # Ar
121 121 1 0.0 757.1556498848968 945.3133446602538 811.1508399373325 # Ar
122 122 1 0.0 734.3220233025039 694.4315739813635 11.045307596477647 # Ar
123 123 1 0.0 160.78514949673917 809.9453819721792 321.71530772227226 # Ar
124 124 1 0.0 951.9974052931697 991.4094230990008 363.9190978081405 # Ar
125 125 1 0.0 378.57960714616974 632.6188596785595 472.7012129288558 # Ar
126 126 1 0.0 121.97008123587607 472.65428651180264 88.71049032030379 # Ar
127 127 1 0.0 484.6872509603526 997.5659051654139 194.2716636379673 # Ar
128 128 1 0.0 107.07288670224675 690.8052669900216 113.37774004389026 # Ar
129 129 1 0.0 506.97711735779893 41.076000244289446 516.8203580457886 # Ar
130 130 1 0.0 428.97317593943234 166.16883958754067 339.62068323209564 # Ar
131 131 1 0.0 617.3221821065456 211.1107521819045 125.17771489668478 # Ar
132 132 1 0.0 700.5631899440949 819.9289484320307 695.2412638449758 # Ar
133 133 1 0.0 49.92933576450429 677.0368866328374 263.11481695516227 # Ar
134 134 1 0.0 972.4979300534092 327.16235771333834 304.34104806638135 # Ar
135 135 1 0.0 308.2444070052492 832.847118184233 793.7277026229592 # Ar
136 136 1 0.0 582.8840037850474 537.6951056237607 368.1265717882243 # Ar
137 137 1 0.0 532.8941448763223 449.1803967574246 634.796656548168 # Ar
138 138 1 0.0 208.89668700488943 483.027736255186 998.3635681519337 # Ar
139 139 1 0.0 170.85732876552083 473.1160446388932 253.846030750884 # Ar
140 140 1 0.0 984.800268854675 706.8930454876763 595.1491081644596 # Ar
141 141 1 0.0 437.3829605835531 856.1117018355147 184.89666428526692 # Ar
142 142 1 0.0 997.3064302539517 698.8848865927412 484.3048218526012 # Ar
143 143 1 0.0 970.411073029173 953.5839844692216 463.30007750561975 # Ar
144 144 1 0.0 609.0795375481216 556.5205637530416 50.29642403780399 # Ar
145 145 1 0.0 619.0521278997417 40.42363487173494 951.4111094628906 # Ar
146 146 1 0.0 363.4568249675693 855.1180406016418 523.6538695136326 # Ar
147 147 1 0.0 888.94434920387 530.3078282686122 131.68352485867754 # Ar
148 148 1 0.0 423.1119360343058 277.21575240846494 887.777821366351 # Ar
149 149 1 0.0 17.971303468432172 480.7910524583589 181.16928680854045 # Ar
150 150 1 0.0 157.31531178664574 452.75277342751923 979.4419655385985 # Ar
151 151 1 0.0 333.57138508691895 721.4477819174074 108.30247369084772 # Ar
152 152 1 0.0 715.2266661074589 747.0933702741453 631.3614945720187 # Ar
153 153 1 0.0 491.6664893229373 790.7113062265855 941.4677367239167 # Ar
154 154 1 0.0 975.1780726114881 626.7743769670384 443.9842362138295 # Ar
155 155 1 0.0 736.6827744475772 255.08578152669372 382.3178256437076 # Ar
156 156 1 0.0 467.66171622811777 140.3099355040309 951.7386146649588 # Ar
157 157 1 0.0 653.3084556771595 575.1968123264872 341.43464596970733 # Ar
158 158 1 0.0 587.8146362976216 543.55509398732 273.9059509769836 # Ar
159 159 1 0.0 143.09469895595376 715.4442236513036 108.61741194492635 # Ar
160 160 1 0.0 410.0195733787261 996.5842472791575 396.5476901221349 # Ar
161 161 1 0.0 796.4778040566688 20.047264313926394 838.3965707087722 # Ar
162 162 1 0.0 309.01140978181263 247.94736324087052 766.3967543965043 # Ar
163 163 1 0.0 257.4390947213715 619.1378224391841 398.04571554834837 # Ar
164 164 1 0.0 945.8256640190832 439.55197525366935 674.597314957913 # Ar
165 165 1 0.0 864.6866303862894 800.1607819039252 796.1361931857246 # Ar
166 166 1 0.0 347.84115580310106 695.8434882101124 470.0066017799936 # Ar
167 167 1 0.0 802.3323154947707 327.274364677607 834.3226174169434 # Ar
168 168 1 0.0 77.33200100730113 662.4806460863805 933.711124521899 # Ar
169 169 1 0.0 307.8353567081388 61.29387563122251 271.64695713174666 # Ar
170 170 1 0.0 319.63161691167556 789.3692190613747 781.1802886144762 # Ar
171 171 1 0.0 694.7405592889494 426.8765767126947 542.8772526788962 # Ar
172 172 1 0.0 143.7035900626613 426.9297641556907 597.4197982869163 # Ar
173 173 1 0.0 832.2501231318073 270.75647710864047 616.4532469770862 # Ar
174 174 1 0.0 946.4254924512045 463.64870462288866 524.2983906435932 # Ar
175 175 1 0.0 672.4289499044181 678.7630823116702 514.2768796627618 # Ar
176 176 1 0.0 476.9482456707623 415.9476800342338 773.2509211769838 # Ar
177 177 1 0.0 380.1397837373035 150.7226807185043 857.0156571477681 # Ar
178 178 1 0.0 638.0888908755089 185.909367733654 281.74932495078485 # Ar
179 179 1 0.0 198.22464049149534 199.35437405598316 331.46346608888166 # Ar
180 180 1 0.0 651.4704348453428 495.86138454676455 795.6693779564779 # Ar
181 181 1 0.0 687.1627239495839 608.3061919158242 239.33778171069923 # Ar
182 182 1 0.0 119.83982460744978 920.2966258878515 507.44981508289993 # Ar
183 183 1 0.0 156.29765665014352 968.5006879921928 305.0577513256815 # Ar
184 184 1 0.0 1022.3182285405865 460.62969822670294 903.6499552557898 # Ar
185 185 1 0.0 137.06331960127733 630.8279682458854 745.0106827913128 # Ar
186 186 1 0.0 207.64615356401669 257.07898379410005 689.3425362813921 # Ar
187 187 1 0.0 738.4240136873542 320.5672621062261 492.5693276209156 # Ar
188 188 1 0.0 981.991806298744 301.7047622158734 544.1694910926539 # Ar
189 189 1 0.0 881.2180923000211 103.303200783196 444.5178987564159 # Ar
190 190 1 0.0 674.2893815995096 189.56325121944292 663.3135078123892 # Ar
191 191 1 0.0 201.76437044558307 307.21376506733014 600.9570137927649 # Ar
192 192 1 0.0 955.3918288887464 2.231268390783416 1000.3222606055463 # Ar
193 193 1 0.0 1006.2763745712597 212.79452088783216 310.2720376066128 # Ar
194 194 1 0.0 351.80711990402403 336.3892084696961 995.7775342333332 # Ar
195 195 1 0.0 609.23530801973 942.8641525763217 70.19097448165692 # Ar
196 196 1 0.0 885.7773696225794 819.2084904473194 581.1962435192298 # Ar
197 197 1 0.0 268.7903712174872 306.05200975476413 788.8355798713073 # Ar
198 198 1 0.0 629.979952926868 248.94278793064038 701.6359989994321 # Ar
199 199 1 0.0 394.09411155015573 953.9621254566803 195.78231120264286 # Ar
200 200 1 0.0 509.0499933009075 461.4475780417793 934.6201693943532 # Ar
201 201 1 0.0 552.2276716325197 605.3857521703093 226.1946250978444 # Ar
202 202 1 0.0 683.6592097935646 825.4187880280007 415.59450148741104 # Ar
203 203 1 0.0 703.253728950005 712.0022237162108 532.2755852862555 # Ar
204 204 1 0.0 45.814410499855605 117.16823622283619 872.8196140337785 # Ar
205 205 1 0.0 234.72178845373236 13.096071165584492 296.8130901023155 # Ar
206 206 1 0.0 265.81776186999264 786.3360382640889 923.5294638245089 # Ar
207 207 1 0.0 958.2916378471521 236.36076949808495 994.4067244645831 # Ar
208 208 1 0.0 100.81868481433224 875.236547440267 980.7517665692009 # Ar
209 209 1 0.0 83.52991117377748 998.4763593614788 667.6002637703972 # Ar
210 210 1 0.0 713.923875014071 731.8148495313916 150.68988286242399 # Ar
211 211 1 0.0 808.2320775806777 881.3526262394676 233.3555499477612 # Ar
212 212 1 0.0 695.8235163774901 233.6376699846531 35.70633790957781 # Ar
213 213 1 0.0 341.82620305819466 296.45639989061834 16.228398772733055 # Ar
214 214 1 0.0 915.9726094050194 259.810937048625 190.5304627309166 # Ar
215 215 1 0.0 137.34310311562282 942.9639754019062 1000.5894886658112 # Ar
216 216 1 0.0 682.49244058365 441.51267666966254 435.3170692713401 # Ar
217 217 1 0.0 202.29101851871798 722.9108354192199 243.45625846044877 # Ar
218 218 1 0.0 456.2898171007172 329.88613450988515 587.3874177339094 # Ar
219 219 1 0.0 252.83624271475273 473.50152874810215 648.6812769038888 # Ar
220 220 1 0.0 706.9528518325014 65.16127043057018 222.74048845036785 # Ar
221 221 1 0.0 126.55757703232773 603.1576080649567 141.74834774139435 # Ar
222 222 1 0.0 979.3447093986154 1010.6756231191574 800.0680622706878 # Ar
223 223 1 0.0 699.5012288419649 895.8133127628606 680.0935895324557 # Ar
224 224 1 0.0 582.8691526031182 465.53395650861154 655.307318785605 # Ar
225 225 1 0.0 340.3790122605928 703.6330797254884 234.6394359487648 # Ar
226 226 1 0.0 956.2316014939386 112.90826027217057 249.67941508339243 # Ar
227 227 1 0.0 730.6262783076802 68.87903503219155 83.33231334458897 # Ar
228 228 1 0.0 824.5030331044567 209.02062456486806 335.2243505699613 # Ar
229 229 1 0.0 679.3349147889049 751.5488572900542 17.435935353775168 # Ar
230 230 1 0.0 929.6700392511314 60.38044960194412 200.01694968614333 # Ar
231 231 1 0.0 301.12518291767134 306.2172421852234 415.10165554120687 # Ar
232 232 1 0.0 888.493544732347 602.0621380014309 557.6313346426508 # Ar
233 233 1 0.0 415.71921977690215 238.04127008967544 427.3650799410579 # Ar
234 234 1 0.0 360.3877931033652 781.8674544711191 447.7481624574908 # Ar
235 235 1 0.0 427.0514415555782 468.2074147705494 118.13420753366171 # Ar
236 236 1 0.0 862.5570380412329 389.02076366380874 555.0638279434816 # Ar
237 237 1 0.0 48.3781010810808 431.2974784587671 440.8806608983387 # Ar
238 238 1 0.0 673.4295620872771 447.42003040869116 173.27696730458777 # Ar
239 239 1 0.0 252.74225248069908 919.0423391108438 393.1061390490337 # Ar
240 240 1 0.0 713.906740711646 298.07690961900965 439.9623403438725 # Ar
241 241 1 0.0 141.7233263439884 290.41397097138633 269.72671611444224 # Ar
242 242 1 0.0 240.33941723839507 630.2367561446107 381.97656898221294 # Ar
243 243 1 0.0 104.62431301826955 706.120978102913 680.626260980921 # Ar
244 244 1 0.0 641.9153249199583 233.44025733073988 318.0438971727353 # Ar
245 245 1 0.0 7.119757334996301 786.0949198700982 26.84971511816878 # Ar
246 246 1 0.0 725.5283342265074 207.5073024027018 209.18972799418916 # Ar
247 247 1 0.0 236.51954352223282 865.3597445660354 315.46436403350424 # Ar
248 248 1 0.0 849.6726729773737 501.8158717442099 310.432478653953 # Ar
249 249 1 0.0 459.12958488616044 19.13600844875903 264.02197263873154 # Ar
250 250 1 0.0 658.1070108016253 196.777271921381 298.85731560952917 # Ar
251 251 1 0.0 345.69069045998083 359.77918525315107 844.1139250601474 # Ar
252 252 1 0.0 664.6241703719644 871.9220474233673 285.1478193409598 # Ar
253 253 1 0.0 943.558341172505 478.87102089777636 903.2281070125545 # Ar
254 254 1 0.0 312.0146430784106 112.23553901899562 741.0302752743146 # Ar
255 255 1 0.0 916.2739613989045 859.6995343790296 785.7197119423624 # Ar
256 256 1 0.0 337.6188409443907 968.4161394284808 166.37952992007348 # Ar
257 257 1 0.0 749.9419073531016 336.6572875452512 650.3019112111205 # Ar
258 258 1 0.0 468.79871137712263 625.080033421302 764.5240743276289 # Ar
259 259 1 0.0 839.1019914279011 282.4795488144703 37.73050241986108 # Ar
260 260 1 0.0 432.15962706423153 78.69530736400522 308.12853807112094 # Ar
261 261 1 0.0 520.9767061342 748.2936679808589 51.33542521741773 # Ar
262 262 1 0.0 340.89938635148724 917.6803719288097 924.7165165050955 # Ar
263 263 1 0.0 778.6924372276837 730.2060240332269 955.5089549597385 # Ar
264 264 1 0.0 76.90454117945987 233.753013427351 510.3618827817462 # Ar
265 265 1 0.0 880.4802229921141 687.1120651884452 206.14317372726407 # Ar
266 266 1 0.0 549.7358798661302 916.7820848464389 846.8602687550226 # Ar
267 267 1 0.0 203.9175038633703 468.72740721810663 113.74094884501258 # Ar
268 268 1 0.0 396.2679276823437 980.9543854619582 579.6396553746441 # Ar
269 269 1 0.0 575.5708092601311 273.52162362737033 144.85174612862056 # Ar
270 270 1 0.0 770.9835262618448 291.96094387379816 567.3712537523478 # Ar
271 271 1 0.0 647.5640119868173 638.0421191564054 592.4403157173593 # Ar
272 272 1 0.0 95.7397505089428 104.80831077679832 299.1596686726576 # Ar
273 273 1 0.0 491.3321924805826 155.62227053786785 491.9228516154966 # Ar
274 274 1 0.0 845.7777762777955 44.6808430970736 118.0356641306383 # Ar
275 275 1 0.0 705.8484570365433 525.6280423025162 137.37091555195704 # Ar
276 276 1 0.0 398.63232354106276 146.85222546890918 949.0656621319802 # Ar
277 277 1 0.0 52.72462141441527 45.873639782886265 455.33192818545524 # Ar
278 278 1 0.0 525.7060299934476 128.65449211402344 621.9051541392103 # Ar
279 279 1 0.0 484.7701939533249 871.1808765928428 781.1500593188058 # Ar
280 280 1 0.0 863.855094489558 865.0645608726878 576.8699841046372 # Ar
281 281 1 0.0 598.3547320390461 364.0809569808163 92.71889304496999 # Ar
282 282 1 0.0 810.6995826942066 996.0340958736369 978.1986934012047 # Ar
283 283 1 0.0 96.73817812791852 648.5333303141821 551.8163111162754 # Ar
284 284 1 0.0 608.0168838830919 397.7859223801861 366.0935727969835 # Ar
285 285 1 0.0 750.7706921539716 54.01108652308026 427.3820201603673 # Ar
286 286 1 0.0 659.3083069606465 976.9432765605796 807.105598219079 # Ar
287 287 1 0.0 134.58132807297838 27.342014830371788 850.0901660414225 # Ar
288 288 1 0.0 842.941710443448 591.7272655673808 752.504192710336 # Ar
289 289 1 0.0 219.67949823245272 797.4988988088861 400.68111283216126 # Ar
290 290 1 0.0 672.3162376331956 554.4982498242956 943.943584725437 # Ar
291 291 1 0.0 1000.5681781439313 71.38527902304082 377.9950063743177 # Ar
292 292 1 0.0 518.2034515500039 243.16652977977088 191.64210109888165 # Ar
293 293 1 0.0 335.90466988611763 947.4655937845457 536.0073011400756 # Ar
294 294 1 0.0 422.0247023799779 574.5300469268 119.56964510987748 # Ar
295 295 1 0.0 656.29030942146 390.60780972420383 741.2205045454247 # Ar
296 296 1 0.0 30.089159355027622 935.0302258042235 874.067913055148 # Ar
297 297 1 0.0 315.83599387637787 936.985902733388 0.03729036055108875 # Ar
298 298 1 0.0 765.3466816787312 892.6108025301778 159.7860611570735 # Ar
299 299 1 0.0 218.0864460504624 1012.7418883963085 873.4478138381947 # Ar
300 300 1 0.0 68.87080861771739 654.5586261590056 343.3521219528966 # Ar
301 301 1 0.0 980.2046964612174 697.9314454130551 1011.9960030773632 # Ar
302 302 1 0.0 362.9924665732044 986.1786390472006 337.1732296652621 # Ar
303 303 1 0.0 945.9264403922375 607.9002158067888 452.10784002536207 # Ar
304 304 1 0.0 925.0560788232422 933.698701395883 631.2509607943387 # Ar
305 305 1 0.0 991.8215182502985 679.1445257121601 877.0728246642706 # Ar
306 306 1 0.0 327.4494924587688 19.366745331709396 1011.9702727190647 # Ar
307 307 1 0.0 138.97455509009689 966.4765649235303 927.0491053481403 # Ar
308 308 1 0.0 464.9339017771829 433.47509506588085 266.5405094259601 # Ar
309 309 1 0.0 142.62830403104184 285.9287904797421 53.2650285728901 # Ar
310 310 1 0.0 890.1069226524631 272.9489124064098 343.5427566277192 # Ar
311 311 1 0.0 130.72193876384776 683.5190991333297 383.9504328011596 # Ar
312 312 1 0.0 573.543951103851 471.69625626004967 586.1438721193305 # Ar
313 313 1 0.0 989.7647548447621 829.8607232153036 288.0047457285403 # Ar
314 314 1 0.0 255.55334321259858 872.6525793689942 495.74651779319726 # Ar
315 315 1 0.0 717.4021717047051 239.41674031765697 862.8360220571494 # Ar
316 316 1 0.0 367.8137426657331 508.7719084248199 433.29992292347697 # Ar
317 317 1 0.0 442.37306393080763 734.8304540242033 478.6803411851681 # Ar
318 318 1 0.0 609.9016565674488 902.9564746782199 548.5064068344192 # Ar
319 319 1 0.0 856.2056263225536 31.96528371325101 189.10280242619737 # Ar
320 320 1 0.0 653.739553770994 610.8785203913123 915.3475388904989 # Ar
321 321 1 0.0 10.620958897897097 926.8781810358296 56.29061034954672 # Ar
322 322 1 0.0 305.59311287246135 623.5289221992261 115.64243213062414 # Ar
323 323 1 0.0 172.2496294915116 313.4914687795768 362.1176827007068 # Ar
324 324 1 0.0 466.64520236915683 977.8873551612545 992.1671384808209 # Ar
325 325 1 0.0 51.30575500434786 738.2207284750459 357.57558940323446 # Ar
326 326 1 0.0 705.9537877027682 864.6350933837829 924.7701108641713 # Ar
327 327 1 0.0 566.4236792604222 995.1899981857398 329.70755586433455 # Ar
328 328 1 0.0 969.8750748836801 996.814842616414 262.62846497639987 # Ar
329 329 1 0.0 884.8331992833753 475.56316258064817 437.8913017740504 # Ar
330 330 1 0.0 959.0925627994197 392.025716760739 226.1490555930381 # Ar
331 331 1 0.0 403.50037422785596 727.4042400316129 675.8922522748699 # Ar
332 332 1 0.0 106.23273415088266 940.8220386698557 852.1575875610943 # Ar
333 333 1 0.0 387.76583202234076 856.1759847630236 702.5345174820926 # Ar
334 334 1 0.0 130.4304436140127 803.3902760000151 116.57045307332375 # Ar
335 335 1 0.0 463.6921739659988 37.56858662302916 219.778090119451 # Ar
336 336 1 0.0 157.859791045373 810.273707212185 300.9860136383871 # Ar
337 337 1 0.0 559.8341604029495 961.0525543753216 381.9489391493909 # Ar
338 338 1 0.0 504.2079461231057 319.09798306531025 647.6487323590486 # Ar
339 339 1 0.0 1012.2312137576314 550.3741306502236 96.28099942363279 # Ar
340 340 1 0.0 898.7566354853304 259.1704586466874 31.94007059633464 # Ar
341 341 1 0.0 42.501756033193416 310.409825155228 480.84147992068665 # Ar
342 342 1 0.0 504.9321526817228 351.8812657041204 227.25110809415548 # Ar
343 343 1 0.0 894.201918440571 101.12926243543438 262.29761492460636 # Ar
344 344 1 0.0 650.4533350019165 1027.451855823751 771.4233563627125 # Ar
345 345 1 0.0 457.666523293078 507.50855842490677 126.59538685451145 # Ar
346 346 1 0.0 207.97842667404714 449.70239190510034 411.66169826727184 # Ar
347 347 1 0.0 1021.2699122210973 935.0984224399606 983.5985964481745 # Ar
348 348 1 0.0 233.90197292116488 696.6363208070404 261.2624778989752 # Ar
349 349 1 0.0 67.69980079880743 811.6854760401824 842.4845719777553 # Ar
350 350 1 0.0 34.39488521527174 785.3149460670807 886.507722155255 # Ar
351 351 1 0.0 739.2741478140065 559.3385715965914 358.74551546403245 # Ar
352 352 1 0.0 432.08532959645316 243.19113877657384 420.47994660235105 # Ar
353 353 1 0.0 1027.6909395463822 893.0356815015379 177.74732957774813 # Ar
354 354 1 0.0 225.46616052597176 15.781529554266125 34.97890286289003 # Ar
355 355 1 0.0 176.29562573459577 594.2789323809307 241.42815192477562 # Ar
356 356 1 0.0 306.92701004961486 919.2257747913567 330.6522673135242 # Ar
357 357 1 0.0 169.57298534066064 691.2850982389482 838.8499178681501 # Ar
358 358 1 0.0 693.6035757508256 652.9626580231152 77.09689886950876 # Ar
359 359 1 0.0 924.1651141753699 553.3137276081493 926.3301741723099 # Ar
360 360 1 0.0 858.5297275017309 963.1708251867865 58.56032756917378 # Ar
361 361 1 0.0 421.7470104437182 378.7208558878132 42.04501302203387 # Ar
362 362 1 0.0 1016.9897227014061 611.5064363681612 944.0995796290132 # Ar
363 363 1 0.0 735.5765641766188 765.3625086350507 348.72402046455306 # Ar
364 364 1 0.0 908.1223385327983 354.0601500725948 188.1840655308723 # Ar
365 365 1 0.0 922.0902667157986 783.5651161221583 58.93411583486801 # Ar
366 366 1 0.0 106.56541173856814 232.20687988928105 1014.8740610395095 # Ar
367 367 1 0.0 857.2433909922294 773.6554364123178 757.5203873460081 # Ar
368 368 1 0.0 916.4859137238532 303.31026920050095 545.4431956676825 # Ar
369 369 1 0.0 825.7987970432941 36.396887671101275 300.3928162489982 # Ar
370 370 1 0.0 375.665061050407 927.1138354819277 122.81635815954338 # Ar
371 371 1 0.0 606.2408159642777 487.5772788907113 706.356203960359 # Ar
372 372 1 0.0 826.3371023686723 935.1754428891956 469.0553167565067 # Ar
373 373 1 0.0 752.7480392631613 216.7228620942083 91.42356302249614 # Ar
374 374 1 0.0 649.0051088754386 810.4163812769302 25.03346605481393 # Ar
375 375 1 0.0 230.28483622060568 436.3756688746197 858.017981115359 # Ar
376 376 1 0.0 130.3881407880209 416.96571453696936 460.14436336170087 # Ar
377 377 1 0.0 589.056973784235 329.85453334104324 448.3019997168923 # Ar
378 378 1 0.0 341.8828433818088 510.07953950172464 421.42106005592063 # Ar
379 379 1 0.0 899.498507330013 902.886284528475 462.32829116891764 # Ar
380 380 1 0.0 634.5398743846479 746.4025708899977 786.7238028574195 # Ar
381 381 1 0.0 997.1428498764044 679.0379250975881 821.6085388976315 # Ar
382 382 1 0.0 146.30127226509026 737.8882656208499 997.9751231193662 # Ar
383 383 1 0.0 385.1267212293105 588.463632423084 975.7789867419899 # Ar
384 384 1 0.0 439.2342240121395 492.3040124279087 489.97717280443817 # Ar
385 385 1 0.0 366.71066781122664 341.35282895701954 492.1183896984176 # Ar
386 386 1 0.0 145.07367764290564 127.88100640948385 147.71972309339526 # Ar
387 387 1 0.0 237.07256179243208 689.7101905996773 566.7964687268542 # Ar
388 388 1 0.0 612.8390247977233 363.22734755631217 250.63224345939653 # Ar
389 389 1 0.0 780.1809420873449 545.6226303055513 905.772784231844 # Ar
390 390 1 0.0 287.81276786721054 196.8854324788896 307.5089830647712 # Ar
391 391 1 0.0 859.9551250975649 201.51604787148608 37.79189409718272 # Ar
392 392 1 0.0 632.045563544749 463.04931074349435 262.33317506292224 # Ar
393 393 1 0.0 972.0571719367122 523.8307913528166 660.3688316368006 # Ar
394 394 1 0.0 333.39054679263523 224.61235132056336 804.8603558731555 # Ar
395 395 1 0.0 464.70072132878505 166.087739546251 891.8078165489941 # Ar
396 396 1 0.0 901.8277310839969 766.4746603563957 142.45568139624635 # Ar
397 397 1 0.0 1001.3577861214459 873.2027404361487 227.13082648718083 # Ar
398 398 1 0.0 68.8213495362702 553.2131765072484 154.6896718930849 # Ar
399 399 1 0.0 780.9317644515253 912.7543667832651 743.1522500985335 # Ar
400 400 1 0.0 1022.7451037808011 585.7528519478547 333.7941477729806 # Ar
401 401 1 0.0 339.5578847674971 787.5075014631815 51.57067439748294 # Ar
402 402 1 0.0 602.5119298238955 548.4925609204346 111.5609618417514 # Ar
403 403 1 0.0 205.99918000658514 74.94192863701836 718.637985094388 # Ar
404 404 1 0.0 807.2588078832532 8.816666869539235 465.01289992985414 # Ar
405 405 1 0.0 784.4558071334865 739.6055566079579 448.7363844794311 # Ar
406 406 1 0.0 15.342436110503652 412.6843368193824 391.59295914120185 # Ar
407 407 1 0.0 974.5125025622972 929.0693712207466 1019.1002130065202 # Ar
408 408 1 0.0 804.4539227101889 504.8490919668031 573.4529330745319 # Ar
409 409 1 0.0 371.99645417480883 80.12586975393154 474.3971543033417 # Ar
410 410 1 0.0 151.0607657533356 43.83697958517408 493.42004742674663 # Ar
411 411 1 0.0 460.6305674602999 760.2223644220605 431.5109038532737 # Ar
412 412 1 0.0 909.0461457950197 607.5975838863034 10.231254656755127 # Ar
413 413 1 0.0 346.5685825453239 540.5905642204951 455.61107013874533 # Ar
414 414 1 0.0 10.728773971626035 646.4793615221945 834.170580157831 # Ar
415 415 1 0.0 674.0636863312837 75.44450338325896 561.4468779374336 # Ar
416 416 1 0.0 792.8657704787187 804.405297564077 745.0536292923731 # Ar
417 417 1 0.0 217.34757022688666 671.1166939063725 200.9709672941639 # Ar
418 418 1 0.0 497.6937435569598 559.1284504970646 919.096960558623 # Ar
419 419 1 0.0 1015.8242236511226 517.2219486903284 1015.6180656357153 # Ar
420 420 1 0.0 333.5816701695646 566.8750608801217 613.7328633448245 # Ar
421 421 1 0.0 387.0811164664677 920.3194227080835 731.8390251584715 # Ar
422 422 1 0.0 559.5725621693298 121.24797411677028 811.3899731805493 # Ar
423 423 1 0.0 601.4141617624174 466.2885981882067 435.125845643624 # Ar
424 424 1 0.0 355.2396648049646 409.0576529065626 63.25349104174955 # Ar
425 425 1 0.0 518.2939326185483 172.67560301049988 174.20755770030752 # Ar
426 426 1 0.0 371.9256923200482 912.0031981042702 153.1663988693506 # Ar
427 427 1 0.0 92.59678680789388 980.2974637815897 844.2203173997857 # Ar
428 428 1 0.0 195.54543186617306 827.8887548830642 287.75268151883006 # Ar
429 429 1 0.0 824.8581815213093 163.48355726403636 182.58808782513918 # Ar
430 430 1 0.0 171.55427667959285 682.3094154130624 492.7086351410587 # Ar
431 431 1 0.0 211.38217725241526 145.9087690400806 560.2904454527915 # Ar
432 432 1 0.0 869.427878772204 1013.069311845619 109.11562854215147 # Ar
433 433 1 0.0 510.6028877440786 295.03142748525727 235.05985918864707 # Ar
434 434 1 0.0 942.5078703367501 1020.6873075635281 961.0384580481128 # Ar
435 435 1 0.0 1003.704303532988 864.0132318442052 331.25267444366483 # Ar
436 436 1 0.0 541.0462669530955 239.980862020885 948.2443399973793 # Ar
437 437 1 0.0 665.8252456784725 343.43115030832337 546.0941259096682 # Ar
438 438 1 0.0 998.9732919240481 239.36263697334363 913.9528725429439 # Ar
439 439 1 0.0 184.58769324103034 711.6534656472866 476.4568306490444 # Ar
440 440 1 0.0 466.527659054292 633.1966910814479 105.92061057737129 # Ar
441 441 1 0.0 541.098011669299 230.91036755368293 305.6668405024568 # Ar
442 442 1 0.0 498.045720497006 250.44990905279658 25.256414633289094 # Ar
443 443 1 0.0 554.2442794637278 795.4705485486685 740.322161549286 # Ar
444 444 1 0.0 268.6057017888161 662.9862347753091 848.1481617346152 # Ar
445 445 1 0.0 726.6995179031911 260.24841183386775 546.9320998415185 # Ar
446 446 1 0.0 539.8812964320068 220.34831403601547 876.5744624049237 # Ar
447 447 1 0.0 759.2587748197166 478.33385525254795 871.7463404464021 # Ar
448 448 1 0.0 921.2507791510367 591.8733239221388 430.8276234910088 # Ar
449 449 1 0.0 581.9815728656257 963.3788987186703 211.31086981676685 # Ar
450 450 1 0.0 532.4142081216692 932.5800411147857 433.28685616784736 # Ar
451 451 1 0.0 162.6203011183849 938.3420108266895 55.60260058482162 # Ar
452 452 1 0.0 643.750580401637 642.7735043014579 225.983536951651 # Ar
453 453 1 0.0 814.9369478680652 501.07326925222185 386.3466210255766 # Ar
454 454 1 0.0 736.2738176700665 416.96373305081335 463.30682311664145 # Ar
455 455 1 0.0 746.3596763665057 894.2784269499283 364.2947690163477 # Ar
456 456 1 0.0 976.4298899275559 969.3023818635551 155.80280064751292 # Ar
457 457 1 0.0 530.0024612518465 863.0251517795557 924.4247908798741 # Ar
458 458 1 0.0 29.991545438371446 840.389297294062 421.32946075305756 # Ar
459 459 1 0.0 332.2087253988924 407.02275746161973 157.87260226511248 # Ar
460 460 1 0.0 465.060302685217 644.1649675993341 711.9987321961069 # Ar
461 461 1 0.0 493.56156398480994 1022.077318992617 533.064107639384 # Ar
462 462 1 0.0 697.151557037343 768.6568996450512 10.916619189877295 # Ar
463 463 1 0.0 353.76066411805823 696.3762508590673 709.661819490027 # Ar
464 464 1 0.0 348.7383868138552 956.4443239274085 287.03244245875584 # Ar
465 465 1 0.0 488.08775051405087 563.4126560232331 628.0687134766939 # Ar
466 466 1 0.0 393.3321715114981 346.14700202786605 314.0656630067087 # Ar
467 467 1 0.0 155.34955536530947 285.41982719863427 918.3719242336186 # Ar
468 468 1 0.0 961.2174424287753 687.2018013382573 1021.099625852498 # Ar
469 469 1 0.0 488.115226073331 964.7824885421462 818.4067989506485 # Ar
470 470 1 0.0 126.04569427113012 76.69743211007659 287.9067676970517 # Ar
471 471 1 0.0 521.5599414807286 167.94399254203424 112.06425861006264 # Ar
472 472 1 0.0 635.1055174612151 876.4240551142918 610.1885808697755 # Ar
473 473 1 0.0 153.63083822615116 578.6270739349457 983.864750027865 # Ar
474 474 1 0.0 703.5802762372962 880.4823821268411 498.0477182908859 # Ar
475 475 1 0.0 629.2278094773282 618.9547960488471 868.0914127445558 # Ar
476 476 1 0.0 797.1350437598941 477.0466075635484 543.4879185938921 # Ar
477 477 1 0.0 39.12571432227104 999.1159466786913 791.0050787888622 # Ar
478 478 1 0.0 18.06114675580294 393.4362809572388 459.9702847742017 # Ar
479 479 1 0.0 33.56456903280156 148.47042384374433 416.5030256041877 # Ar
480 480 1 0.0 922.0820954172417 842.8459789479807 877.0769432557431 # Ar
481 481 1 0.0 641.1849042806197 226.71099270943785 584.2627546305886 # Ar
482 482 1 0.0 574.7657999179457 781.0505690191742 651.658495444881 # Ar
483 483 1 0.0 547.8621074053768 368.3962995297921 268.21620709352635 # Ar
484 484 1 0.0 670.7623985884644 90.16159465748973 210.32687328783834 # Ar
485 485 1 0.0 271.4659343315662 15.534777773210529 229.23465538233972 # Ar
486 486 1 0.0 448.2203047188227 38.50284334662559 887.38994441029 # Ar
487 487 1 0.0 0.08949654349904719 602.0475009848114 714.4339446414871 # Ar
488 488 1 0.0 874.6733873358118 790.1992893497086 1007.2105637625109 # Ar
489 489 1 0.0 195.86546440000072 539.686211345815 963.73259579202 # Ar
490 490 1 0.0 996.8477815431659 800.0147840354196 1020.8833400683187 # Ar
491 491 1 0.0 724.3941500757657 222.1061175020215 306.15637896925887 # Ar
492 492 1 0.0 548.375999547715 689.2108915066873 267.3842065128131 # Ar
493 493 1 0.0 990.1077990369466 887.3082505440036 986.0917981679112 # Ar
494 494 1 0.0 749.2763277728088 621.1647690682865 51.57007418256838 # Ar
495 495 1 0.0 682.3529078556007 340.5850616277134 1025.243261413179 # Ar
496 496 1 0.0 812.7753451537995 185.82716795362794 235.90176607330397 # Ar
497 497 1 0.0 375.714616187537 350.0242884058812 756.3916393621322 # Ar
498 498 1 0.0 429.2659486863723 158.23934010318385 81.47262336914754 # Ar
499 499 1 0.0 176.53134694959223 919.1568033937248 390.10793515600943 # Ar
500 500 1 0.0 169.4205090805954 746.4886760726138 692.7703841608875 # Ar
501 501 1 0.0 410.55037457571996 900.4181713653078 627.5064981620831 # Ar
502 502 1 0.0 9.922773330107509 304.0684899301691 683.971973930656 # Ar
503 503 1 0.0 229.46403615994956 844.9070672456623 413.65609421248115 # Ar
504 504 1 0.0 896.9534130480532 804.058691808486 115.76865906823508 # Ar
505 505 1 0.0 940.0208149933047 442.28143252691746 293.28233485530995 # Ar
506 506 1 0.0 361.1828755136059 228.5727793844192 392.67546321358844 # Ar
507 507 1 0.0 366.5591440847171 50.07128070534762 886.6093897961239 # Ar
508 508 1 0.0 29.574922988331597 584.7110571601189 47.20183310207075 # Ar
509 509 1 0.0 52.67412459004785 190.17329564193878 222.62043347800767 # Ar
510 510 1 0.0 585.6803739853309 166.97004307506384 29.23984983533156 # Ar
511 511 1 0.0 968.0908094250632 632.7383570243535 332.2865934254228 # Ar
512 512 1 0.0 729.1008737014963 116.90875020635221 707.5215676552594 # Ar
513 513 1 0.0 678.1421466453417 715.5556931227743 876.1859099962219 # Ar
514 514 1 0.0 680.4572470824597 233.99294157829567 278.53769278919185 # Ar
515 515 1 0.0 310.69441451077694 867.6260765682687 812.1176801566563 # Ar
516 516 1 0.0 247.6424559273839 158.52765591863275 573.1306198621722 # Ar
517 517 1 0.0 583.1236104157971 267.64445943710746 621.8115313912501 # Ar
518 518 1 0.0 491.17042735871485 574.154442069159 613.6014070582974 # Ar
519 519 1 0.0 313.43820223019014 751.3319583200863 704.1463767840057 # Ar
520 520 1 0.0 25.906614462911147 581.313846604858 641.2809760573484 # Ar
521 521 1 0.0 281.17803418924035 465.2367890598866 1012.7108190613903 # Ar
522 522 1 0.0 640.9737736593935 85.04255392944036 944.4119808951406 # Ar
523 523 1 0.0 927.8910406067439 606.2213877947801 713.2871637962379 # Ar
524 524 1 0.0 401.07465727791225 614.3584502781491 996.4973638827973 # Ar
525 525 1 0.0 882.3549840585717 37.65706229886692 679.1912497083758 # Ar
526 526 1 0.0 277.4000412600467 813.2744440101882 327.64811855136116 # Ar
527 527 1 0.0 748.8505542678935 521.9742704749829 836.5690890951781 # Ar
528 528 1 0.0 834.4241530136119 479.70569266919784 952.2202252377059 # Ar
529 529 1 0.0 951.0494716461277 736.0245561138171 26.338689288781417 # Ar
530 530 1 0.0 940.9642937754146 897.7376865201297 249.70221377852445 # Ar
531 531 1 0.0 749.755133291567 552.6473604564654 939.4522474383915 # Ar
532 532 1 0.0 156.42478480162725 28.627105413243292 556.5149922678198 # Ar
533 533 1 0.0 469.1420403395962 678.4070117635903 992.5048966563415 # Ar
534 534 1 0.0 504.97172862031084 414.2972143521609 772.5778637776729 # Ar
535 535 1 0.0 282.1503503603074 542.9380482348336 179.43589738070017 # Ar
536 536 1 0.0 653.4393342841114 694.125926781052 59.93066095999393 # Ar
537 537 1 0.0 345.2289165322776 861.3295233057202 756.5477907303793 # Ar
538 538 1 0.0 829.291534256727 579.4590248282171 606.2878859202062 # Ar
539 539 1 0.0 923.4131326342471 484.0157403865834 744.8169613125883 # Ar
540 540 1 0.0 526.8779611487486 31.76142469608333 507.8236699800337 # Ar
541 541 1 0.0 538.113966619293 290.53394909424765 797.6444593402309 # Ar
542 542 1 0.0 371.94181353422323 969.5499192222518 899.571730509397 # Ar
543 543 1 0.0 989.8760378203864 640.0663422078056 835.353598038215 # Ar
544 544 1 0.0 779.5024965863673 99.43556876482177 890.5658835215404 # Ar
545 545 1 0.0 725.9940419776444 760.6872361824319 359.3657988285482 # Ar
546 546 1 0.0 855.5830056424886 236.62625815736905 477.9511011968758 # Ar
547 547 1 0.0 173.49171561129668 731.9826261090125 959.6580329997865 # Ar
548 548 1 0.0 1008.8136551562523 210.19339089431787 983.2424447798043 # Ar
549 549 1 0.0 678.9294437543904 769.6920692972429 455.40552655148707 # Ar
550 550 1 0.0 382.93488001152883 887.7081446576948 306.28620154206584 # Ar
551 551 1 0.0 582.049177124498 752.0888275458292 932.7018900648676 # Ar
552 552 1 0.0 211.40132243719373 807.4216990147328 197.8895944000403 # Ar
553 553 1 0.0 133.88455051680393 655.9959212541894 588.9570797898517 # Ar
554 554 1 0.0 769.6602803959703 288.36334539313464 497.61278978842194 # Ar
555 555 1 0.0 429.3702886356269 553.0664237755745 310.3118757079543 # Ar
556 556 1 0.0 949.3309309609333 861.6849663625314 760.1771493002432 # Ar
557 557 1 0.0 360.45732852139304 255.01324909046716 708.7665904124692 # Ar
558 558 1 0.0 315.9416912556173 947.4818549251171 611.5620663446603 # Ar
559 559 1 0.0 158.698982489613 527.067759064353 875.8250514217108 # Ar
560 560 1 0.0 506.1297706078868 496.87235603900143 402.7777276720114 # Ar
561 561 1 0.0 305.6550794281309 388.00075604708667 661.5945500795696 # Ar
562 562 1 0.0 250.5105351683828 758.7271689418408 20.495702068622354 # Ar
563 563 1 0.0 527.1570234454232 364.26876029795875 38.64833565980387 # Ar
564 564 1 0.0 340.56523619602063 858.6790073939464 394.20425856970286 # Ar
565 565 1 0.0 101.34834327061249 72.07049728770404 740.0791651929835 # Ar
566 566 1 0.0 608.1900706133345 158.4033807411223 10.288095131545262 # Ar
567 567 1 0.0 513.6834086474508 756.6100270491814 686.0918890787158 # Ar
568 568 1 0.0 255.01427825224482 427.0129678285374 601.3329922135441 # Ar
569 569 1 0.0 87.66284136660192 514.5190006209993 939.0227448949574 # Ar
570 570 1 0.0 219.42799405454508 339.59448669379844 161.50648667749257 # Ar
571 571 1 0.0 425.99967360411944 829.4013612333482 20.23103641797537 # Ar
572 572 1 0.0 266.53942173020937 574.8324561524788 232.4047173135056 # Ar
573 573 1 0.0 739.1940382429568 168.05118699649452 600.4991365252749 # Ar
574 574 1 0.0 656.5009263961279 141.99244390099565 928.056427629402 # Ar
575 575 1 0.0 296.94106617048686 699.1625392918633 172.1539717632896 # Ar
576 576 1 0.0 611.7741306127234 825.5894455736794 694.6434933969236 # Ar
577 577 1 0.0 267.8547940479256 484.35510087421954 232.3180139336364 # Ar
578 578 1 0.0 144.9723109499702 814.6290171953704 263.52243641499837 # Ar
579 579 1 0.0 708.8527317968302 801.3010109500199 32.57594674321877 # Ar
580 580 1 0.0 583.6216011787862 872.6423419698812 816.1414012758034 # Ar
581 581 1 0.0 548.1647651865461 218.18383688812904 57.89703757656949 # Ar
582 582 1 0.0 344.9135221782248 454.45117433343256 431.9310232240646 # Ar
583 583 1 0.0 471.30894711010313 171.55311071514524 669.5293679046217 # Ar
584 584 1 0.0 903.5768310097684 731.5970136285213 966.0141719202478 # Ar
585 585 1 0.0 23.431200634007272 343.0340194433916 534.7081171999838 # Ar
586 586 1 0.0 871.8150995490575 923.6153032576897 6.71344283989895 # Ar
587 587 1 0.0 785.655856950872 669.327890821082 630.2026205246908 # Ar
588 588 1 0.0 159.647141598537 957.1586834267061 919.3313600742524 # Ar
589 589 1 0.0 564.2616726834698 95.55299282268932 202.61660189739712 # Ar
590 590 1 0.0 876.9273050587924 997.1813652224927 199.46104950481316 # Ar
591 591 1 0.0 145.57990054048767 670.0520627130486 701.5895478969073 # Ar
592 592 1 0.0 575.0773278104716 888.0270251946258 861.3468148523999 # Ar
593 593 1 0.0 334.16388778732954 713.6667017116181 65.55750827621338 # Ar
594 594 1 0.0 262.8790408532918 706.8753163889529 157.55767525549606 # Ar
595 595 1 0.0 413.82366008173443 749.3014794122885 817.1130601165956 # Ar
596 596 1 0.0 100.02969759683734 618.9290764623653 456.6238026201852 # Ar
597 597 1 0.0 681.1527392246714 635.5563724471974 883.1916120416589 # Ar
598 598 1 0.0 748.8189460434753 596.8093880335281 923.3070244118255 # Ar
599 599 1 0.0 373.3840197428456 320.5841918494721 40.07418082310256 # Ar
600 600 1 0.0 49.3284049423266 270.65726783448633 450.6034549081733 # Ar
601 601 1 0.0 962.2861769788711 400.4654544375882 283.4787090383822 # Ar
602 602 1 0.0 68.42536237012084 758.1538526105617 641.6920987405488 # Ar
603 603 1 0.0 1000.2947416977321 56.93582415677953 541.7673354597732 # Ar
604 604 1 0.0 589.0229303267386 140.0949658979846 672.6893839426925 # Ar
605 605 1 0.0 185.47742977055358 687.1019890862093 393.3979857417704 # Ar
606 606 1 0.0 195.45066590074268 713.8611956997692 398.65722561075955 # Ar
607 607 1 0.0 994.472490091477 783.6717163887791 1002.713764396654 # Ar
608 608 1 0.0 174.0769990715158 545.1631236905556 403.4858354070809 # Ar
609 609 1 0.0 944.2409511727291 214.15184067787249 284.0258247927561 # Ar
610 610 1 0.0 749.7294559105178 1020.9550211819719 832.2676413000208 # Ar
611 611 1 0.0 206.27199975444086 742.0087438962948 408.5668442425162 # Ar
612 612 1 0.0 350.13952960986006 969.4757696728389 429.6681715581574 # Ar
613 613 1 0.0 289.3772121444403 28.441176827027338 661.6538595991635 # Ar
614 614 1 0.0 609.3347230831015 540.1086259061449 912.6620731809784 # Ar
615 615 1 0.0 13.088455168066423 568.1983766135519 377.1532631509441 # Ar
616 616 1 0.0 756.4443619056805 734.9086414300615 626.8675443277408 # Ar
617 617 1 0.0 29.971048459112787 642.7885240077427 400.7310137154315 # Ar
618 618 1 0.0 129.1492948107304 404.17966031240934 960.745724827505 # Ar
619 619 1 0.0 179.46054192256372 752.5908679725159 212.85608313005318 # Ar
620 620 1 0.0 848.8943649722601 262.70571720582996 929.516876630232 # Ar
621 621 1 0.0 116.53336820075619 117.37053218938975 830.9123182969395 # Ar
622 622 1 0.0 915.5897032804456 4.74150111052147 722.1277886474405 # Ar
623 623 1 0.0 259.6214716382686 766.6224455001446 791.8821315317258 # Ar
624 624 1 0.0 935.1045053846767 753.6295489077288 179.75259609671167 # Ar
625 625 1 0.0 206.9666644031799 658.0646039150303 729.7974747641879 # Ar
626 626 1 0.0 554.1388419626807 70.58901888229052 12.964277294031792 # Ar
627 627 1 0.0 257.4788956693531 168.6198174369334 991.8218055282857 # Ar
628 628 1 0.0 221.31026850345515 424.15496683961334 43.77393347132586 # Ar
629 629 1 0.0 939.2677069966472 304.5729524210248 355.5807123218711 # Ar
630 630 1 0.0 648.2191540458731 579.1834114235769 858.1072141710669 # Ar
631 631 1 0.0 609.4088909769359 591.8919770607363 53.3854764125457 # Ar
632 632 1 0.0 76.61108012496913 208.60685162275465 919.4137622491097 # Ar
633 633 1 0.0 29.22225926949156 442.921565417532 503.9592363311829 # Ar
634 634 1 0.0 900.7272479169784 22.43355632270614 134.06292444538676 # Ar
635 635 1 0.0 39.59643061600053 757.290647434644 154.40724186903492 # Ar
636 636 1 0.0 907.5751694606022 167.04431111757802 723.9739611018534 # Ar
637 637 1 0.0 974.2461283566995 113.04225565308963 338.6476753612197 # Ar
638 638 1 0.0 988.3478106046732 849.9514166664529 762.3992153508377 # Ar
639 639 1 0.0 614.652171287873 553.6522757975945 955.5220263062874 # Ar
640 640 1 0.0 875.8168070879055 177.2634891818325 1002.570379029064 # Ar
641 641 1 0.0 607.0693973244133 450.56109187285494 244.40436888121732 # Ar
642 642 1 0.0 992.2548175511781 27.078159639506154 73.01202258020828 # Ar
643 643 1 0.0 528.2878005339718 203.3038502170123 883.6434383370803 # Ar
644 644 1 0.0 254.88515788861903 936.6778287968318 331.95112274556675 # Ar
645 645 1 0.0 333.79562943497837 112.5305407348713 458.37796077498626 # Ar
646 646 1 0.0 964.1571521840549 397.61790152928256 111.7416936445189 # Ar
647 647 1 0.0 107.94505764118227 321.9609853385342 966.6238970910991 # Ar
648 648 1 0.0 637.1486158562095 456.7390118727376 193.76983953124392 # Ar
649 649 1 0.0 293.8985856315967 726.0393364525061 817.7980348241163 # Ar
650 650 1 0.0 470.42767509008064 858.1299854433742 135.3039494198756 # Ar
651 651 1 0.0 76.79985011286496 477.8074503932126 403.81752160875817 # Ar
652 652 1 0.0 883.5860866801085 52.84825093771654 716.9285985372896 # Ar
653 653 1 0.0 272.37310999496606 747.3330576347017 896.3115957249355 # Ar
654 654 1 0.0 336.86767181327957 158.42041864693 19.12496001153532 # Ar
655 655 1 0.0 386.48844205168285 248.12173166378156 106.54087631965554 # Ar
656 656 1 0.0 906.7351136046484 182.7904371533998 732.3807064755855 # Ar
657 657 1 0.0 982.8773035432373 671.9617734405861 176.7384941385815 # Ar
658 658 1 0.0 693.6310721964685 869.5084966264677 585.9568768263318 # Ar
659 659 1 0.0 836.0554187282761 139.94577468007495 817.6059933434867 # Ar
660 660 1 0.0 368.90877783088723 485.06207980554643 197.8604584091311 # Ar
661 661 1 0.0 298.3107715471897 98.11339910792603 704.7755668019983 # Ar
662 662 1 0.0 97.48934878917275 504.68819464018566 617.3113619251235 # Ar
663 663 1 0.0 15.035838333457281 614.6313393911854 278.92112242238494 # Ar
664 664 1 0.0 338.0951656750914 19.49165937840978 695.7976017701279 # Ar
665 665 1 0.0 292.9148963057517 286.4308148776918 856.5999860097393 # Ar
666 666 1 0.0 535.576667176453 590.506214489576 821.3668309667157 # Ar
667 667 1 0.0 174.5611836729619 179.73723415395315 544.3130672095518 # Ar
668 668 1 0.0 991.4893776299307 232.21016751271142 292.7653512834552 # Ar
669 669 1 0.0 714.4666174005387 101.5085715103561 810.1309836104891 # Ar
670 670 1 0.0 761.8939205025897 761.3688024521697 511.8318442794432 # Ar
671 671 1 0.0 297.8184291785842 1010.3796977514702 896.0562929334751 # Ar
672 672 1 0.0 448.79973709587006 625.2072846335845 667.8646512924521 # Ar
673 673 1 0.0 5.598697749063914 909.2619858269744 808.5577920356483 # Ar
674 674 1 0.0 46.93865470936461 672.9256581740619 746.7049806073269 # Ar
675 675 1 0.0 777.9258105626295 706.6814404017227 257.0581412558106 # Ar
676 676 1 0.0 311.9458429927312 46.559144375699475 74.36132985584732 # Ar
677 677 1 0.0 471.50179841622935 102.91671090872678 655.0150562802459 # Ar
678 678 1 0.0 729.3477157567534 1025.4333575446178 315.9661697101594 # Ar
679 679 1 0.0 512.4992049542807 946.0949604741996 342.2356825376055 # Ar
680 680 1 0.0 582.3622227524131 652.7264405653342 270.030938534266 # Ar
681 681 1 0.0 440.91553743168896 830.652296000174 968.0729368373391 # Ar
682 682 1 0.0 598.9981321278035 965.8214052091089 111.17925835956565 # Ar
683 683 1 0.0 185.3256890767493 841.6533341793476 156.19702885608862 # Ar
684 684 1 0.0 838.7241194401681 889.9853226907405 375.94448440612115 # Ar
685 685 1 0.0 863.7242492180009 258.40905634169656 239.09450920735415 # Ar
686 686 1 0.0 593.9695069534107 917.8526586968687 729.8042307006073 # Ar
687 687 1 0.0 618.1614509508943 961.4967064290005 345.8957644782182 # Ar
688 688 1 0.0 841.928156748506 1003.5888271853515 557.4763228140314 # Ar
689 689 1 0.0 1003.3657883177971 846.1859847327594 264.6343662724633 # Ar
690 690 1 0.0 353.5932450798973 927.6193072969663 762.7430237472795 # Ar
691 691 1 0.0 256.5509717390538 86.12489017535987 600.7410845100064 # Ar
692 692 1 0.0 357.5900043444246 242.67703745491661 202.44448532637313 # Ar
693 693 1 0.0 459.7423847674606 115.32127068322708 283.3421714226286 # Ar
694 694 1 0.0 784.0914095457598 627.5782086225333 64.69899078070152 # Ar
695 695 1 0.0 632.038950222074 1017.4908693995013 535.9096015863369 # Ar
696 696 1 0.0 566.3525086932801 261.9157358138571 300.7279710785016 # Ar
697 697 1 0.0 570.740068533318 384.32837828631915 831.5984140545369 # Ar
698 698 1 0.0 268.3633493350484 415.85601520119354 709.7643313240579 # Ar
699 699 1 0.0 137.60843654178615 824.6740386918984 514.4823014624938 # Ar
700 700 1 0.0 531.4331799869922 476.49935065312127 209.68430515237637 # Ar
701 701 1 0.0 37.90837248714081 340.6667329877141 794.7818713016376 # Ar
702 702 1 0.0 317.08633157329234 844.5600483576166 48.86072116466025 # Ar
703 703 1 0.0 671.0718763177576 201.6774388192252 686.7713666740534 # Ar
704 704 1 0.0 433.562914899807 907.2372477356553 47.93866215365987 # Ar
705 705 1 0.0 118.20702758487971 555.4608549815188 830.9307639261223 # Ar
706 706 1 0.0 613.4029932426871 1006.6930824725702 491.92049624096484 # Ar
707 707 1 0.0 132.88875419121118 762.6381030117207 990.9165011153657 # Ar
708 708 1 0.0 365.96700694228906 866.5357086933448 210.86377515163662 # Ar
709 709 1 0.0 783.2372611570119 187.74371166882608 879.2155233494858 # Ar
710 710 1 0.0 524.0761984996568 956.0667369227968 702.7646156114155 # Ar
711 711 1 0.0 105.29965992943679 534.6145908753901 115.45839151473126 # Ar
712 712 1 0.0 579.1811667174267 126.29507861922615 437.0720776132564 # Ar
713 713 1 0.0 148.6254456664484 148.09211602732455 160.8327713743952 # Ar
714 714 1 0.0 331.09543911940335 243.12263619991455 347.20703486794764 # Ar
715 715 1 0.0 480.0136867298585 748.9927334847991 1024.4888774738665 # Ar
716 716 1 0.0 945.7379212856931 629.7749162799886 428.4594940921516 # Ar
717 717 1 0.0 793.7023427273418 119.44750158228983 255.3285035788589 # Ar
718 718 1 0.0 342.72070859552286 262.4692471062748 388.81080044640396 # Ar
719 719 1 0.0 438.86712791604884 803.8078077427783 787.699133846023 # Ar
720 720 1 0.0 561.7707616487272 477.6397586446123 901.4134944260446 # Ar
721 721 1 0.0 952.3124326925512 941.570769795075 987.2238424015469 # Ar
722 722 1 0.0 54.83068385488735 52.31709083607997 5.534053351203177 # Ar
723 723 1 0.0 694.5313972280958 204.93860280279208 273.3585453839698 # Ar
724 724 1 0.0 325.2529480384783 322.8943864911893 6.7826433867648115 # Ar
725 725 1 0.0 1011.583853087652 144.01565918412925 362.0433581523969 # Ar
726 726 1 0.0 913.3496117699369 890.8832293506405 885.9817661244789 # Ar
727 727 1 0.0 67.48424445645531 25.362558752846237 331.92999077239506 # Ar
728 728 1 0.0 760.4729686496859 491.0043556776113 607.7208338804907 # Ar
729 729 1 0.0 734.7643519187639 759.8911330845186 968.4574511531664 # Ar
730 730 1 0.0 755.7742616539356 1012.1362792834469 586.2063239810947 # Ar
731 731 1 0.0 486.3874894339408 367.6299726554768 432.3063500591633 # Ar
732 732 1 0.0 161.7682437089249 180.9989799341568 750.9477484561202 # Ar
733 733 1 0.0 917.7054401332156 737.6882647067436 119.16683434327632 # Ar
734 734 1 0.0 984.7230877420184 255.15308899532664 460.57265278088664 # Ar
735 735 1 0.0 693.2309753569587 58.51291775782916 488.0829134913685 # Ar
736 736 1 0.0 863.4805610796765 122.37768208576479 968.6597713671424 # Ar
737 737 1 0.0 514.7598287663055 191.0606700996728 401.49145886967705 # Ar
738 738 1 0.0 126.7654050550812 29.818017883095536 939.4747165834497 # Ar
739 739 1 0.0 598.3333457311243 723.6322794087148 352.85068140533656 # Ar
740 740 1 0.0 561.46562457017 1018.9369035964834 313.21185267039726 # Ar
741 741 1 0.0 941.4979746851146 240.49371155281318 798.1149600898799 # Ar
742 742 1 0.0 347.10770531505005 517.4637063416636 473.37127693305194 # Ar
743 743 1 0.0 691.9405694207032 43.79473495819618 178.02960315561222 # Ar
744 744 1 0.0 182.78095546364776 359.60929842134357 933.2023829989256 # Ar
745 745 1 0.0 759.0974703803971 45.575066520247866 204.9437709495335 # Ar
746 746 1 0.0 713.564516854578 574.8829721372072 635.7174929546129 # Ar
747 747 1 0.0 407.5410378440288 870.6290224447931 1020.3601285195979 # Ar
748 748 1 0.0 885.6884693359144 423.7639751785758 294.97799692737846 # Ar
749 749 1 0.0 932.3774067451433 398.20948130492104 717.5975351227523 # Ar
750 750 1 0.0 634.8654662861254 833.5137242972685 131.91929298334415 # Ar
751 751 1 0.0 97.50298637016175 271.0392183729539 967.0831352173957 # Ar
752 752 1 0.0 714.1677133898831 899.2102994040177 849.716312260572 # Ar
753 753 1 0.0 833.1995203716876 1021.4908130440392 79.58427984272052 # Ar
754 754 1 0.0 94.96799952913734 103.74351736830494 913.5793482949098 # Ar
755 755 1 0.0 894.1405211686374 383.66093389801983 959.1386605379325 # Ar
756 756 1 0.0 699.3770164065847 665.288840393109 737.9310209690682 # Ar
757 757 1 0.0 872.4559663695213 121.30021584168122 925.489675822089 # Ar
758 758 1 0.0 722.5297891802251 979.3740416098503 643.3174753025005 # Ar
759 759 1 0.0 1005.420488761358 462.82586298286424 427.32464255891955 # Ar
760 760 1 0.0 1027.2709734768416 84.09613825225857 52.133031952264325 # Ar
761 761 1 0.0 843.1761388685603 773.9202585041363 805.9142094422776 # Ar
762 762 1 0.0 214.26226995744855 838.5379363930012 426.97427150820204 # Ar
763 763 1 0.0 114.2059178639135 965.3813600858215 354.9264113075365 # Ar
764 764 1 0.0 418.7700964672779 652.9573574438685 717.7832593709326 # Ar
765 765 1 0.0 861.3587502843798 49.651618843137044 742.834694481807 # Ar
766 766 1 0.0 236.4436929303917 728.7728828818708 74.67936198519982 # Ar
767 767 1 0.0 557.6822739856005 442.68378728301184 833.738953080364 # Ar
768 768 1 0.0 825.3252434110251 624.5379218112897 522.4743891170759 # Ar
769 769 1 0.0 487.8728648302684 450.0259691276455 944.926462409378 # Ar
770 770 1 0.0 889.9800215839311 239.86328959805587 878.3553553322561 # Ar
771 771 1 0.0 474.99605850486824 73.60610956918288 799.8863122245001 # Ar
772 772 1 0.0 355.6853324384443 827.9537851794375 129.80581690382644 # Ar
773 773 1 0.0 497.8711871103656 70.3154512106902 823.4778462748867 # Ar
774 774 1 0.0 245.66424981222616 429.09198811199224 520.2950384492909 # Ar
775 775 1 0.0 477.55974137487686 28.55800466412993 578.368377702224 # Ar
776 776 1 0.0 183.663267513697 1010.3576965349903 495.17613954114614 # Ar
777 777 1 0.0 98.38922655754374 634.6194405579215 334.1436481806324 # Ar
778 778 1 0.0 960.0323301082911 486.84300513613914 915.5345120168611 # Ar
779 779 1 0.0 619.9159869669462 453.4879379285067 967.0213658723524 # Ar
780 780 1 0.0 641.148664249092 707.6865799027194 896.8972607920423 # Ar
781 781 1 0.0 990.6374344849331 532.7253343511006 355.9010287998735 # Ar
782 782 1 0.0 227.45413830611304 359.00162495668263 909.1179178489934 # Ar
783 783 1 0.0 996.8591816862626 100.45365926863673 188.5939592046344 # Ar
784 784 1 0.0 877.223229251303 428.41768552187534 724.4756812303934 # Ar
785 785 1 0.0 886.6966065490138 36.2097759333972 1013.913613588583 # Ar
786 786 1 0.0 733.2182517123638 130.14076199169318 401.5066497310783 # Ar
787 787 1 0.0 96.29681549777736 826.9681747922757 996.4597881491621 # Ar
788 788 1 0.0 713.5558778157899 948.1728039439627 487.50976173745426 # Ar
789 789 1 0.0 546.4387013716532 752.475538432026 58.867636742353056 # Ar
790 790 1 0.0 21.908329885783548 948.2045583614862 169.8837949678817 # Ar
791 791 1 0.0 773.9034808381455 662.6785130643732 630.6698163511321 # Ar
792 792 1 0.0 335.8726703235327 956.3256965852363 33.10848655960397 # Ar
793 793 1 0.0 246.65996752199553 403.840622490269 7.162515306482042 # Ar
794 794 1 0.0 224.0120048623372 548.887791344881 409.0133880842132 # Ar
795 795 1 0.0 3.524736654929483 154.43786221881174 978.1604379450158 # Ar
796 796 1 0.0 275.1915754027431 190.35957812394975 262.2803528840507 # Ar
797 797 1 0.0 596.0057141216093 377.7016157676414 204.8315983779273 # Ar
798 798 1 0.0 472.48067587239296 433.75140942551343 429.4489951835039 # Ar
799 799 1 0.0 95.5012084521162 281.13407652878806 661.3711933703884 # Ar
800 800 1 0.0 962.0123772037637 907.1083027371334 634.3731632828433 # Ar
801 801 1 0.0 701.7856060620261 916.4112932633387 718.4827249221746 # Ar
802 802 1 0.0 400.4181708025303 886.7281396956362 791.4426148138278 # Ar
803 803 1 0.0 819.6240122521507 962.9076352510604 855.0750201177104 # Ar
804 804 1 0.0 323.47097412184354 550.787192801133 696.1774207974302 # Ar
805 805 1 0.0 529.5987294164494 235.02653668626834 660.1437003664355 # Ar
806 806 1 0.0 252.4899603606041 458.4324065291396 147.42231125046473 # Ar
807 807 1 0.0 596.4951963343253 96.3999123610507 943.5187201717085 # Ar
808 808 1 0.0 20.039548231693775 656.0317932903612 259.2530625324128 # Ar
809 809 1 0.0 660.8307614892298 56.48009433536053 536.4817000659951 # Ar
810 810 1 0.0 837.5662873521294 167.84530631130693 799.7936321738733 # Ar
811 811 1 0.0 272.1930100449872 755.0055830160658 903.642177655432 # Ar
812 812 1 0.0 929.0498089486706 792.1885681189377 35.778409177254076 # Ar
813 813 1 0.0 270.4463457042256 556.0727055842401 608.1846579102037 # Ar
814 814 1 0.0 684.5850559226581 183.63071428071675 445.21970558061815 # Ar
815 815 1 0.0 213.32965823461709 22.031775758012554 407.62498073869847 # Ar
816 816 1 0.0 741.7040813171642 14.795278510380554 540.5322251286082 # Ar
817 817 1 0.0 177.9934786975942 81.11118501801558 264.0298190608661 # Ar
818 818 1 0.0 77.47969592893665 629.6746927792655 942.4529213887278 # Ar
819 819 1 0.0 476.4555054709753 816.9619008113083 724.306937142986 # Ar
820 820 1 0.0 937.7491167440458 1027.647722365346 855.0205161260155 # Ar
821 821 1 0.0 661.0177827925922 305.4085560958924 100.2202559357721 # Ar
822 822 1 0.0 501.44275706580873 372.3505106963527 290.1266102003666 # Ar
823 823 1 0.0 750.2285823829561 824.267109952684 759.5985015083199 # Ar
824 824 1 0.0 531.7461970305089 180.35099312590546 979.9608054227066 # Ar
825 825 1 0.0 504.3762240453918 128.8229390297683 448.722986705969 # Ar
826 826 1 0.0 408.3509733973906 817.5344877055568 145.41622387792785 # Ar
827 827 1 0.0 808.7911615364425 185.1624250616618 77.41765718122093 # Ar
828 828 1 0.0 198.27309270693837 956.7144754985904 609.5273786441153 # Ar
829 829 1 0.0 37.018690703529494 223.21059317095796 774.429796575951 # Ar
830 830 1 0.0 3.5004455266672463 341.4234936561257 979.3054961828805 # Ar
831 831 1 0.0 377.86437595692945 950.1160342263576 655.2735050138539 # Ar
832 832 1 0.0 859.0581957000112 306.1054653237602 449.67304575443995 # Ar
833 833 1 0.0 717.6846644405754 448.0473243170711 572.6042130517069 # Ar
834 834 1 0.0 428.19142254813886 638.0162395941452 529.4015530923496 # Ar
835 835 1 0.0 715.5225816311672 1001.4438251588911 746.1279783146038 # Ar
836 836 1 0.0 340.15775813186036 612.4366589067669 729.8271175703352 # Ar
837 837 1 0.0 142.80345029981342 63.80951340572064 127.80183981708102 # Ar
838 838 1 0.0 235.4062350975112 424.9129221748596 205.44132582482354 # Ar
839 839 1 0.0 977.4482788175535 107.75879357074582 968.3379843549496 # Ar
840 840 1 0.0 441.84626652309686 658.6755111044566 564.7774097526985 # Ar
841 841 1 0.0 849.092173350428 515.1769913499808 412.0133444189989 # Ar
842 842 1 0.0 102.34690617981087 352.48999490798474 486.3880243086293 # Ar
843 843 1 0.0 640.8767720847991 133.2473635227252 909.816064372543 # Ar
844 844 1 0.0 835.3156279477079 995.0768734082034 287.787840006289 # Ar
845 845 1 0.0 297.93090435559134 590.8964895234373 599.6070959530364 # Ar
846 846 1 0.0 209.39525074541154 554.3170292434312 752.2542916837532 # Ar
847 847 1 0.0 243.60746056693506 680.1943087004547 4.580571609933722 # Ar
848 848 1 0.0 114.31009204967638 592.8743615949862 359.1230836514783 # Ar
849 849 1 0.0 819.052601240279 55.7906469247831 679.0421173406693 # Ar
850 850 1 0.0 874.6596528538076 33.04603711779922 384.2267085004319 # Ar
851 851 1 0.0 381.7853541527126 351.3246128554642 460.82627522170446 # Ar
852 852 1 0.0 359.37811453002405 736.6119450024332 343.807120780162 # Ar
853 853 1 0.0 719.8552136211857 279.14558091717305 244.11785588114637 # Ar
854 854 1 0.0 860.2611152505465 271.79074920531536 13.7246737503492 # Ar
855 855 1 0.0 962.2353971652426 587.4017091551455 536.3406799826942 # Ar
856 856 1 0.0 895.1882825484067 432.9190872078286 948.6226072938263 # Ar
857 857 1 0.0 142.11865125727604 243.74109990120706 209.54289333328882 # Ar
858 858 1 0.0 542.0382318352478 465.2060400565277 206.45273443720143 # Ar
859 859 1 0.0 392.8410154771886 1019.8835253895719 925.8632202002232 # Ar
860 860 1 0.0 827.02149019917 287.01905639007373 149.15655750015435 # Ar
861 861 1 0.0 158.0413230174 607.2691056857194 91.60834595722021 # Ar
862 862 1 0.0 64.8489404805734 408.99548128163616 695.2982022553568 # Ar
863 863 1 0.0 634.7018082720352 30.50436592383554 139.32241017493345 # Ar
864 864 1 0.0 744.9273151308399 351.89257562217404 518.4272859879526 # Ar
865 865 1 0.0 873.3662369638641 215.27609251065 456.9575855527421 # Ar
866 866 1 0.0 52.66359112691363 422.68940812919413 903.6815777438585 # Ar
867 867 1 0.0 598.6249630103749 559.0459586881346 767.3275674997736 # Ar
868 868 1 0.0 63.28968475669504 260.615522750016 995.6350960999058 # Ar
869 869 1 0.0 293.637911721213 123.68092844066898 953.9376372878218 # Ar
870 870 1 0.0 433.143035112889 394.2687240133863 694.3066652866066 # Ar
871 871 1 0.0 142.44226998803458 13.48501057145439 669.723281372873 # Ar
872 872 1 0.0 252.18042593384843 456.40096181727444 556.6876539106887 # Ar
873 873 1 0.0 322.83785969570783 618.3477280585397 505.42437459202574 # Ar
874 874 1 0.0 661.647775713548 302.3288240690936 450.6062882782283 # Ar
875 875 1 0.0 76.84465426717101 936.0473228742691 842.8209530062285 # Ar
876 876 1 0.0 697.7199899904379 594.860832904936 127.69505709207726 # Ar
877 877 1 0.0 577.4891760389963 57.88388248442286 322.12897000023884 # Ar
878 878 1 0.0 171.60227897063734 729.7766393329074 835.207079400018 # Ar
879 879 1 0.0 384.8133475894644 833.774531006166 27.871304951919374 # Ar
880 880 1 0.0 61.423430599243815 399.72033137579643 441.33626935092076 # Ar
881 881 1 0.0 316.5898877749613 128.37165889020585 454.151912826583 # Ar
882 882 1 0.0 153.58168283314436 693.7058051618545 535.9217473259432 # Ar
883 883 1 0.0 231.5486501807429 303.19636723705815 689.1072858368705 # Ar
884 884 1 0.0 718.8300544916108 656.0636016155267 215.94042717022813 # Ar
885 885 1 0.0 530.1429338524833 236.54159056772306 512.9332683932183 # Ar
886 886 1 0.0 878.3835624504271 590.3782238701688 941.036436451871 # Ar
887 887 1 0.0 278.50651781584634 902.7626588233055 258.6000261380621 # Ar
888 888 1 0.0 883.0996585391954 962.416057661237 625.2670839684823 # Ar
889 889 1 0.0 1011.3847433679186 476.1784666490605 131.65243776007952 # Ar
890 890 1 0.0 398.19140905396455 207.78473858914134 413.27424801133145 # Ar
891 891 1 0.0 154.60673774073666 549.4322515252245 773.0474830878633 # Ar
892 892 1 0.0 676.2939856984204 565.4331670843236 787.8806946209538 # Ar
893 893 1 0.0 660.4077281326414 838.042700935508 1024.9221576423233 # Ar
894 894 1 0.0 259.4378880786305 435.67279097575647 744.086964472903 # Ar
895 895 1 0.0 333.4333304377379 491.3589561729966 401.51474903083334 # Ar
896 896 1 0.0 965.8451704666056 70.90920252469373 791.4108688884082 # Ar
897 897 1 0.0 1002.288958499945 785.3550382451283 337.80780194593143 # Ar
898 898 1 0.0 791.3248828738839 122.44798993374513 59.95499657518467 # Ar
899 899 1 0.0 372.5728748697069 740.7038403552111 916.3357855743599 # Ar
900 900 1 0.0 590.2629239732286 399.4755835851331 503.0786706517407 # Ar
901 901 1 0.0 487.21119193813746 757.1055756405742 67.81179521393568 # Ar
902 902 1 0.0 400.0462216355662 411.2538412898322 641.3735479067592 # Ar
903 903 1 0.0 570.2121449049304 1021.0158519592673 109.112286762994 # Ar
904 904 1 0.0 770.1751336846298 84.1757618976982 788.1075657869382 # Ar
905 905 1 0.0 569.7287767418338 753.2600077840244 72.34205833065464 # Ar
906 906 1 0.0 590.7245547796498 529.2011865706145 540.1753308402912 # Ar
907 907 1 0.0 309.8809265399255 170.75368104638446 870.143077524632 # Ar
908 908 1 0.0 137.85340392739883 179.63268169918834 1008.4468723910121 # Ar
909 909 1 0.0 168.12652139495387 531.4582297905723 1008.7550288961213 # Ar
910 910 1 0.0 832.1521096534108 905.2908141333804 957.7689057822422 # Ar
911 911 1 0.0 434.7558790524916 471.2001996344958 331.2632705144522 # Ar
912 912 1 0.0 807.2020478923539 589.9820766889924 273.61345830614806 # Ar
913 913 1 0.0 899.8607991264637 373.4515888479867 695.5787774523898 # Ar
914 914 1 0.0 219.08920166388978 594.9971428459306 756.0083199781917 # Ar
915 915 1 0.0 957.2688689494063 728.6793005729704 88.79154732291063 # Ar
916 916 1 0.0 576.9742105504998 409.3910638306806 216.37996731967326 # Ar
917 917 1 0.0 286.33035393137123 18.505613153230456 767.6351889709431 # Ar
918 918 1 0.0 421.723410632391 434.3327337382828 928.1183847931735 # Ar
919 919 1 0.0 656.4173414417946 800.7140133212065 176.95503857968478 # Ar
920 920 1 0.0 63.74982518670103 908.7462227465879 398.9137516508336 # Ar
921 921 1 0.0 362.17709597882606 687.5619941955147 110.28648152635903 # Ar
922 922 1 0.0 226.5310688925311 704.9917640151081 598.360680269559 # Ar
923 923 1 0.0 69.67210794344295 386.8310862045076 400.6008607715404 # Ar
924 924 1 0.0 547.8160222855086 653.7117148689224 493.77941315288297 # Ar
925 925 1 0.0 690.0790049895579 36.53204212781937 97.96602557045088 # Ar
926 926 1 0.0 68.44714718557857 522.605745269327 749.9258352241209 # Ar
927 927 1 0.0 169.73465841760736 754.6846277971857 745.7589466623938 # Ar
928 928 1 0.0 223.3065940620864 322.4131688976945 818.1486482856639 # Ar
929 929 1 0.0 508.58363298550023 558.0429807728085 529.0484111434533 # Ar
930 930 1 0.0 571.4846307917699 871.126879036186 241.33912482544187 # Ar
931 931 1 0.0 1011.0125945359646 644.8067951162813 393.2457459733688 # Ar
932 932 1 0.0 292.99096415218276 395.02338362497164 572.1344372579958 # Ar
933 933 1 0.0 836.9060038114652 310.6711528818577 554.1055737510653 # Ar
934 934 1 0.0 644.2278884656894 167.48479819947673 536.0576046928824 # Ar
935 935 1 0.0 461.8747035882652 481.52693549615094 434.42926909447425 # Ar
936 936 1 0.0 105.06106975428438 572.9399747500997 246.82414878028382 # Ar
937 937 1 0.0 215.86131361707575 376.9432315021617 632.3812052394775 # Ar
938 938 1 0.0 954.1106123029414 204.655100381229 927.8915614618949 # Ar
939 939 1 0.0 873.5536190358398 546.8746199793623 957.7184999935107 # Ar
940 940 1 0.0 814.2290312191336 670.4054228820045 966.6974308130378 # Ar
941 941 1 0.0 523.6166290724606 481.06927415062495 692.5353914868115 # Ar
942 942 1 0.0 826.0735307161801 460.23238053257757 430.7841412588787 # Ar
943 943 1 0.0 579.3032209870437 586.3963363262487 231.03817877423643 # Ar
944 944 1 0.0 736.520781433679 205.37743585479345 308.28826141863067 # Ar
945 945 1 0.0 441.97641842980755 296.28759665024205 878.8579758102272 # Ar
946 946 1 0.0 1002.5839747398749 173.89313021178978 1001.9428334108675 # Ar
947 947 1 0.0 60.68446256573854 226.33255276753695 845.3590677370224 # Ar
948 948 1 0.0 469.2104804119821 217.7954131330432 591.3679194866743 # Ar
949 949 1 0.0 835.4996896080618 346.3509785767338 174.04739554807233 # Ar
950 950 1 0.0 243.98499796246827 127.95720727011003 686.3871329188397 # Ar
951 951 1 0.0 148.42872809322657 252.83611803315665 160.54545815981257 # Ar
952 952 1 0.0 707.869621781375 744.6051653581807 947.6595585037837 # Ar
953 953 1 0.0 161.4741004938598 559.4307383612039 694.7881015903621 # Ar
954 954 1 0.0 207.66288171891046 897.1876888817942 327.036585657601 # Ar
955 955 1 0.0 20.990269070532865 214.89294415541636 863.2290366025418 # Ar
956 956 1 0.0 789.8430889571357 225.04434096987293 731.6890895595154 # Ar
957 957 1 0.0 106.92008188336061 927.8542484164236 368.44156764445785 # Ar
958 958 1 0.0 450.69458343708294 730.0803831107565 901.2143457473113 # Ar
959 959 1 0.0 991.8227985689372 211.80357355882668 617.7525443945906 # Ar
960 960 1 0.0 926.6163402052294 638.7630078968207 782.3221048507569 # Ar
961 961 1 0.0 521.438383528485 983.0584732153945 286.63358456548707 # Ar
962 962 1 0.0 100.11403411920593 418.1588074082494 139.40746053956045 # Ar
963 963 1 0.0 485.30585215382706 721.7850734839706 790.541983560219 # Ar
964 964 1 0.0 355.0753826358167 691.4286088818125 687.2015785163923 # Ar
965 965 1 0.0 845.1660699436469 933.527988199851 448.8075900378339 # Ar
966 966 1 0.0 20.425268030509926 559.8394923689281 409.6124342555463 # Ar
967 967 1 0.0 386.52693491698676 986.2819392938097 964.4120013498086 # Ar
968 968 1 0.0 721.5769463422437 484.1485078999356 910.2946986433092 # Ar
969 969 1 0.0 217.55047520119376 395.7317896083839 719.9418309029155 # Ar
970 970 1 0.0 1007.8404028785316 47.45254691384829 779.3795647196091 # Ar
971 971 1 0.0 364.37719018197475 738.5177662255459 171.27507879363463 # Ar
972 972 1 0.0 501.05406933329806 364.8005016704244 189.92785905877406 # Ar
973 973 1 0.0 190.02230968890956 508.6512164912081 575.3693996235085 # Ar
974 974 1 0.0 586.7342698767607 759.5300463417315 323.0824610055763 # Ar
975 975 1 0.0 335.01020908707346 154.83853689813037 800.3584160105496 # Ar
976 976 1 0.0 343.6490050307556 628.3215358609477 47.75858246110022 # Ar
977 977 1 0.0 458.75969373026527 231.48755641286266 146.2670241021262 # Ar
978 978 1 0.0 71.34344672564518 982.9298227016504 410.84773414384557 # Ar
979 979 1 0.0 943.6863438057642 869.5164577786977 767.6253401768997 # Ar
980 980 1 0.0 401.7856550219015 673.2166738325035 975.8321014747852 # Ar
981 981 1 0.0 834.1652104836082 175.6303466507455 518.1578609981001 # Ar
982 982 1 0.0 762.963153798154 24.98394065678435 563.8639896548465 # Ar
983 983 1 0.0 888.7646957301904 486.3795989679821 673.8513295044958 # Ar
984 984 1 0.0 399.73116768190675 988.3682546913362 989.0036711416413 # Ar
985 985 1 0.0 489.60733423546685 90.31488627469258 317.15374868079385 # Ar
986 986 1 0.0 672.2126170572179 254.88011502857867 755.33649175965 # Ar
987 987 1 0.0 552.5388055905948 11.49682874237629 691.6110625578847 # Ar
988 988 1 0.0 13.368352382487446 1028.443771173409 803.4519374035807 # Ar
989 989 1 0.0 619.3518800961681 534.0210490472856 66.55593396435097 # Ar
990 990 1 0.0 906.6896370368971 1022.5222185764004 193.33609716091559 # Ar
991 991 1 0.0 315.52967733709824 232.10581530906043 81.87600039033447 # Ar
992 992 1 0.0 377.7054153417268 307.0315779402326 1009.1751901219297 # Ar
993 993 1 0.0 752.2914991497489 443.2267864589077 208.73719045779592 # Ar
994 994 1 0.0 500.4123552587421 22.69757367243485 428.5761665293962 # Ar
995 995 1 0.0 292.9001637903047 239.6682128592254 379.6325796912478 # Ar
996 996 1 0.0 959.4115900573186 690.9632300276066 637.6301330111984 # Ar
997 997 1 0.0 89.97969539217782 228.7548708646252 655.2907798733658 # Ar
998 998 1 0.0 407.3190165487625 168.76940879514842 343.11206099878217 # Ar
999 999 1 0.0 167.79578655304545 423.1019857594445 335.64013261045795 # Ar
1000 1000 1 0.0 94.19302735108148 402.14760243689165 41.521877063537204 # Ar
1001 1001 1 0.0 539.98701211825 361.2911272107271 458.1754350855995 # Ar
1002 1002 1 0.0 426.3301102549992 270.9535977063317 1014.5357393844927 # Ar
1003 1003 1 0.0 1014.7403228591049 588.0126553439686 103.93209570961362 # Ar
1004 1004 1 0.0 951.7167444002725 965.6178571997142 639.4426003012812 # Ar
1005 1005 1 0.0 189.02900912268854 543.8461272339271 260.34917563755056 # Ar
1006 1006 1 0.0 730.48703631233 881.3138591527058 456.8451972839902 # Ar
1007 1007 1 0.0 583.0710211918706 522.2781744958845 248.1006481731707 # Ar
1008 1008 1 0.0 591.8440063803162 176.68344383900393 311.75419680688344 # Ar
1009 1009 1 0.0 60.18505186428933 439.85442205167175 723.7982362909618 # Ar
1010 1010 1 0.0 862.0996399122226 322.5465045841116 46.694172325430515 # Ar
1011 1011 1 0.0 548.9315232165219 849.6872154798264 765.4725810882514 # Ar
1012 1012 1 0.0 360.9556673322098 908.5630639930068 704.6919804026736 # Ar
1013 1013 1 0.0 871.2323662980302 271.98809699285306 183.6036761363122 # Ar
1014 1014 1 0.0 889.7088694482802 513.240145670394 20.049181408583134 # Ar
1015 1015 1 0.0 272.82327729176 473.70908630161995 612.1016275872626 # Ar
1016 1016 1 0.0 184.0762946520304 744.8902563968459 321.6754408872525 # Ar
1017 1017 1 0.0 815.5901839628593 281.28289545318916 64.15376435515337 # Ar
1018 1018 1 0.0 182.82048410244107 669.216228333218 679.9989473923869 # Ar
1019 1019 1 0.0 100.8686419542325 1006.2021989884005 1017.4531777271694 # Ar
1020 1020 1 0.0 551.2709707018053 903.7876433200823 48.165455792836575 # Ar
1021 1021 1 0.0 23.18995054887608 524.217977174784 217.18045417748675 # Ar
1022 1022 1 0.0 465.387389109682 424.7263973910481 137.95721515494984 # Ar
1023 1023 1 0.0 255.3711637059316 590.3965830786481 915.7640599440288 # Ar
1024 1024 1 0.0 612.5176673528662 912.5583986674931 124.23576358572035 # Ar
1025 1025 1 0.0 703.8038832426129 363.3632779181356 518.2246030297209 # Ar
1026 1026 1 0.0 939.6967757530404 694.639389087612 144.07182876792032 # Ar
1027 1027 1 0.0 137.6654347202341 477.7801256523372 187.4080280122087 # Ar
1028 1028 1 0.0 262.1515647022013 341.24132038704374 97.8797575268087 # Ar
1029 1029 1 0.0 637.7809584439198 21.131773718221503 796.8217387153396 # Ar
1030 1030 1 0.0 850.7537584645826 772.2404179484815 263.3772859267171 # Ar
1031 1031 1 0.0 197.97536350550547 680.282353551674 176.0707480849858 # Ar
1032 1032 1 0.0 765.7748008398094 686.4652620296979 581.2887010328358 # Ar
1033 1033 1 0.0 351.1837630599618 547.6374142306666 517.1240902954711 # Ar
1034 1034 1 0.0 86.71709473526177 468.6877466671061 248.3102493867254 # Ar
1035 1035 1 0.0 476.75718654443017 941.9171860412002 20.178330024420642 # Ar
1036 1036 1 0.0 684.3814562322078 513.6849935088748 247.75079558100882 # Ar
1037 1037 1 0.0 751.9272716750489 691.9482287866255 27.391767560735648 # Ar
1038 1038 1 0.0 206.8797240296934 850.1988183450505 188.37272272155425 # Ar
1039 1039 1 0.0 699.1825565194143 976.7202385835367 497.93325960294663 # Ar
1040 1040 1 0.0 720.1520048577619 402.27882582755143 297.4062762613931 # Ar
1041 1041 1 0.0 85.73716106294974 376.0604426797293 672.5815639457559 # Ar
1042 1042 1 0.0 490.5947755230038 333.7294102453341 953.0116308159761 # Ar
1043 1043 1 0.0 475.4359328902888 532.7425431612832 326.958188863447 # Ar
1044 1044 1 0.0 177.13091051042736 320.2376824605377 128.0253963055559 # Ar
1045 1045 1 0.0 861.8311379129312 685.51503169232 916.8945109703502 # Ar
1046 1046 1 0.0 79.60356595168417 1014.4981486634797 282.59737644079746 # Ar
1047 1047 1 0.0 234.28300419249882 898.7352732875778 643.0301097137623 # Ar
1048 1048 1 0.0 341.69028647387404 6.748917119423852 680.9782233695722 # Ar
1049 1049 1 0.0 614.6648252845065 752.4025572544562 415.4291659984144 # Ar
1050 1050 1 0.0 304.7565600513077 251.67050907786785 401.442456886109 # Ar
1051 1051 1 0.0 678.1193286431547 940.5454664997839 933.2744643635458 # Ar
1052 1052 1 0.0 104.80894132410667 810.8108432212897 764.360093324085 # Ar
1053 1053 1 0.0 469.07700491163786 74.38307778778396 307.328846572676 # Ar
1054 1054 1 0.0 329.44835825659413 768.1492188260477 393.8980137601011 # Ar
1055 1055 1 0.0 692.3759239099339 233.63311753953403 808.10128897389 # Ar
1056 1056 1 0.0 512.7635089891595 257.7898467458571 500.9274866708424 # Ar
1057 1057 1 0.0 277.66495527065496 133.08482928602007 728.9565646097296 # Ar
1058 1058 1 0.0 144.5291014163048 280.37706453131403 168.78295714032507 # Ar
1059 1059 1 0.0 970.9261380270922 532.1843334024456 322.21725986123425 # Ar
1060 1060 1 0.0 146.3756391801712 164.6202196511687 43.092250510478074 # Ar
1061 1061 1 0.0 544.0584039015732 207.74854340820485 293.0629361333276 # Ar
1062 1062 1 0.0 690.5808342019936 200.89604145692599 765.397083085093 # Ar
1063 1063 1 0.0 928.91719792025 934.4043180170855 76.84056441755368 # Ar
1064 1064 1 0.0 895.7079654958451 393.98832778259356 46.63264912848251 # Ar
1065 1065 1 0.0 954.7628273063262 912.5740204537233 355.2318492223415 # Ar
1066 1066 1 0.0 767.0617455000631 850.3102558357426 989.9541663070089 # Ar
1067 1067 1 0.0 416.5184000432118 638.1185426057862 305.9258428202917 # Ar
1068 1068 1 0.0 680.3373379260859 96.83392269220316 924.1588943799691 # Ar
1069 1069 1 0.0 684.1135684633491 689.8002423518066 850.8608839180092 # Ar
1070 1070 1 0.0 242.80559507469826 381.5800070828886 443.60330128824586 # Ar
1071 1071 1 0.0 245.20770082364984 413.6648739819376 290.42657813864713 # Ar
1072 1072 1 0.0 935.1344830124497 985.5740906430256 426.45214317214294 # Ar
1073 1073 1 0.0 486.84845642757085 453.0427402361784 203.88603586047267 # Ar
1074 1074 1 0.0 619.7080727572626 275.9660699656563 407.05400389087134 # Ar
1075 1075 1 0.0 795.5125524538782 453.0152960631496 737.3410873927694 # Ar
1076 1076 1 0.0 132.2270155135705 101.05377309981417 662.7510041528768 # Ar
1077 1077 1 0.0 68.03291704280323 195.11558055159003 301.93385005727254 # Ar
1078 1078 1 0.0 100.61509251157713 346.588687533475 737.4123138813881 # Ar
1079 1079 1 0.0 964.8356393115712 920.0238495996568 330.6264147623795 # Ar
1080 1080 1 0.0 758.1475981823454 191.48583451761465 207.01589758145687 # Ar
1081 1081 1 0.0 105.89409050402354 702.6516415289967 495.4779599208866 # Ar
1082 1082 1 0.0 846.9913926777763 532.6330152375851 589.5520560462162 # Ar
1083 1083 1 0.0 830.6871615329287 951.7337375886265 833.9744599862482 # Ar
1084 1084 1 0.0 540.7998213982535 791.7546715992752 399.68890351659667 # Ar
1085 1085 1 0.0 931.1405885099836 145.861425419477 122.51489705547283 # Ar
1086 1086 1 0.0 989.981015558139 918.1790334363567 1016.7502004884856 # Ar
1087 1087 1 0.0 483.03879807824427 773.1886037350716 221.41061198803277 # Ar
1088 1088 1 0.0 375.4309358696662 1013.9104247915592 874.7739127789338 # Ar
1089 1089 1 0.0 640.0528689045028 331.22974786181794 849.7915357285649 # Ar
1090 1090 1 0.0 865.569552682585 775.791006169561 252.1271782562209 # Ar
1091 1091 1 0.0 82.85202894247874 194.9974649518955 102.4941893789225 # Ar
1092 1092 1 0.0 119.49177860240647 603.9399734765968 688.3316708849503 # Ar
1093 1093 1 0.0 514.0343880401458 584.2360890865867 737.333604076972 # Ar
1094 1094 1 0.0 807.8050772057506 45.54684610642443 566.6484524246715 # Ar
1095 1095 1 0.0 313.42010597573653 523.2567401326331 689.4853923615847 # Ar
1096 1096 1 0.0 170.25565516996977 84.59842850917042 547.2779370459896 # Ar
1097 1097 1 0.0 224.10465394354424 448.87979789069186 80.68407337327542 # Ar
1098 1098 1 0.0 790.5292806877029 253.75972630501428 854.3139341465787 # Ar
1099 1099 1 0.0 803.8981909961076 817.9932992791098 1006.0918126536207 # Ar
1100 1100 1 0.0 217.57619919022412 16.998464326023537 272.29299272833094 # Ar
1101 1101 1 0.0 382.98941682951676 374.1190083065863 314.4256477511664 # Ar
1102 1102 1 0.0 127.9741696110043 938.1942003201513 211.36545127780704 # Ar
1103 1103 1 0.0 214.08946368125936 15.393752165380855 354.5698251876493 # Ar
1104 1104 1 0.0 515.1798413738929 260.9832410616287 706.5395725783977 # Ar
1105 1105 1 0.0 238.62342587776243 663.2592715495485 21.505061533359584 # Ar
1106 1106 1 0.0 261.1036233465431 315.4023733272026 615.2931601021546 # Ar
1107 1107 1 0.0 767.0830764234171 836.7364020731809 356.1852504109427 # Ar
1108 1108 1 0.0 527.3185754596155 204.67729874497397 343.8998953643229 # Ar
1109 1109 1 0.0 1019.1892317723367 731.231056530227 496.9180410820661 # Ar
1110 1110 1 0.0 732.8992269297398 659.2556279917351 795.4757647822233 # Ar
1111 1111 1 0.0 678.2426956515382 422.1098359123432 138.64629841077752 # Ar
1112 1112 1 0.0 633.3703852491117 580.3935665792956 1013.2695659897553 # Ar
1113 1113 1 0.0 293.65592557369393 312.7244070706721 118.61799721858108 # Ar
1114 1114 1 0.0 486.01137592547826 47.20834517136523 940.9732501403695 # Ar
1115 1115 1 0.0 34.07565470675108 506.9697976761405 919.4873996417022 # Ar
1116 1116 1 0.0 487.86525192374654 665.0911032368758 340.82752295984557 # Ar
1117 1117 1 0.0 725.9184319221752 924.0474622330913 112.09389855405566 # Ar
1118 1118 1 0.0 6.022983475982237 441.68621425790025 983.762071252548 # Ar
1119 1119 1 0.0 291.16316828303667 511.3060189978121 27.915152411546835 # Ar
1120 1120 1 0.0 865.3346370938459 318.5676166171401 61.26522595529342 # Ar
1121 1121 1 0.0 146.60300672900163 714.3296601593491 331.5358453360966 # Ar
1122 1122 1 0.0 675.7677392824575 64.72910058807193 202.56288685657591 # Ar
1123 1123 1 0.0 26.362513393384138 525.1840797002701 940.4270654935294 # Ar
1124 1124 1 0.0 172.58452110070436 191.75708715425262 799.4317506525133 # Ar
1125 1125 1 0.0 368.5201620317039 703.9709133967048 587.0852083810332 # Ar
1126 1126 1 0.0 98.0696171153467 406.06653633025974 41.20470803210362 # Ar
1127 1127 1 0.0 818.3960664933836 853.8164480954159 567.2112019133409 # Ar
1128 1128 1 0.0 197.51323700011716 730.8274171534165 269.05925806041887 # Ar
1129 1129 1 0.0 869.5680046385955 64.46358229981254 224.20758245997683 # Ar
1130 1130 1 0.0 273.7574018215327 845.681239411771 451.4903077440216 # Ar
1131 1131 1 0.0 16.854532405091618 212.6425225384476 61.86463614537989 # Ar
1132 1132 1 0.0 151.864368736589 395.4297727170856 307.9571524748274 # Ar
1133 1133 1 0.0 876.5181875791721 13.531304858863656 506.7514335249025 # Ar
1134 1134 1 0.0 40.23133804473704 37.692683078852426 916.0689582616684 # Ar
1135 1135 1 0.0 403.983993773438 300.21900492646785 7.328301683016148 # Ar
1136 1136 1 0.0 942.0230412558344 80.4300432139914 83.44894208896918 # Ar
1137 1137 1 0.0 230.0674896059313 631.2231422622394 965.845641263035 # Ar
1138 1138 1 0.0 176.5441513335951 711.7771473827039 746.598428201441 # Ar
1139 1139 1 0.0 58.07361975340969 439.092697863517 930.5990942170729 # Ar
1140 1140 1 0.0 690.4895556453441 789.569350645585 756.1479082371948 # Ar
1141 1141 1 0.0 365.53764005141375 1020.4567049897836 437.6464171133284 # Ar
1142 1142 1 0.0 353.1215759732435 870.4256178274967 618.9991838448076 # Ar
1143 1143 1 0.0 763.8347461209042 159.1040392389686 1010.3939503729954 # Ar
1144 1144 1 0.0 144.86145305285453 779.3082099079496 707.780340599407 # Ar
1145 1145 1 0.0 54.036657075317855 101.99317192913772 6.591154960870105 # Ar
1146 1146 1 0.0 460.45376543588185 413.55128125412733 806.5338506260231 # Ar
1147 1147 1 0.0 272.5773739029439 192.6810446148691 777.0943851111455 # Ar
1148 1148 1 0.0 996.9951539392816 930.6057234002856 473.4069586032085 # Ar
1149 1149 1 0.0 254.72879524092352 737.8402527376115 572.1082849619504 # Ar
1150 1150 1 0.0 728.6346395724368 76.64684484738515 215.20590646912106 # Ar
1151 1151 1 0.0 68.0218244352384 573.4516385664929 712.9555380113615 # Ar
1152 1152 1 0.0 823.9380091041286 283.3812430818602 590.7163215170607 # Ar
1153 1153 1 0.0 721.7294585725325 881.3270054240222 935.0610421873263 # Ar
1154 1154 1 0.0 55.03942465835088 860.7969205361285 787.029125939933 # Ar
1155 1155 1 0.0 326.6744685273969 640.9280209114069 947.2651190123433 # Ar
1156 1156 1 0.0 147.32132577664277 1008.1474974706306 204.759558270794 # Ar
1157 1157 1 0.0 981.2852940022373 160.97482345040547 381.615335000976 # Ar
1158 1158 1 0.0 683.001313039001 356.4186332099098 566.1887935935401 # Ar
1159 1159 1 0.0 747.3983612436461 468.64178402681205 408.5243195795334 # Ar
1160 1160 1 0.0 25.139931697964787 545.997286221843 914.8116577309925 # Ar
1161 1161 1 0.0 662.4360503114623 53.34614237963105 628.2751536704344 # Ar
1162 1162 1 0.0 981.5139400514456 541.0491182036341 1022.3351603912914 # Ar
1163 1163 1 0.0 946.0325282498522 327.9455214880369 59.036819335197855 # Ar
1164 1164 1 0.0 643.572929486663 338.9798015990593 748.0938027621967 # Ar
1165 1165 1 0.0 499.69589090685827 971.1063528581012 760.0487808329738 # Ar
1166 1166 1 0.0 321.67333278976895 561.8958639021633 362.7893855730872 # Ar
1167 1167 1 0.0 135.13439759471567 899.8844626811789 1028.2210972290723 # Ar
1168 1168 1 0.0 11.356150245778583 609.6042765586109 500.49531015655816 # Ar
1169 1169 1 0.0 516.7439735989021 421.888628854885 845.6145523681022 # Ar
1170 1170 1 0.0 264.18144201692076 372.519803459387 669.6610127015867 # Ar
1171 1171 1 0.0 125.19013634701297 779.6736756780574 768.113470453651 # Ar
1172 1172 1 0.0 230.20377687157594 517.6199332673159 586.9199597000335 # Ar
1173 1173 1 0.0 381.38269307041054 848.4182672345235 619.914334189665 # Ar
1174 1174 1 0.0 705.9514485278245 20.576593123862814 644.4777161390563 # Ar
1175 1175 1 0.0 963.3676227021608 54.26399414627517 97.39900123693612 # Ar
1176 1176 1 0.0 230.91367903700774 990.1682742178248 218.120242838101 # Ar
1177 1177 1 0.0 943.2293304416 171.59977237891323 910.9904932077783 # Ar
1178 1178 1 0.0 89.69704412754763 214.5708479389288 853.9291682403369 # Ar
1179 1179 1 0.0 625.4490627777762 28.960856407317998 647.5849181070247 # Ar
1180 1180 1 0.0 168.7899068625052 300.7596856473476 300.2253014943363 # Ar
1181 1181 1 0.0 266.01436828525254 642.9639691679433 931.6731335635455 # Ar
1182 1182 1 0.0 231.89646226045915 598.3829363049066 436.7696172505992 # Ar
1183 1183 1 0.0 242.7782730796528 244.06919923779617 584.5385426144976 # Ar
1184 1184 1 0.0 90.01714216178175 687.7950291239039 78.56033000721746 # Ar
1185 1185 1 0.0 820.2572015229439 123.26129679237614 731.3837521333863 # Ar
1186 1186 1 0.0 726.7410554616498 62.66397736528101 63.50226711952154 # Ar
1187 1187 1 0.0 1027.096164153043 295.2681238306868 545.4719210619567 # Ar
1188 1188 1 0.0 567.3325666045954 520.2502261970046 287.4016993394842 # Ar
1189 1189 1 0.0 15.092299392258546 969.6871783809466 804.5077657962632 # Ar
1190 1190 1 0.0 514.5245981369936 723.9421498045228 727.8077832801433 # Ar
1191 1191 1 0.0 804.1748450560074 279.0625778726162 191.0083179979817 # Ar
1192 1192 1 0.0 722.8781397648992 611.1586854501013 140.30690391774584 # Ar
1193 1193 1 0.0 612.6010720151978 143.66697873348053 948.5596871277476 # Ar
1194 1194 1 0.0 504.6863565906417 928.4035720888139 90.72213252212714 # Ar
1195 1195 1 0.0 734.9895872467099 596.5698318250386 609.3305492328535 # Ar
1196 1196 1 0.0 516.9027590085221 183.17970437858637 109.18481809534882 # Ar
1197 1197 1 0.0 594.5535337822745 490.1370666813792 32.72369134341459 # Ar
1198 1198 1 0.0 428.5791882821112 659.7859413302657 659.0299027146538 # Ar
1199 1199 1 0.0 1018.7827473568839 358.44341357453817 685.0832192217534 # Ar
1200 1200 1 0.0 604.1957834102636 133.81627553884607 269.44248169355046 # Ar
1201 1201 1 0.0 5.8114746915523545 985.3332870788539 742.0606160141988 # Ar
1202 1202 1 0.0 1007.4744803595822 924.416106375222 876.7650717395545 # Ar
1203 1203 1 0.0 982.809210298171 82.05299449907837 97.69619405954343 # Ar
1204 1204 1 0.0 185.04958667119624 846.3374154416696 343.51662586708807 # Ar
1205 1205 1 0.0 84.89623890316729 227.32490566140365 238.55296429497997 # Ar
1206 1206 1 0.0 330.22826499510836 483.18683891689466 149.96078309461848 # Ar
1207 1207 1 0.0 323.9964413571207 816.7841262666424 36.58270036015901 # Ar
1208 1208 1 0.0 640.0974946682633 29.14728718070895 531.6320561070881 # Ar
1209 1209 1 0.0 599.8141123496923 826.5849285688607 708.7965030787118 # Ar
1210 1210 1 0.0 259.61685592724893 929.203601961436 977.5603080979373 # Ar
1211 1211 1 0.0 876.0943922971715 290.20201121646767 381.6174580819946 # Ar
1212 1212 1 0.0 149.50773588124247 21.652446591514547 844.1202624838083 # Ar
1213 1213 1 0.0 828.8235643825074 294.5935220204929 770.8380452069094 # Ar
1214 1214 1 0.0 10.162066276783339 834.2103143082132 802.6563392716421 # Ar
1215 1215 1 0.0 453.8019790913627 10.223724453788194 679.646196341911 # Ar
1216 1216 1 0.0 722.9839072261201 329.1757011032977 423.81653988770535 # Ar
1217 1217 1 0.0 293.14855900240076 445.77112426523416 499.02955986830654 # Ar
1218 1218 1 0.0 296.6253683376941 50.69888258276238 252.82302786211812 # Ar
1219 1219 1 0.0 46.838245080174275 97.21299699382745 657.413171466677 # Ar
1220 1220 1 0.0 610.7826567424418 932.0176715113489 263.51077795803104 # Ar
1221 1221 1 0.0 173.76881627021535 367.37251096626784 399.5978029413086 # Ar
1222 1222 1 0.0 27.817660892801623 257.11133315299423 125.02829454239166 # Ar
1223 1223 1 0.0 50.71877690716738 666.4791343251622 678.8114022459745 # Ar
1224 1224 1 0.0 464.8977170374487 198.66317807883848 931.3669268031528 # Ar
1225 1225 1 0.0 325.74768232759016 160.76825298358193 490.44277210475354 # Ar
1226 1226 1 0.0 984.1646271340917 615.6722058911907 295.3628171034271 # Ar
1227 1227 1 0.0 320.38025840186685 391.1139870154857 955.0841170342737 # Ar
1228 1228 1 0.0 790.5454823879 293.0676976248543 874.1445117909344 # Ar
1229 1229 1 0.0 97.33407070072438 863.2835616956377 865.614479999117 # Ar
1230 1230 1 0.0 420.4952089676455 445.4510395473095 1007.6272217591729 # Ar
1231 1231 1 0.0 1014.5973520637557 922.7075588644897 257.99012640038217 # Ar
1232 1232 1 0.0 844.4405735783417 614.8667392244339 269.0868416198692 # Ar
1233 1233 1 0.0 288.76308292585475 177.55918118040358 32.569245896620274 # Ar
1234 1234 1 0.0 31.33931939852586 986.3453316393286 665.3948231752182 # Ar
1235 1235 1 0.0 328.74031080240894 954.6446090282936 709.8062539493866 # Ar
1236 1236 1 0.0 328.40215012384283 926.7993465998538 843.9210423964262 # Ar
1237 1237 1 0.0 722.1025366634 744.7765608828864 618.1015897770592 # Ar
1238 1238 1 0.0 677.4517616256197 568.4384438051569 989.2291407523422 # Ar
1239 1239 1 0.0 209.1882415138248 18.181537715096756 258.5078223517708 # Ar
1240 1240 1 0.0 986.141214601622 261.9979890201931 135.14729930471506 # Ar
1241 1241 1 0.0 309.9112565914419 121.70348147162363 919.820924976642 # Ar
1242 1242 1 0.0 815.0690354231833 317.12929391548755 637.6548966919673 # Ar
1243 1243 1 0.0 180.5637862636711 7.439956649679948 955.5698184669695 # Ar
1244 1244 1 0.0 575.5095419110907 536.6560741148223 595.9120028747359 # Ar
1245 1245 1 0.0 972.2419208647248 434.33735334451427 256.2716291733738 # Ar
1246 1246 1 0.0 126.7052430919941 977.597999850487 377.71945478582364 # Ar
1247 1247 1 0.0 129.23584149486683 665.7051568376492 681.8164808258365 # Ar
1248 1248 1 0.0 296.2237097477963 412.05639744429476 328.7025844614779 # Ar
1249 1249 1 0.0 697.9559089841532 293.6690206058549 990.7711750833442 # Ar
1250 1250 1 0.0 579.690511466752 571.5880281816827 276.11939329253147 # Ar
1251 1251 1 0.0 436.05135038382787 140.81211558987246 298.70771513602415 # Ar
1252 1252 1 0.0 296.86680910763823 897.8741344431178 537.2818738318235 # Ar
1253 1253 1 0.0 66.51282756418534 594.5237386531612 17.286081867490754 # Ar
1254 1254 1 0.0 529.6790098459181 883.7144620362083 112.5925775144944 # Ar
1255 1255 1 0.0 235.79963565359992 588.2497021311563 530.1808764958382 # Ar
1256 1256 1 0.0 7.927171791392472 388.14141819284544 705.8801144916087 # Ar
1257 1257 1 0.0 648.4371299061245 35.47091071328746 24.489566683693837 # Ar
1258 1258 1 0.0 98.47057584037276 629.5910338210057 637.5130178433316 # Ar
1259 1259 1 0.0 160.64562289450433 711.4162408591036 758.0722937762424 # Ar
1260 1260 1 0.0 541.4347921485513 367.89458666181037 83.51418641869331 # Ar
1261 1261 1 0.0 19.494962652325956 161.79898845219935 855.0116556003057 # Ar
1262 1262 1 0.0 679.5219617262707 175.83765111397784 693.0493725954295 # Ar
1263 1263 1 0.0 579.2828121380302 308.85752803937527 294.70875257076733 # Ar
1264 1264 1 0.0 193.1659574061232 698.2933626326119 655.4775748742785 # Ar
1265 1265 1 0.0 723.7624708044989 811.5858893749751 526.038412672326 # Ar
1266 1266 1 0.0 1000.6509106356602 816.2683698916851 44.59796153865675 # Ar
1267 1267 1 0.0 463.5299111204878 76.23644169473597 123.33961509281612 # Ar
1268 1268 1 0.0 761.6272812515646 814.497928123696 382.5721889040875 # Ar
1269 1269 1 0.0 185.38470778940274 737.3416272475151 589.1047276539397 # Ar
1270 1270 1 0.0 100.02168914790786 347.27823948457973 36.4683997954965 # Ar
1271 1271 1 0.0 451.7579860125565 353.83154975490004 425.33764579615615 # Ar
1272 1272 1 0.0 22.049678191494433 702.0921894141 272.1211557061376 # Ar
1273 1273 1 0.0 477.4182875062952 521.4263841850967 338.98081861600895 # Ar
1274 1274 1 0.0 196.3812310274021 1018.8084998922494 401.52189276952316 # Ar
1275 1275 1 0.0 286.6934226251015 546.121406626017 643.6941893762231 # Ar
1276 1276 1 0.0 824.591135735443 614.2276417877525 552.0473277216711 # Ar
1277 1277 1 0.0 701.4617723674878 583.0132082361017 849.5590667240924 # Ar
1278 1278 1 0.0 124.22749499300618 459.15065814676984 503.4463547365999 # Ar
1279 1279 1 0.0 177.5301784055805 841.6503941598295 966.9049087623058 # Ar
1280 1280 1 0.0 860.6702301107529 835.0496105034046 369.84031565212825 # Ar
1281 1281 1 0.0 1015.8992053993177 810.2282151490675 584.9819821610331 # Ar
1282 1282 1 0.0 243.13288739597783 602.7884430183467 807.7506496747786 # Ar
1283 1283 1 0.0 97.98640193635127 302.54185324418364 452.56022426628937 # Ar
1284 1284 1 0.0 717.273177000868 394.5238112563609 81.3622119666915 # Ar
1285 1285 1 0.0 623.3022350212873 551.179126115615 814.7925218831075 # Ar
1286 1286 1 0.0 200.74838874498522 65.69564605871375 955.577339038272 # Ar
1287 1287 1 0.0 868.648682112516 117.7283324663083 620.8854396325479 # Ar
1288 1288 1 0.0 633.7336694813134 852.5009058506303 531.923943910745 # Ar
1289 1289 1 0.0 717.630206722008 568.5608273533883 421.88416614834927 # Ar
1290 1290 1 0.0 14.491178651233177 505.8706034681948 715.3015984496034 # Ar
1291 1291 1 0.0 611.3027924419038 249.86995009071333 355.92399678097576 # Ar
1292 1292 1 0.0 878.3339652703876 637.1520387923607 779.6184702787482 # Ar
1293 1293 1 0.0 816.5443839754867 661.6927886427138 749.6759526287908 # Ar
1294 1294 1 0.0 413.53563428062137 66.45441366245291 223.23083672450147 # Ar
1295 1295 1 0.0 132.97764968413065 531.6217937242781 253.685201303917 # Ar
1296 1296 1 0.0 589.9906107590712 835.9774526567945 834.1779081087906 # Ar
1297 1297 1 0.0 846.6116618626028 685.7817432112397 153.41352420676947 # Ar
1298 1298 1 0.0 188.25916809394968 971.2389230959997 595.538762437064 # Ar
1299 1299 1 0.0 834.3098962000163 135.2191591320045 211.06345408746816 # Ar
1300 1300 1 0.0 1010.5684786807245 623.6548305462817 851.025963020484 # Ar
1301 1301 1 0.0 395.7926110982156 212.4115317306182 863.8423772635853 # Ar
1302 1302 1 0.0 461.2703394680897 869.6191471004904 710.0655859741576 # Ar
1303 1303 1 0.0 18.202946313506697 665.1576857001933 896.0893917406416 # Ar
1304 1304 1 0.0 959.4975077665543 212.28342394631926 666.3185526245674 # Ar
1305 1305 1 0.0 922.2310922125921 346.5242513693307 162.17976716788294 # Ar
1306 1306 1 0.0 481.53074734014706 914.8913654770511 143.5866965573788 # Ar
1307 1307 1 0.0 283.57661890324255 863.3201575651651 35.38756528683558 # Ar
1308 1308 1 0.0 522.7250597082324 928.2286476208862 835.2584292800043 # Ar
1309 1309 1 0.0 961.4523527489861 785.9627635538797 552.2389117248215 # Ar
1310 1310 1 0.0 855.3397505379972 992.822616826847 676.9506056479474 # Ar
1311 1311 1 0.0 705.3893698402144 586.1319635623468 601.2744303365712 # Ar
1312 1312 1 0.0 1018.094011667794 203.35017989342919 766.647227733862 # Ar
1313 1313 1 0.0 715.6160027011932 138.73166789725772 913.3843840359366 # Ar
1314 1314 1 0.0 573.0522335630278 821.7423520501953 847.089245988485 # Ar
1315 1315 1 0.0 924.3296202121403 273.95269122528254 193.63535179872719 # Ar
1316 1316 1 0.0 634.7524774115234 346.55318200912643 656.090721044223 # Ar
1317 1317 1 0.0 749.6284411426307 1018.2301817619087 14.014919553575872 # Ar
1318 1318 1 0.0 196.65642037152293 40.657951234515465 489.9305689693245 # Ar
1319 1319 1 0.0 78.90496780240926 708.491524076756 588.4143428987333 # Ar
1320 1320 1 0.0 455.1522800798487 736.7767751296302 794.4497359077859 # Ar
1321 1321 1 0.0 505.17852034640737 34.44664176019147 547.1401697918411 # Ar
1322 1322 1 0.0 267.5710876681871 208.99852288095175 69.46424516892087 # Ar
1323 1323 1 0.0 723.6379402925807 409.9713535797578 617.9911953008309 # Ar
1324 1324 1 0.0 347.9966016726409 621.5966234293218 449.41492744209694 # Ar
1325 1325 1 0.0 732.682066945853 748.4434729263073 390.80530237476705 # Ar
1326 1326 1 0.0 1006.9281491438709 609.9506228285564 117.97693452112912 # Ar
1327 1327 1 0.0 839.4724786394434 748.4960879636444 448.5173807131305 # Ar
1328 1328 1 0.0 296.2676418203835 841.2769139620648 524.0335091859154 # Ar
1329 1329 1 0.0 980.3185221738711 795.5096206725955 548.7556157045067 # Ar
1330 1330 1 0.0 958.302524314466 1009.4590580399721 734.0032792095475 # Ar
1331 1331 1 0.0 34.85904335485108 36.847063694917544 961.5818088998635 # Ar
1332 1332 1 0.0 802.3609057781414 62.070178906555945 427.46490473652545 # Ar
1333 1333 1 0.0 752.4713843426919 588.4371893029971 702.4742525797155 # Ar
1334 1334 1 0.0 163.4031410714334 423.01024645476593 810.6797288061304 # Ar
1335 1335 1 0.0 338.12899508301564 87.1820707368952 431.34515074932904 # Ar
1336 1336 1 0.0 865.444918109958 951.1795375481487 463.30275430637187 # Ar
1337 1337 1 0.0 167.3101151344469 981.2473083261789 874.0349194917051 # Ar
1338 1338 1 0.0 586.0176998745774 99.87093332659447 796.3722241626882 # Ar
1339 1339 1 0.0 628.6828645007967 536.0908000509258 353.9357510769705 # Ar
1340 1340 1 0.0 785.7681553653138 197.10282830483462 253.6534616503549 # Ar
1341 1341 1 0.0 665.229838537233 583.4388972436984 77.7097143654409 # Ar
1342 1342 1 0.0 310.5826132173399 843.7167605437222 975.2491408982837 # Ar
1343 1343 1 0.0 939.3795709001911 833.4114788975862 216.03253948457473 # Ar
1344 1344 1 0.0 289.07032520153535 1017.6146877060344 263.1427237474215 # Ar
1345 1345 1 0.0 311.82757469444084 487.52023446582916 682.2528548192134 # Ar
1346 1346 1 0.0 406.4883482300889 727.1365196886442 611.6954480506326 # Ar
1347 1347 1 0.0 322.80768047202855 880.403965961572 816.8685437697125 # Ar
1348 1348 1 0.0 192.52572593168767 490.74737383484137 973.0636499808844 # Ar
1349 1349 1 0.0 84.01446128552746 556.0927890942887 329.94324783012064 # Ar
1350 1350 1 0.0 504.1235468699786 436.18171630468294 855.3122939088876 # Ar
1351 1351 1 0.0 875.2552911787134 185.33112210079827 25.49782275039681 # Ar
1352 1352 1 0.0 513.7801190682344 120.61585221619927 888.7979691287038 # Ar
1353 1353 1 0.0 299.33231457295125 745.9190361719324 251.6611829693338 # Ar
1354 1354 1 0.0 998.8975150126225 176.16191891534282 101.74067341236766 # Ar
1355 1355 1 0.0 533.8724746295067 169.33687423273042 934.6798929526017 # Ar
1356 1356 1 0.0 606.9415129656165 911.0063675897577 212.52253344730087 # Ar
1357 1357 1 0.0 200.05243370387066 343.82447622173214 262.14188646707845 # Ar
1358 1358 1 0.0 42.2708190209133 486.22585229986055 378.34612132757246 # Ar
1359 1359 1 0.0 55.388556845342926 184.22122958831935 399.17809355380876 # Ar
1360 1360 1 0.0 172.15820946505164 396.8870738215232 640.0671117007333 # Ar
1361 1361 1 0.0 403.7203087298508 164.69539043172477 985.6701143153117 # Ar
1362 1362 1 0.0 1013.263681386946 873.6818482479201 862.881788457034 # Ar
1363 1363 1 0.0 259.2643229871072 874.0401831694722 948.6099191551205 # Ar
1364 1364 1 0.0 884.9510383583064 419.0990285394281 314.7342052642329 # Ar
1365 1365 1 0.0 463.0105900047238 532.7537298939933 11.247065060018427 # Ar
1366 1366 1 0.0 938.580064327674 580.0748097645057 427.5498705992482 # Ar
1367 1367 1 0.0 109.46784509486683 553.5598130290183 683.4244529568876 # Ar
1368 1368 1 0.0 511.8384693692712 350.11506289079887 569.9160865229381 # Ar
1369 1369 1 0.0 10.461894876340706 403.0764658023817 339.38501835298894 # Ar
1370 1370 1 0.0 142.37796755615997 711.0518962998854 106.48808854273258 # Ar
1371 1371 1 0.0 421.3552291530752 940.5328656255341 316.6369259675486 # Ar
1372 1372 1 0.0 748.2486193541107 322.90093813827923 667.4528745579867 # Ar
1373 1373 1 0.0 245.3407519281702 973.1856353950515 866.43608121977 # Ar
1374 1374 1 0.0 166.41132858051023 588.6626600002272 678.2500053791094 # Ar
1375 1375 1 0.0 767.7517903069797 674.6891900815256 13.761778870558825 # Ar
1376 1376 1 0.0 738.0407775988492 650.7700199564744 933.2875667002692 # Ar
1377 1377 1 0.0 487.79408814845334 281.9493244236892 734.1750786256752 # Ar
1378 1378 1 0.0 751.5739755001573 673.2992701088453 787.4602594356726 # Ar
1379 1379 1 0.0 418.77393359308644 276.43316961046185 926.8498125126595 # Ar
1380 1380 1 0.0 493.90756929173307 824.833605836609 464.4218693846866 # Ar
1381 1381 1 0.0 828.3382377079301 191.37366258561582 614.7599886259061 # Ar
1382 1382 1 0.0 884.5749552859573 630.096223381967 63.4319541273661 # Ar
1383 1383 1 0.0 968.2782668190239 240.90671767920085 628.7330887091747 # Ar
1384 1384 1 0.0 1019.1987468978057 468.36964378223115 940.0978146954361 # Ar
1385 1385 1 0.0 105.54844439753815 940.9288630335134 279.57907811731127 # Ar
1386 1386 1 0.0 1026.4905310471383 11.902815019581931 301.9900359486774 # Ar
1387 1387 1 0.0 743.5479568563319 923.330254907493 945.290775299909 # Ar
1388 1388 1 0.0 804.2413610964888 843.9537414988966 113.35636366667265 # Ar
1389 1389 1 0.0 989.0505373292251 223.64044661511113 580.4621605010868 # Ar
1390 1390 1 0.0 121.19377134256398 818.0085649750303 239.7463529722819 # Ar
1391 1391 1 0.0 332.4681061522401 959.2441740088742 119.77766980014357 # Ar
1392 1392 1 0.0 903.1446367424509 391.2393224784115 658.9567303505822 # Ar
1393 1393 1 0.0 401.96508381473416 826.9303961195624 506.63550565747624 # Ar
1394 1394 1 0.0 211.70900790662841 61.74053105422734 168.8673712247257 # Ar
1395 1395 1 0.0 717.4779698441428 382.5647993372544 753.2839345957342 # Ar
1396 1396 1 0.0 2.102182881469468 255.88426637250325 750.9825407545635 # Ar
1397 1397 1 0.0 849.5283796409307 368.34561280490965 377.0693509158488 # Ar
1398 1398 1 0.0 937.967367816604 492.14771086381955 896.9119792281381 # Ar
1399 1399 1 0.0 192.1125299203142 335.0390520748912 634.3789070318388 # Ar
1400 1400 1 0.0 378.83757943244484 170.83209011268528 458.8231254279168 # Ar
1401 1401 1 0.0 775.8955359952577 496.9122363954215 542.7010483559271 # Ar
1402 1402 1 0.0 845.8243333398622 584.5510460520458 628.1464528155441 # Ar
1403 1403 1 0.0 256.5199918433145 296.7714471267423 680.9020847313038 # Ar
1404 1404 1 0.0 19.880520918498526 997.6800005666773 534.6241621898341 # Ar
1405 1405 1 0.0 243.9113160213485 1015.7854153946247 354.872863724021 # Ar
1406 1406 1 0.0 764.8876268797168 479.15231809916617 774.5723059065803 # Ar
1407 1407 1 0.0 765.9815227751783 510.6882944794587 483.15804322588673 # Ar
1408 1408 1 0.0 712.8580683761729 935.1933029356169 497.2355313060985 # Ar
1409 1409 1 0.0 744.2022726812395 559.0360944561053 567.1613241341938 # Ar
1410 1410 1 0.0 944.3478376336909 756.470534714815 974.5361987777774 # Ar
1411 1411 1 0.0 852.4759429775155 834.8576487385151 229.22847132423848 # Ar
1412 1412 1 0.0 925.7811512065374 944.4184296426769 1015.961614137422 # Ar
1413 1413 1 0.0 825.4208401644378 786.4563292601769 611.4007611272729 # Ar
1414 1414 1 0.0 258.17255737500517 189.76630734622498 981.3246126382634 # Ar
1415 1415 1 0.0 344.0562372119777 335.55327578266076 724.0418358140191 # Ar
1416 1416 1 0.0 1015.0550439227915 162.7810213581083 350.23929763238385 # Ar
1417 1417 1 0.0 814.5235558360843 219.28416029400378 469.75269658960445 # Ar
1418 1418 1 0.0 938.640391613901 834.9918284464611 433.7314212957291 # Ar
1419 1419 1 0.0 303.167456341538 607.3123855418074 286.93905211691265 # Ar
1420 1420 1 0.0 24.99120716818003 322.4374078442021 357.71070194968337 # Ar
1421 1421 1 0.0 93.46872478141515 485.4525360364262 521.3803826431406 # Ar
1422 1422 1 0.0 691.4966511950636 535.0319659882678 647.1702694582154 # Ar
1423 1423 1 0.0 214.2743237203767 571.0415115241296 508.90127846056777 # Ar
1424 1424 1 0.0 798.1123072427433 942.4638536561414 485.86379042778475 # Ar
1425 1425 1 0.0 389.7101238862424 656.0053758562901 1005.6220289768241 # Ar
1426 1426 1 0.0 639.1425052836167 179.01368998360005 948.7322387334508 # Ar
1427 1427 1 0.0 477.64755389673553 867.422244896746 757.4983331961944 # Ar
1428 1428 1 0.0 21.668673085809143 646.4933373113817 242.29512903890483 # Ar
1429 1429 1 0.0 258.63697986480423 155.72841000575212 729.6991195268403 # Ar
1430 1430 1 0.0 62.45346312582906 120.13463332964658 409.6676855077863 # Ar
1431 1431 1 0.0 946.3669115132143 531.6668432712737 953.1368549484108 # Ar
1432 1432 1 0.0 479.4180463187388 78.5294815465736 79.12380129130865 # Ar
1433 1433 1 0.0 157.74423617980426 867.936686091943 25.361706419294837 # Ar
1434 1434 1 0.0 445.11308209816616 656.4352080390147 945.7864554794797 # Ar
1435 1435 1 0.0 820.3203372465113 115.64704726333292 450.3490063156019 # Ar
1436 1436 1 0.0 446.9403900290748 221.18975275915844 128.75443862012932 # Ar
1437 1437 1 0.0 345.3961791912121 620.0952929358854 668.8799328444118 # Ar
1438 1438 1 0.0 498.59617379442415 530.9847415505054 581.6656913878742 # Ar
1439 1439 1 0.0 993.506563614896 909.1502251158743 1014.7219530510314 # Ar
1440 1440 1 0.0 737.3402127086506 439.89982876612214 694.8083265946185 # Ar
1441 1441 1 0.0 214.5159227632255 559.1770464417099 775.6038143666681 # Ar
1442 1442 1 0.0 396.2710927977571 185.01934338288237 365.0966227119355 # Ar
1443 1443 1 0.0 661.2547103591753 61.049899477604285 847.8983698541663 # Ar
1444 1444 1 0.0 178.84531287741308 147.23525603448073 405.58310136803647 # Ar
1445 1445 1 0.0 194.93445734416412 829.5000810954739 487.56313084772995 # Ar
1446 1446 1 0.0 826.6571239402035 865.793040078474 81.05816207105173 # Ar
1447 1447 1 0.0 703.2844452873926 490.0942399872319 634.2165901553699 # Ar
1448 1448 1 0.0 998.5659800466215 1015.7136131150373 26.02587326387504 # Ar
1449 1449 1 0.0 967.6912244070679 185.06802086911688 517.3840466745353 # Ar
1450 1450 1 0.0 544.3988285705179 196.99560208394666 800.9459747307391 # Ar
1451 1451 1 0.0 206.85491461461916 389.94291157960095 440.4604556364045 # Ar
1452 1452 1 0.0 259.4579847103418 769.5107374536601 553.3350981583054 # Ar
1453 1453 1 0.0 264.828040378251 928.3376023217274 680.2154899905498 # Ar
1454 1454 1 0.0 568.1304479145775 91.01072964699048 502.51122510730397 # Ar
1455 1455 1 0.0 75.69468540872806 866.2359035502773 395.0687472112032 # Ar
1456 1456 1 0.0 914.6423157734544 166.1010717570277 599.0959846733339 # Ar
1457 1457 1 0.0 1004.0181093463294 438.02331262256166 338.9593499517435 # Ar
1458 1458 1 0.0 176.80133320349086 354.3119733453907 437.4859326507439 # Ar
1459 1459 1 0.0 931.8398815455087 566.0478849926698 48.86467602501751 # Ar
1460 1460 1 0.0 695.3976022907747 272.0343857999175 736.099278803017 # Ar
1461 1461 1 0.0 936.4432599420472 248.63589989513693 7.678056498303486 # Ar
1462 1462 1 0.0 421.81685198128554 240.14226137904984 553.7947696100616 # Ar
1463 1463 1 0.0 952.1863962396858 256.8182062511714 683.5074640823481 # Ar
1464 1464 1 0.0 376.39021558525275 54.96095582717197 835.774847086824 # Ar
1465 1465 1 0.0 536.3042842798318 524.772306274665 799.9928352223749 # Ar
1466 1466 1 0.0 491.8553197853652 279.723015688169 356.14438307567514 # Ar
1467 1467 1 0.0 945.8488284358685 193.5898848698536 46.076929270875624 # Ar
1468 1468 1 0.0 511.1223933243495 78.89929022427056 594.9402206754265 # Ar
1469 1469 1 0.0 573.6166542070041 438.7567775728789 649.0665436500277 # Ar
1470 1470 1 0.0 666.288830123578 755.2011921670365 1010.8084482839441 # Ar
1471 1471 1 0.0 836.507647450417 481.811217227491 923.9839359940369 # Ar
1472 1472 1 0.0 748.5360833784382 703.377322055011 699.2667032072691 # Ar
1473 1473 1 0.0 26.883213218395987 545.6561525291197 533.5455577629873 # Ar
1474 1474 1 0.0 322.5750771841983 49.63452775463019 187.42526737225032 # Ar
1475 1475 1 0.0 201.36990459847974 458.5918756645184 502.6319590707391 # Ar
1476 1476 1 0.0 94.48668365643375 60.30258466785817 418.16517288740636 # Ar
1477 1477 1 0.0 39.3122610015072 306.7650829072322 398.2363780579839 # Ar
1478 1478 1 0.0 756.1075530269753 58.15434741150084 80.97074840964265 # Ar
1479 1479 1 0.0 103.79800226785011 545.2298465864606 275.23612295287364 # Ar
1480 1480 1 0.0 917.2481185197038 571.4372612286147 28.67835265664408 # Ar
1481 1481 1 0.0 333.51790047740536 539.4936318445953 255.56744528382697 # Ar
1482 1482 1 0.0 695.2348727667844 747.4948839212082 923.5914950416488 # Ar
1483 1483 1 0.0 577.9489057486343 691.4583257674932 643.5674821276766 # Ar
1484 1484 1 0.0 953.1163005522295 899.0261972955079 704.5768605076574 # Ar
1485 1485 1 0.0 778.6838807165469 897.3788759895291 502.53893142884584 # Ar
1486 1486 1 0.0 764.1225563885822 651.714695134999 857.585911696775 # Ar
1487 1487 1 0.0 995.4018615095202 68.87646833509905 919.1653487482864 # Ar
1488 1488 1 0.0 534.9455604633504 211.27484470346258 667.2083299177772 # Ar
1489 1489 1 0.0 688.7072617176807 702.9316464686916 529.8496599978266 # Ar
1490 1490 1 0.0 649.7706100937309 230.3057002060293 95.86238360834156 # Ar
1491 1491 1 0.0 218.5629201278519 227.0639604439939 535.5161850000655 # Ar
1492 1492 1 0.0 692.1841270199353 692.1727505810246 229.57629101490528 # Ar
1493 1493 1 0.0 404.12118532872614 164.38640866261167 700.1072274244304 # Ar
1494 1494 1 0.0 2.717017275435381 994.5531445406652 300.01936718645464 # Ar
1495 1495 1 0.0 100.11100358436106 1025.3661517634253 733.5389939192276 # Ar
1496 1496 1 0.0 303.1218747845718 847.9701099970479 928.385322022947 # Ar
1497 1497 1 0.0 971.1926292545674 0.1831659783517207 2.794783583881382 # Ar
1498 1498 1 0.0 318.03508885854495 801.7571848785611 257.39480092660995 # Ar
1499 1499 1 0.0 84.45617642783196 706.325189517722 637.4780033044158 # Ar
1500 1500 1 0.0 931.1653880324602 410.70132313462204 314.23098666456013 # Ar
1501 1501 1 0.0 93.33321166724899 374.64713251960313 134.5643722790168 # Ar
1502 1502 1 0.0 185.06565892719306 574.5844481433437 664.7809151245954 # Ar
1503 1503 1 0.0 458.98042327805433 600.598518963714 763.6595133864384 # Ar
1504 1504 1 0.0 171.31851605192327 936.7876477979047 895.5673054133783 # Ar
1505 1505 1 0.0 956.1682661405484 884.4440359823443 191.35084661208555 # Ar
1506 1506 1 0.0 88.96779148591635 545.9266533863932 55.33570987059847 # Ar
1507 1507 1 0.0 813.3352379865403 420.1202943024173 684.4581834565777 # Ar
1508 1508 1 0.0 562.2943567871348 527.8753129683002 209.05820546547253 # Ar
1509 1509 1 0.0 229.27584750675575 933.1291080507866 194.3492952520374 # Ar
1510 1510 1 0.0 247.07257958083804 406.21663316343387 457.1824359673269 # Ar
1511 1511 1 0.0 536.7668214275152 242.13761619193482 519.6718616398615 # Ar
1512 1512 1 0.0 526.0920884490654 747.848364747252 441.3523747769815 # Ar
1513 1513 1 0.0 895.329240522552 175.88826073729862 12.70418518945812 # Ar
1514 1514 1 0.0 741.1264324170016 568.4852604620859 104.95599006570053 # Ar
1515 1515 1 0.0 737.2871829172551 180.11569595890705 70.53834394987955 # Ar
1516 1516 1 0.0 776.0675367639698 656.5040771858396 440.52059866442835 # Ar
1517 1517 1 0.0 1021.9343344221193 864.4097239307931 947.9280568193527 # Ar
1518 1518 1 0.0 250.75323153296858 797.3044287262028 914.2711375709084 # Ar
1519 1519 1 0.0 100.04955196228025 944.2286343816749 981.3307032366276 # Ar
1520 1520 1 0.0 363.7792964045243 464.7721120287427 108.33685227049736 # Ar
1521 1521 1 0.0 631.9149789733756 554.570009450634 710.4205571866872 # Ar
1522 1522 1 0.0 195.73336598312494 868.6334239999783 256.00586288656007 # Ar
1523 1523 1 0.0 157.70830890650925 849.9974754369994 1027.7911597460836 # Ar
1524 1524 1 0.0 136.4527545081279 12.74501370284183 957.6472181335747 # Ar
1525 1525 1 0.0 613.4251898913717 233.73092056460044 940.7410011734776 # Ar
1526 1526 1 0.0 884.4138132950401 150.7883159612242 686.4591895837696 # Ar
1527 1527 1 0.0 207.61840575789174 211.53805490516604 138.1398639943822 # Ar
1528 1528 1 0.0 753.5428337844434 326.92449760786104 493.30301527965094 # Ar
1529 1529 1 0.0 971.1121891144979 380.2633657776369 598.5823932732729 # Ar
1530 1530 1 0.0 341.5628290926294 367.3298862985869 718.7221918671767 # Ar
1531 1531 1 0.0 148.93421422369394 981.4576148108894 520.2904368286121 # Ar
1532 1532 1 0.0 1024.0973786332258 54.296858724146325 839.1308102870546 # Ar
1533 1533 1 0.0 998.5795100098683 749.6539502116635 464.2736825009125 # Ar
1534 1534 1 0.0 313.1753320002008 960.1261734562271 799.1292397262804 # Ar
1535 1535 1 0.0 640.9901998116421 673.0506462197508 873.7606473013054 # Ar
1536 1536 1 0.0 889.8021425093328 526.9184740511164 380.3897070117831 # Ar
1537 1537 1 0.0 2.5725370735667634 740.1612155163486 1010.3409677661977 # Ar
1538 1538 1 0.0 183.10218553639947 402.1529497833693 683.225784867309 # Ar
1539 1539 1 0.0 531.668426809763 576.8640359220954 1013.6107806413708 # Ar
1540 1540 1 0.0 152.6081741610074 841.4247590632673 901.8899230735332 # Ar
1541 1541 1 0.0 687.4451018778608 907.0961447297628 25.901634241518973 # Ar
1542 1542 1 0.0 868.7151363778277 117.39570453044459 748.8769629542857 # Ar
1543 1543 1 0.0 821.4769820838211 182.61454919044326 404.3046987706108 # Ar
1544 1544 1 0.0 972.84334247223 696.2996497781688 608.7034393111787 # Ar
1545 1545 1 0.0 908.1564256913147 296.1956008828306 752.0133073516123 # Ar
1546 1546 1 0.0 15.250382893302001 263.2885376293153 888.5556217320326 # Ar
1547 1547 1 0.0 471.6576336107644 432.32130195232025 462.88309477586597 # Ar
1548 1548 1 0.0 382.65527601696175 785.87340562117 832.4076057357349 # Ar
1549 1549 1 0.0 964.0667189230605 714.3912550690302 148.6306716495775 # Ar
1550 1550 1 0.0 354.15810905890424 789.3817176321874 327.88284540771855 # Ar
1551 1551 1 0.0 445.4777473353103 696.2762823632936 889.9519737782194 # Ar
1552 1552 1 0.0 679.41845785306 416.96044778577044 363.4723109727177 # Ar
1553 1553 1 0.0 642.7093759829994 342.0664130755471 827.7692835288681 # Ar
1554 1554 1 0.0 147.22311265281525 969.9356416125502 127.49243265316845 # Ar
1555 1555 1 0.0 330.1048629989835 912.5583820793095 573.407363633813 # Ar
1556 1556 1 0.0 200.6052154301574 903.9919698368499 278.3477720347641 # Ar
1557 1557 1 0.0 783.7403636011251 886.889936661286 768.6212417775635 # Ar
1558 1558 1 0.0 178.26551857591087 321.32034782546305 675.2153243332241 # Ar
1559 1559 1 0.0 299.10282043445204 717.0444328636167 565.885508934935 # Ar
1560 1560 1 0.0 203.8414714524045 648.6305153860349 827.2150395061828 # Ar
1561 1561 1 0.0 481.17410464117097 841.8782462214073 631.7324029063357 # Ar
1562 1562 1 0.0 580.4911015539811 665.2868585035167 226.69793483278232 # Ar
1563 1563 1 0.0 47.310559996286045 849.7541995274285 810.7908993762411 # Ar
1564 1564 1 0.0 917.8879284692746 231.5021385768099 140.18407746455037 # Ar
1565 1565 1 0.0 275.62094042585363 205.2478898690783 887.3160571764229 # Ar
1566 1566 1 0.0 540.7258350497641 676.9080571369302 574.8922783524638 # Ar
1567 1567 1 0.0 782.8777341393293 937.4937335837335 181.33915481635265 # Ar
1568 1568 1 0.0 848.901886032587 485.8653826922426 700.1444921072206 # Ar
1569 1569 1 0.0 443.6652204829524 117.03340566880495 34.21535797481753 # Ar
1570 1570 1 0.0 39.65040192466329 773.7743856886009 657.2994945738386 # Ar
1571 1571 1 0.0 969.2820575195361 10.724159471378798 914.4636424462805 # Ar
1572 1572 1 0.0 172.01420383627791 975.0511425272146 670.6149993259314 # Ar
1573 1573 1 0.0 1005.988197302999 506.09122317861465 55.841230699740265 # Ar
1574 1574 1 0.0 879.89686422885 496.66704857391375 560.5922925811706 # Ar
1575 1575 1 0.0 602.1216439379293 113.2178060125705 118.85134060199695 # Ar
1576 1576 1 0.0 1022.9551991068588 983.2062795373309 785.8272982628473 # Ar
1577 1577 1 0.0 651.1078059287578 824.2544670462357 174.6420613031644 # Ar
1578 1578 1 0.0 396.03168954435785 973.3310916023535 511.75737394028255 # Ar
1579 1579 1 0.0 371.5804696837077 132.75944703249678 320.2080644590944 # Ar
1580 1580 1 0.0 522.0151507007669 993.1954887742581 727.6003996642427 # Ar
1581 1581 1 0.0 901.2394253097831 541.9376551299976 479.18871151526514 # Ar
1582 1582 1 0.0 416.1565293543567 997.493503018632 951.8395374924149 # Ar
1583 1583 1 0.0 683.2595390464251 775.2068427121891 230.2776873420683 # Ar
1584 1584 1 0.0 273.7151356646335 55.43035520051354 1015.9641282007998 # Ar
1585 1585 1 0.0 980.0052916445718 447.6359048035233 534.6282288044939 # Ar
1586 1586 1 0.0 918.9303314234554 205.4497546369985 736.9973352392283 # Ar
1587 1587 1 0.0 591.4825801389503 500.56776372898264 418.88297486028375 # Ar
1588 1588 1 0.0 197.75742545596577 351.4192811602865 256.0458848203341 # Ar
1589 1589 1 0.0 726.2966254325237 654.3096559646236 50.75357789707593 # Ar
1590 1590 1 0.0 514.1890372652516 760.6906373460789 386.7076580158518 # Ar
1591 1591 1 0.0 741.5282696476387 620.5841387437811 544.4976086876137 # Ar
1592 1592 1 0.0 418.2114143798658 47.82398685437271 579.0383707673523 # Ar
1593 1593 1 0.0 427.7039241342106 834.8708619495064 757.8116660233429 # Ar
1594 1594 1 0.0 333.4945000076758 966.9180572683463 678.2164214975419 # Ar
1595 1595 1 0.0 492.5693790076614 65.92839652196271 394.10801272394576 # Ar
1596 1596 1 0.0 671.6661369105982 996.5437255130141 858.819670863221 # Ar
1597 1597 1 0.0 817.1805499626555 252.93905572905152 917.6050217094602 # Ar
1598 1598 1 0.0 326.8185162457823 397.0171872900897 487.1628506575232 # Ar
1599 1599 1 0.0 600.4844957844107 578.1478338631626 713.6576130239533 # Ar
1600 1600 1 0.0 65.73482509499192 942.4169904550747 544.2055139522876 # Ar
1601 1601 1 0.0 778.19842018602 108.47255342124119 808.1681748907063 # Ar
1602 1602 1 0.0 180.69587857170413 952.7609959840959 129.58319016703183 # Ar
1603 1603 1 0.0 972.2368340952752 194.6503674994639 213.17794751426675 # Ar
1604 1604 1 0.0 295.8391929061073 743.2656300541596 7.678523770909473 # Ar
1605 1605 1 0.0 1006.9249113880112 481.0687662707716 677.1887376199521 # Ar
1606 1606 1 0.0 601.7807353783205 975.5222392253495 1022.7082640947268 # Ar
1607 1607 1 0.0 675.874342987102 134.30486812511842 220.6841938669956 # Ar
1608 1608 1 0.0 208.29181281625853 282.0947797935661 849.5349578594071 # Ar
1609 1609 1 0.0 536.1667765601973 80.69683535684611 926.5173384336349 # Ar
1610 1610 1 0.0 129.77541491929 204.12648498619922 887.0788423896763 # Ar
1611 1611 1 0.0 665.4466050855021 183.63905406310695 218.1802346464177 # Ar
1612 1612 1 0.0 92.99263667048415 438.47724062008007 24.099643879437913 # Ar
1613 1613 1 0.0 563.0520419978982 62.69316452005598 937.6133937451644 # Ar
1614 1614 1 0.0 619.3053154674606 419.95023807449195 367.78640427205687 # Ar
1615 1615 1 0.0 48.89723965453281 852.8049706922387 744.161202462804 # Ar
1616 1616 1 0.0 8.822449595428868 718.1865221470139 409.0279066064537 # Ar
1617 1617 1 0.0 602.5254740735631 897.1796656106293 98.6421557544988 # Ar
1618 1618 1 0.0 812.6870652635454 779.5907151243385 717.2118845075389 # Ar
1619 1619 1 0.0 539.4995838697068 379.6862907434065 644.8313875026662 # Ar
1620 1620 1 0.0 608.3183131899398 98.2057056299783 662.0277321655368 # Ar
1621 1621 1 0.0 606.000361152209 222.04264132324133 422.3957622349072 # Ar
1622 1622 1 0.0 353.30411115924755 300.95784952389465 1003.1981780287408 # Ar
1623 1623 1 0.0 11.814964062916786 973.7659213424776 627.9437501844983 # Ar
1624 1624 1 0.0 552.1390717685815 796.4954646922099 625.2862488558998 # Ar
1625 1625 1 0.0 732.7996184526918 15.82568652780527 246.96244407191992 # Ar
1626 1626 1 0.0 110.5579457880939 944.8763200599943 722.4840812989913 # Ar
1627 1627 1 0.0 825.8960587251436 313.46504332091325 130.14830730901986 # Ar
1628 1628 1 0.0 638.3130210920289 622.2718610301156 174.20151469297065 # Ar
1629 1629 1 0.0 643.037081410163 360.4283532158752 13.16085370231958 # Ar
1630 1630 1 0.0 533.2523550605455 599.4403519552255 655.5129160213211 # Ar
1631 1631 1 0.0 143.02988226344758 360.11176324377595 429.9507022944041 # Ar
1632 1632 1 0.0 970.558739321309 509.40522081964116 609.6152288674375 # Ar
1633 1633 1 0.0 820.3479988012641 73.21654995567329 670.4033280490983 # Ar
1634 1634 1 0.0 725.8737662661132 993.6051495198401 184.26586741705887 # Ar
1635 1635 1 0.0 160.66379970076716 717.6057786958304 343.7253267644344 # Ar
1636 1636 1 0.0 651.844211262603 416.30760210400337 473.7866490751973 # Ar
1637 1637 1 0.0 489.70030372581215 591.0592803905498 386.05474549117105 # Ar
1638 1638 1 0.0 920.9094751700372 210.0593542583794 285.62723567902964 # Ar
1639 1639 1 0.0 304.1255128848608 288.9800791440795 951.1108183885348 # Ar
1640 1640 1 0.0 185.69746289650348 913.4907062209692 1023.8423380021679 # Ar
1641 1641 1 0.0 70.01116060112089 474.5784357648469 553.3949904674533 # Ar
1642 1642 1 0.0 665.0264679183163 324.75605610011553 413.57456593266187 # Ar
1643 1643 1 0.0 4.048977190048896 177.63184187363092 133.5176200936066 # Ar
1644 1644 1 0.0 869.4229786336356 412.166961540508 199.56173599155113 # Ar
1645 1645 1 0.0 966.417727963013 320.5627053128553 721.6017686828525 # Ar
1646 1646 1 0.0 619.2717903226309 569.9906634390936 462.9108963923156 # Ar
1647 1647 1 0.0 924.1036226526444 915.3442986765575 317.3909051864803 # Ar
1648 1648 1 0.0 888.6720402234906 121.17801956816957 196.83531517441799 # Ar
1649 1649 1 0.0 820.1985716725446 976.8743799049128 1008.6172290145213 # Ar
1650 1650 1 0.0 409.1759305969069 72.0022058033714 940.9056405389995 # Ar
1651 1651 1 0.0 847.7024751792551 580.4291471327016 496.2164768517415 # Ar
1652 1652 1 0.0 523.3223265333436 955.1129179084671 636.0554662080783 # Ar
1653 1653 1 0.0 854.187038377757 742.3139623751157 769.3327857155381 # Ar
1654 1654 1 0.0 81.77658688746844 900.8831386223541 854.9519090695609 # Ar
1655 1655 1 0.0 957.4385939232335 80.70062977214648 873.6485621618173 # Ar
1656 1656 1 0.0 556.8264132899592 205.98717618802948 1014.6646544134763 # Ar
1657 1657 1 0.0 322.0921143414039 743.4320501451115 21.858371295670835 # Ar
1658 1658 1 0.0 36.93492461438589 29.55600898497147 900.9571620955519 # Ar
1659 1659 1 0.0 493.9224494309645 183.30263582143314 602.002654040665 # Ar
1660 1660 1 0.0 382.3724046566076 696.326349123535 429.4867171551491 # Ar
1661 1661 1 0.0 713.9685431122132 854.9360214843131 536.1477848280148 # Ar
1662 1662 1 0.0 717.9616876121788 729.856484119641 389.06520548830247 # Ar
1663 1663 1 0.0 999.7302395035638 720.4185816963989 47.04405636868029 # Ar
1664 1664 1 0.0 748.3470911219861 784.0522126570426 906.4842208288864 # Ar
1665 1665 1 0.0 740.8163059305031 184.92569433877674 899.8145595353457 # Ar
1666 1666 1 0.0 780.0058024967113 124.96682796404684 589.9002591628919 # Ar
1667 1667 1 0.0 290.4527147604357 669.7506789716748 765.6457748897133 # Ar
1668 1668 1 0.0 431.80737216685714 965.6775439132853 753.7712530841295 # Ar
1669 1669 1 0.0 299.465040938746 698.1275232636201 182.72894517539933 # Ar
1670 1670 1 0.0 325.510174483478 358.21877495371615 410.1248804213925 # Ar
1671 1671 1 0.0 5.988603247140098 245.34764742235527 241.26534918134405 # Ar
1672 1672 1 0.0 929.2156126096752 757.7268744098754 883.1261300816508 # Ar
1673 1673 1 0.0 762.513058661261 189.70165128002046 61.97624965686197 # Ar
1674 1674 1 0.0 678.356542150387 203.48028682026847 134.35392221244598 # Ar
1675 1675 1 0.0 134.3488242448774 538.9331427942735 793.1799829313842 # Ar
1676 1676 1 0.0 1011.6678974186132 405.35864058591307 845.2225255119439 # Ar
1677 1677 1 0.0 236.77426815857996 197.04098599433976 816.6985113411145 # Ar
1678 1678 1 0.0 596.4215822678299 634.6606270892809 94.74200711343619 # Ar
1679 1679 1 0.0 712.3879850091047 849.0603140314051 547.924636134934 # Ar
1680 1680 1 0.0 967.022091858588 225.1562975521478 105.86988166568865 # Ar
1681 1681 1 0.0 490.8067138310313 222.32772334203912 665.5941233484576 # Ar
1682 1682 1 0.0 668.5890665397593 54.65967316679968 163.40237183586402 # Ar
1683 1683 1 0.0 355.02683038704504 1011.1460805072343 913.0971822941747 # Ar
1684 1684 1 0.0 829.612343366212 469.9398572730013 181.48688224569474 # Ar
1685 1685 1 0.0 947.8721937101557 816.433254846219 963.5241763649925 # Ar
1686 1686 1 0.0 754.6346222385077 10.006013409669807 707.5077848898072 # Ar
1687 1687 1 0.0 674.2350115642654 298.26382198248785 945.3472118714593 # Ar
1688 1688 1 0.0 961.8208927592391 720.5284037444377 458.76314121449184 # Ar
1689 1689 1 0.0 670.3812905815045 342.5749273025017 692.9691429681479 # Ar
1690 1690 1 0.0 810.1047385525505 504.2602203907867 620.833047026853 # Ar
1691 1691 1 0.0 45.40621507935759 812.1758722449341 846.3654923355532 # Ar
1692 1692 1 0.0 799.2285994824481 998.8365447416489 733.1955973920303 # Ar
1693 1693 1 0.0 752.3342540164125 566.121043660748 639.6431729307867 # Ar
1694 1694 1 0.0 942.7611918797296 508.4619298858121 293.74232233773915 # Ar
1695 1695 1 0.0 279.43814785580525 881.6723557140034 253.40404231092788 # Ar
1696 1696 1 0.0 75.47889162804984 566.0389597189818 977.5755828805188 # Ar
1697 1697 1 0.0 888.8516457037017 343.94976893642314 437.89518603435727 # Ar
1698 1698 1 0.0 314.142361669701 322.94720169646416 928.8071008114908 # Ar
1699 1699 1 0.0 493.2276971625401 299.35673982760073 443.82030404151965 # Ar
1700 1700 1 0.0 32.579095453184024 603.0544087796318 22.38792763619043 # Ar
1701 1701 1 0.0 682.1283558042148 750.6523404081076 956.8706986173996 # Ar
1702 1702 1 0.0 782.6078460735336 305.65656575000185 986.5419550184907 # Ar
1703 1703 1 0.0 753.880486181379 703.9463778238779 55.82847272958194 # Ar
1704 1704 1 0.0 731.5566464521497 543.0233062207093 310.5781203888539 # Ar
1705 1705 1 0.0 687.5296992570692 543.8315479338605 433.52212927049 # Ar
1706 1706 1 0.0 696.6176618339296 471.0149576744094 338.6632943075612 # Ar
1707 1707 1 0.0 199.90238611152537 322.8244049612969 206.93064635346485 # Ar
1708 1708 1 0.0 41.45244149721151 692.4404803450391 490.1967043881489 # Ar
1709 1709 1 0.0 581.8622051641524 389.4194875888886 661.2653292703975 # Ar
1710 1710 1 0.0 864.0505893636265 473.8397479858856 92.56258099637215 # Ar
1711 1711 1 0.0 650.3103338136455 675.1383407306623 219.0751174875848 # Ar
1712 1712 1 0.0 102.02366304559115 952.2903389271612 796.0698252696175 # Ar
1713 1713 1 0.0 794.1533673017296 597.3381030650359 221.99993756373706 # Ar
1714 1714 1 0.0 364.1351038961313 851.3360307217547 60.96417290252971 # Ar
1715 1715 1 0.0 377.9403299479324 89.75388106747954 507.3035616399867 # Ar
1716 1716 1 0.0 509.1026895253431 840.2667289491621 498.6561243209228 # Ar
1717 1717 1 0.0 1025.3289268124176 378.386908704823 731.0686908451604 # Ar
1718 1718 1 0.0 251.99252192793787 381.18753225900565 523.8171034048547 # Ar
1719 1719 1 0.0 203.20055104444728 416.4885034871928 159.57277351189356 # Ar
1720 1720 1 0.0 364.89958429638915 943.3301282635047 1020.4985310677383 # Ar
1721 1721 1 0.0 22.544529345732776 287.2297922597812 252.25392969515434 # Ar
1722 1722 1 0.0 786.3421334145929 735.8304776856473 664.8863580008898 # Ar
1723 1723 1 0.0 33.90742470049918 288.6505705630845 142.15655208581524 # Ar
1724 1724 1 0.0 79.47973031416606 210.7704021585987 939.6457681633425 # Ar
1725 1725 1 0.0 232.23343637230272 519.2518000714474 962.4772127351112 # Ar
1726 1726 1 0.0 133.34131388432382 92.9726283963003 226.85207140435264 # Ar
1727 1727 1 0.0 465.65078765152606 876.799663519673 766.6480791754238 # Ar
1728 1728 1 0.0 927.0752653574127 222.62848189028855 893.1024547563353 # Ar
1729 1729 1 0.0 894.5458503803785 537.6807912896887 20.77852147783099 # Ar
1730 1730 1 0.0 369.9265006488032 622.8633072273753 350.33988249239917 # Ar
1731 1731 1 0.0 470.80179410416446 656.161292160651 481.02189040172647 # Ar
1732 1732 1 0.0 428.7759671546762 839.886277521574 34.20917042131471 # Ar
1733 1733 1 0.0 577.2796986779462 133.1051362855499 897.5369802324516 # Ar
1734 1734 1 0.0 213.59708180781672 495.80672884391635 151.1017776150522 # Ar
1735 1735 1 0.0 563.3726619928553 960.783469134402 118.15972936154805 # Ar
1736 1736 1 0.0 922.8276744318551 207.9738210985731 744.5030692593521 # Ar
1737 1737 1 0.0 254.55103907634597 179.5523719213162 618.7073278497072 # Ar
1738 1738 1 0.0 627.4759429295278 468.83729643040925 113.46465536151779 # Ar
1739 1739 1 0.0 103.96352064998904 81.12098253024591 846.869374233149 # Ar
1740 1740 1 0.0 472.5542027536031 848.0683574524057 603.0419622119376 # Ar
1741 1741 1 0.0 587.270757338635 289.3809613145947 798.676406659192 # Ar
1742 1742 1 0.0 150.01203914491194 789.2777938112188 300.2834995625781 # Ar
1743 1743 1 0.0 364.1469346783734 757.6547688134094 792.342473257804 # Ar
1744 1744 1 0.0 656.0725876709386 582.4529877101374 876.341150288433 # Ar
1745 1745 1 0.0 46.087401959614866 446.7769114080656 784.9849887848765 # Ar
1746 1746 1 0.0 996.9531594946925 191.65915240678086 230.37418481566317 # Ar
1747 1747 1 0.0 152.64296058610606 830.5293675344549 99.1633740555469 # Ar
1748 1748 1 0.0 53.22182217160936 198.17802768255635 127.04814104457577 # Ar
1749 1749 1 0.0 306.53108535493925 286.73759848100053 111.9469890305368 # Ar
1750 1750 1 0.0 843.5283401160782 533.0848447352982 19.222606792833783 # Ar
1751 1751 1 0.0 394.88151996020844 309.1338003870471 313.0205724490168 # Ar
1752 1752 1 0.0 384.1853499964537 900.029720812116 935.9853112455841 # Ar
1753 1753 1 0.0 325.68705320826155 978.6242014871851 911.0191257202771 # Ar
1754 1754 1 0.0 156.0009495344921 366.9593126766481 705.4090673493048 # Ar
1755 1755 1 0.0 226.57887913063183 77.99122471100321 749.664607531157 # Ar
1756 1756 1 0.0 234.42666417489346 23.76442846176611 891.5806066223677 # Ar
1757 1757 1 0.0 302.11741476835346 894.3889312054208 588.1239204806044 # Ar
1758 1758 1 0.0 916.8077392844211 200.3383401042779 341.2623238723001 # Ar
1759 1759 1 0.0 1026.0226302813924 819.4337938588466 668.3446110450004 # Ar
1760 1760 1 0.0 625.145000983086 518.5821498910675 389.7115885974588 # Ar
1761 1761 1 0.0 18.602123704901853 623.8333516514673 829.8258593939285 # Ar
1762 1762 1 0.0 1012.5291346072589 549.1446496379235 952.3678920363125 # Ar
1763 1763 1 0.0 10.504164383503124 847.6926095479477 695.1031442840094 # Ar
1764 1764 1 0.0 113.46713844551411 862.660710109053 113.37932204783192 # Ar
1765 1765 1 0.0 540.7070582202227 255.42199668475817 1027.6552452799256 # Ar
1766 1766 1 0.0 1012.316686313703 755.6484296652465 555.3521084019126 # Ar
1767 1767 1 0.0 643.1246941800358 788.0341838012922 681.4687916520314 # Ar
1768 1768 1 0.0 764.5688615901697 736.7604210435316 159.91974133600817 # Ar
1769 1769 1 0.0 792.0063311414034 926.2439616400843 360.9646349888304 # Ar
1770 1770 1 0.0 469.8366204463856 3.0121948861849477 333.19510955082836 # Ar
1771 1771 1 0.0 33.409166828633396 359.5421563233844 597.388075814507 # Ar
1772 1772 1 0.0 692.7449555170458 796.7875289697619 636.1817070780592 # Ar
1773 1773 1 0.0 562.9762845490903 544.0310118024441 813.2177042563388 # Ar
1774 1774 1 0.0 963.1838511836315 61.10744494050148 663.8690856952194 # Ar
1775 1775 1 0.0 645.0281400548089 692.2887529306535 14.194755729564134 # Ar
1776 1776 1 0.0 611.007820493471 668.3758877908132 68.97860442832236 # Ar
1777 1777 1 0.0 159.96776544944038 218.5545563017003 276.9010837404063 # Ar
1778 1778 1 0.0 879.9528663870248 287.83390572793695 332.7635615709168 # Ar
1779 1779 1 0.0 455.4922322512454 405.569929214294 584.5471373808793 # Ar
1780 1780 1 0.0 504.4294786050411 142.33588333749978 234.1317482048629 # Ar
1781 1781 1 0.0 741.2252510524579 969.9887405865846 833.7019338830155 # Ar
1782 1782 1 0.0 482.37342865582485 485.4494070106753 548.4080659662114 # Ar
1783 1783 1 0.0 876.8985902653715 658.6442660429218 31.76787606670857 # Ar
1784 1784 1 0.0 98.18982762499438 441.26739784396574 153.01750824675634 # Ar
1785 1785 1 0.0 135.99050002583644 150.4906810274544 291.6984003966178 # Ar
1786 1786 1 0.0 483.77652179456044 582.2543983195011 912.1381024958835 # Ar
1787 1787 1 0.0 1017.2367486045582 489.51442285234657 176.1214416157949 # Ar
1788 1788 1 0.0 625.1380445712449 28.59982250709522 319.22729102319335 # Ar
1789 1789 1 0.0 90.91175057014233 414.780978782924 779.8567194952528 # Ar
1790 1790 1 0.0 197.99164980139253 692.3874752688293 904.1356042754255 # Ar
1791 1791 1 0.0 807.6834460020991 293.0348630275917 382.66596896444173 # Ar
1792 1792 1 0.0 964.8821566117637 483.903144231014 539.7986295558002 # Ar
1793 1793 1 0.0 834.7356982872135 124.16441348821137 110.86994018833165 # Ar
1794 1794 1 0.0 117.25519699915998 607.0175480159894 569.7316878678513 # Ar
1795 1795 1 0.0 392.659595164428 517.2198545081307 731.838174662037 # Ar
1796 1796 1 0.0 464.3166078222592 357.53774685771896 551.139300711217 # Ar
1797 1797 1 0.0 519.3137081103173 856.9418840425178 505.0125858663792 # Ar
1798 1798 1 0.0 410.3594004233008 444.86860699532684 1007.5176964511984 # Ar
1799 1799 1 0.0 119.39558629857764 364.9801108461397 172.98139516702125 # Ar
1800 1800 1 0.0 584.5436061893662 116.50319880381035 865.025937540386 # Ar
1801 1801 1 0.0 953.2256775773302 270.44716839205563 741.0528142279003 # Ar
1802 1802 1 0.0 979.3272824273679 515.6980771319946 796.5020166422165 # Ar
1803 1803 1 0.0 252.24004869268742 177.63887393164597 128.06816193184213 # Ar
1804 1804 1 0.0 737.0151457774 573.5864598537712 901.7896548953881 # Ar
1805 1805 1 0.0 260.54028329167653 482.43113039477885 474.1536100103481 # Ar
1806 1806 1 0.0 170.75447997476928 736.4804434325803 414.04759384306794 # Ar
1807 1807 1 0.0 851.2523991057644 216.07886919478386 755.9770336000557 # Ar
1808 1808 1 0.0 771.0551303249007 295.07481617232327 92.02260899559133 # Ar
1809 1809 1 0.0 487.5171387160335 113.19930069849559 421.2413789699444 # Ar
1810 1810 1 0.0 797.928357778286 852.9911719939842 109.44540184883795 # Ar
1811 1811 1 0.0 188.16420218766268 152.99670037370046 96.21553089849992 # Ar
1812 1812 1 0.0 398.55180161415177 23.308936786504823 662.2845393321334 # Ar
1813 1813 1 0.0 22.300465115732152 308.4803035533095 952.7389797813214 # Ar
1814 1814 1 0.0 568.2160171234625 45.90098955580016 429.3887857871636 # Ar
1815 1815 1 0.0 138.9628548071774 719.0186253144567 642.4459374885586 # Ar
1816 1816 1 0.0 669.8221221279784 1028.0652603977546 486.4781797047416 # Ar
1817 1817 1 0.0 30.40442264240228 845.5989906267075 1003.3848420220635 # Ar
1818 1818 1 0.0 303.01940935179636 204.0701332733659 979.9148439798258 # Ar
1819 1819 1 0.0 574.4393353208702 195.1867487475963 409.95296886270364 # Ar
1820 1820 1 0.0 825.1499598861101 284.03943588019297 544.8430297489375 # Ar
1821 1821 1 0.0 596.3502859220843 197.9860405715543 117.23273892753619 # Ar
1822 1822 1 0.0 608.7323066395948 727.077123700851 66.26486024829995 # Ar
1823 1823 1 0.0 314.0624244976405 917.341399889416 891.9160197276219 # Ar
1824 1824 1 0.0 777.7888909536009 663.7999846053709 147.31871729210565 # Ar
1825 1825 1 0.0 421.64164955125426 554.781191978692 166.94449182993262 # Ar
1826 1826 1 0.0 996.3135472619134 194.26208368635142 986.8606787188712 # Ar
1827 1827 1 0.0 455.1565218669868 919.1001309012606 1012.5656192534781 # Ar
1828 1828 1 0.0 841.6273849901414 443.2859928590111 342.8634681610122 # Ar
1829 1829 1 0.0 679.0066663239861 938.0092966431482 431.0953300932982 # Ar
1830 1830 1 0.0 632.2106137794545 643.4936679938079 747.1879160162014 # Ar
1831 1831 1 0.0 805.6271590790715 675.680966425857 956.3897658907392 # Ar
1832 1832 1 0.0 472.0082422908125 341.0057990744925 423.37582271726546 # Ar
1833 1833 1 0.0 621.5373299686684 80.69878090944661 108.34592717771291 # Ar
1834 1834 1 0.0 450.1338291033589 707.2322898134644 255.05717951601946 # Ar
1835 1835 1 0.0 221.18275026313566 955.6319432569506 691.9942620214491 # Ar
1836 1836 1 0.0 788.2330462174635 401.077933532826 742.0389440961014 # Ar
1837 1837 1 0.0 739.1371132521841 382.07633202692193 143.93496333927106 # Ar
1838 1838 1 0.0 513.8547613073757 250.67920358496613 895.2891912239677 # Ar
1839 1839 1 0.0 659.2700378988128 930.3380801943451 668.1098113988522 # Ar
1840 1840 1 0.0 580.4319301425724 915.804484502528 851.767064683487 # Ar
1841 1841 1 0.0 832.7324368994109 587.7877888277465 1005.8136022387563 # Ar
1842 1842 1 0.0 263.0807403375416 679.3426708489982 228.36126569843935 # Ar
1843 1843 1 0.0 896.112502471294 72.20342945706706 579.600344970981 # Ar
1844 1844 1 0.0 55.86967749899167 845.1151470720379 870.4003457326692 # Ar
1845 1845 1 0.0 198.62372678412908 673.9877410113631 646.7918681814222 # Ar
1846 1846 1 0.0 481.5393982130302 432.1165991315218 335.0246546833351 # Ar
1847 1847 1 0.0 763.4212661932883 325.32779435340933 50.30831127546209 # Ar
1848 1848 1 0.0 562.299430892802 744.3147670297653 718.4434832814893 # Ar
1849 1849 1 0.0 483.3858098886255 54.99175923153249 777.7287218971234 # Ar
1850 1850 1 0.0 862.9734851490462 415.0406782087108 152.65727728526193 # Ar
1851 1851 1 0.0 1028.8964767452062 916.5388946027847 1028.3422391817783 # Ar
1852 1852 1 0.0 129.40619164512339 156.26180741899503 352.58352262112186 # Ar
1853 1853 1 0.0 836.4756725598402 990.238499771907 1014.1849893949685 # Ar
1854 1854 1 0.0 731.0229166665673 726.9143360914044 75.8737805568139 # Ar
1855 1855 1 0.0 184.57637586615095 990.6902674757522 750.1003803504448 # Ar
1856 1856 1 0.0 13.144573434631155 387.23572247695614 359.96584758362883 # Ar
1857 1857 1 0.0 538.1112997455598 752.0461519479209 96.86609866256636 # Ar
1858 1858 1 0.0 648.0599444489742 286.98561661597967 673.5870184957737 # Ar
1859 1859 1 0.0 42.277097347099236 736.5262381004478 849.2584011020809 # Ar
1860 1860 1 0.0 40.49643605289255 98.90965783874275 341.1822315775067 # Ar
1861 1861 1 0.0 805.6511800298529 304.0254808177801 122.55709135155799 # Ar
1862 1862 1 0.0 736.736972896104 838.9071721831465 692.9060102709387 # Ar
1863 1863 1 0.0 355.4302135774926 745.8019471554009 530.7157283687392 # Ar
1864 1864 1 0.0 3.6032682124827686 637.4798916622965 734.5564715487304 # Ar
1865 1865 1 0.0 721.9425325997847 195.45472335824292 272.84966258738484 # Ar
1866 1866 1 0.0 849.8143335075456 686.671337190742 237.0787905563186 # Ar
1867 1867 1 0.0 810.0651738208296 286.91337265167317 274.0929042661841 # Ar
1868 1868 1 0.0 687.1125716130905 746.9079086922228 801.7641951842477 # Ar
1869 1869 1 0.0 289.2908356862968 855.5310941607432 684.4311380406922 # Ar
1870 1870 1 0.0 599.6277755131131 503.17649277148143 351.14808317040814 # Ar
1871 1871 1 0.0 986.3647260853721 313.3912331428502 134.6875222940521 # Ar
1872 1872 1 0.0 994.47466964693 235.76269841712877 864.2716248790813 # Ar
1873 1873 1 0.0 841.1961261300818 61.147973530324904 245.85661773702398 # Ar
1874 1874 1 0.0 83.22712232926553 327.6500940010377 69.09298185190784 # Ar
1875 1875 1 0.0 803.5488285082889 909.766812181083 230.35531566489905 # Ar
1876 1876 1 0.0 657.694359641226 116.13592011603214 216.0986566295421 # Ar
1877 1877 1 0.0 331.5834293684762 913.0315582110804 329.03649781233827 # Ar
1878 1878 1 0.0 1008.5400146272264 850.6004820088343 284.15044900970264 # Ar
1879 1879 1 0.0 355.75626791294496 146.64607787238293 121.90663002789015 # Ar
1880 1880 1 0.0 340.901703068882 637.239218511034 183.01574185110735 # Ar
1881 1881 1 0.0 781.9930805202032 344.05312680787364 134.1039825904646 # Ar
1882 1882 1 0.0 231.52678866936253 558.5652683466413 857.4791337627472 # Ar
1883 1883 1 0.0 279.71339042278356 941.9513910240701 817.521719653313 # Ar
1884 1884 1 0.0 358.1199111810707 22.131077249713854 620.0637087749379 # Ar
1885 1885 1 0.0 206.0646965397654 995.8148142229513 13.955540613669319 # Ar
1886 1886 1 0.0 236.01288181908023 136.92179132970975 440.6049848922281 # Ar
1887 1887 1 0.0 447.2087763966202 730.801885487367 681.99553509828 # Ar
1888 1888 1 0.0 698.5146443469052 530.0412882170542 920.583175829351 # Ar
1889 1889 1 0.0 758.8992210220132 1023.3472690255887 334.9754327237388 # Ar
1890 1890 1 0.0 808.7379024933908 19.800998627970447 591.8999149611714 # Ar
1891 1891 1 0.0 888.4439186434728 488.3611498351052 793.7816731279723 # Ar
1892 1892 1 0.0 958.8236392410729 765.6762631017097 713.0980176130196 # Ar
1893 1893 1 0.0 947.3641578344223 275.87065629661606 146.16673329242465 # Ar
1894 1894 1 0.0 161.56841153074782 666.4116836966946 964.6483997372304 # Ar
1895 1895 1 0.0 559.792046525124 510.0390761464044 385.3442875597935 # Ar
1896 1896 1 0.0 988.9240810463418 457.1944510751281 683.2667667005124 # Ar
1897 1897 1 0.0 283.349236233629 261.8690872848249 83.10701556223185 # Ar
1898 1898 1 0.0 667.8869740204668 495.0485574118435 513.4893281212547 # Ar
1899 1899 1 0.0 100.31661894276546 59.73173057582072 1024.1761237472456 # Ar
1900 1900 1 0.0 157.850622075635 55.81079296459515 273.97662394162677 # Ar
1901 1901 1 0.0 45.13009803176578 282.35072121919666 972.4716439631327 # Ar
1902 1902 1 0.0 347.47483197586934 345.1067163542995 777.2441566986606 # Ar
1903 1903 1 0.0 501.57584093315853 336.00457881188316 233.73533196456728 # Ar
1904 1904 1 0.0 174.37721157513693 654.0773549766786 548.4090368115174 # Ar
1905 1905 1 0.0 67.05614597569875 982.3118120849325 580.7884690199357 # Ar
1906 1906 1 0.0 990.7584248847268 567.0801370656187 517.6141497209284 # Ar
1907 1907 1 0.0 347.3037585060473 432.0580507978742 520.1733282061398 # Ar
1908 1908 1 0.0 987.8341842342078 369.28676375804855 36.85715392098832 # Ar
1909 1909 1 0.0 321.6250333135697 953.359254334744 66.0528004030627 # Ar
1910 1910 1 0.0 914.4863087755623 634.9044836691894 626.3673327640731 # Ar
1911 1911 1 0.0 61.010045271193626 286.34305269683404 646.9364915434879 # Ar
1912 1912 1 0.0 596.5816616542845 698.9109968408228 966.0338230945725 # Ar
1913 1913 1 0.0 532.5587297494033 791.2684980215297 404.797442764458 # Ar
1914 1914 1 0.0 539.5476313649833 57.58098211537796 174.17804092354137 # Ar
1915 1915 1 0.0 128.4199293409776 1007.8638762805 0.5213858807958541 # Ar
1916 1916 1 0.0 483.67532613409776 959.7072975011556 322.51628064663197 # Ar
1917 1917 1 0.0 162.25655276438536 453.5605044264169 520.4668766843448 # Ar
1918 1918 1 0.0 249.8899408857411 624.8347063697848 957.0567991133739 # Ar
1919 1919 1 0.0 611.5680235526206 101.2387223302043 900.9827045855319 # Ar
1920 1920 1 0.0 772.5442286796089 939.3335054374107 491.7415899782758 # Ar
1921 1921 1 0.0 27.684671073370357 154.025744247146 279.0320476267651 # Ar
1922 1922 1 0.0 995.2410344584767 492.53797600801755 266.10747161582003 # Ar
1923 1923 1 0.0 649.7635657178143 676.7129438735756 199.97907555862932 # Ar
1924 1924 1 0.0 684.6324082359155 339.2660484628196 597.3182257408572 # Ar
1925 1925 1 0.0 253.27557826719826 420.9928930766338 364.53095454954075 # Ar
1926 1926 1 0.0 296.0914003711263 355.9715833445334 322.6830860093469 # Ar
1927 1927 1 0.0 150.50057502776812 98.27678832742653 603.310701114573 # Ar
1928 1928 1 0.0 870.6870432928941 671.4641737833997 205.79007991767696 # Ar
1929 1929 1 0.0 476.31396357322603 409.7475314607148 1023.3219571308615 # Ar
1930 1930 1 0.0 564.212301060462 228.92280466080368 469.66022884598897 # Ar
1931 1931 1 0.0 665.5598940402472 236.83838644563642 785.4897767364204 # Ar
1932 1932 1 0.0 198.03749355190303 815.496674876256 463.4798002543704 # Ar
1933 1933 1 0.0 342.2215386297386 785.4189864937985 782.5167765308373 # Ar
1934 1934 1 0.0 732.8196014333155 505.6309373539473 306.41237970870066 # Ar
1935 1935 1 0.0 675.2727596903225 280.08342532147446 416.8816263417505 # Ar
1936 1936 1 0.0 117.24274064846774 416.475722507145 574.0679899948985 # Ar
1937 1937 1 0.0 543.4146641632933 81.94422286926232 374.74991061586843 # Ar
1938 1938 1 0.0 337.87422376915976 677.3973706414978 522.6933070659323 # Ar
1939 1939 1 0.0 729.2115966702519 418.3150485343764 807.7722205219228 # Ar
1940 1940 1 0.0 754.2838639210518 193.32984051624652 803.4426817333962 # Ar
1941 1941 1 0.0 258.53171313671845 41.814081681072 839.6080098842933 # Ar
1942 1942 1 0.0 396.51352967133766 236.84247883903203 782.6641798737904 # Ar
1943 1943 1 0.0 364.2626979602909 733.3152540742054 566.7705513686018 # Ar
1944 1944 1 0.0 661.5174275683381 572.4449108396494 19.829356482621215 # Ar
1945 1945 1 0.0 525.4442111089436 414.82643133555797 243.51327935381968 # Ar
1946 1946 1 0.0 989.2139295787927 174.97835291687474 301.53870047031944 # Ar
1947 1947 1 0.0 49.17859876330122 115.86873586499664 437.0452885479828 # Ar
1948 1948 1 0.0 554.3379931612901 613.6197504006926 733.0699734584675 # Ar
1949 1949 1 0.0 353.4312464935242 654.6866276372317 225.44317144612094 # Ar
1950 1950 1 0.0 974.9433634629424 43.511270049866866 698.4381874570626 # Ar
1951 1951 1 0.0 196.30158853637883 646.6771235757323 434.0377654434784 # Ar
1952 1952 1 0.0 78.8651882917557 758.7284285350422 6.0248123012587556 # Ar
1953 1953 1 0.0 812.8889493556167 837.5358905724324 779.8742405822871 # Ar
1954 1954 1 0.0 643.9322288489287 255.8020841608182 383.5641137877382 # Ar
1955 1955 1 0.0 361.8969338935745 562.1711291656662 216.6020364775643 # Ar
1956 1956 1 0.0 50.2061601053401 119.2497213025856 352.82694152173036 # Ar
1957 1957 1 0.0 576.9813921644931 493.53436119318866 904.7493413434927 # Ar
1958 1958 1 0.0 718.7836658707529 226.50136418204352 387.12597897922507 # Ar
1959 1959 1 0.0 258.214078461314 538.7646862118723 837.7466291944266 # Ar
1960 1960 1 0.0 721.3443782969637 462.64654863961687 102.38495363351448 # Ar
1961 1961 1 0.0 705.9281529148542 976.0434448314738 827.3729978425363 # Ar
1962 1962 1 0.0 34.93602062904358 342.6350077576105 280.82987673383576 # Ar
1963 1963 1 0.0 996.7352075223054 85.17431900352837 728.8644126368206 # Ar
1964 1964 1 0.0 861.2023680397147 554.3868503516595 250.75904672389984 # Ar
1965 1965 1 0.0 118.3151481887366 238.33276855486852 441.47901986556 # Ar
1966 1966 1 0.0 305.7599817750898 266.71131407345877 747.8493054910604 # Ar
1967 1967 1 0.0 719.7809395757512 688.3715366045319 197.24520371799937 # Ar
1968 1968 1 0.0 763.3225088974064 665.7393480090159 715.3690844147443 # Ar
1969 1969 1 0.0 274.2424596298044 955.8812159123295 901.335156184597 # Ar
1970 1970 1 0.0 170.25645660660692 484.0997868266775 531.3033377170256 # Ar
1971 1971 1 0.0 788.0417555839573 328.9832028903666 468.1317236921484 # Ar
1972 1972 1 0.0 505.0828071387696 471.07302685280507 267.23137031020093 # Ar
1973 1973 1 0.0 0.8995280399609956 892.5805706734815 596.84232173632 # Ar
1974 1974 1 0.0 1016.8798296722467 223.70952159623977 830.5906641131809 # Ar
1975 1975 1 0.0 588.666661187462 693.9739991354768 504.6791829561629 # Ar
1976 1976 1 0.0 706.8567153298416 203.9489007789992 168.15887538812078 # Ar
1977 1977 1 0.0 280.92415445216363 376.284653739839 368.95307087609973 # Ar
1978 1978 1 0.0 336.444325081864 55.90322371629593 350.21873033491283 # Ar
1979 1979 1 0.0 46.7982665466136 318.8318096462676 238.14204541907796 # Ar
1980 1980 1 0.0 1021.3305588131605 587.7465465493556 13.173957258565336 # Ar
1981 1981 1 0.0 640.3646658248842 505.5390589970216 215.12454512586947 # Ar
1982 1982 1 0.0 914.9986711661983 584.2690123067129 408.4156838199939 # Ar
1983 1983 1 0.0 915.0170046679158 26.856398467230722 759.3252309004635 # Ar
1984 1984 1 0.0 900.1992209360927 217.93795364372028 116.21802887955423 # Ar
1985 1985 1 0.0 362.0962184559645 934.6353852182248 340.10925338269396 # Ar
1986 1986 1 0.0 171.52711700948385 825.3878564570388 794.0034117648826 # Ar
1987 1987 1 0.0 139.7073772162012 855.416618646432 789.4201317192135 # Ar
1988 1988 1 0.0 911.3279801002444 714.4508527777967 779.509488089501 # Ar
1989 1989 1 0.0 531.3479099055326 376.57680608443883 544.3107455466801 # Ar
1990 1990 1 0.0 432.88921163428114 825.8995865063735 12.80101468557039 # Ar
1991 1991 1 0.0 773.7165119673672 304.94978778042974 1020.7547254978427 # Ar
1992 1992 1 0.0 428.28416243209745 421.98991473410047 994.9604897841177 # Ar
1993 1993 1 0.0 20.668434432444972 175.02528729601096 326.74459703853955 # Ar
1994 1994 1 0.0 536.6772878795745 890.1451625124944 708.8725327896958 # Ar
1995 1995 1 0.0 550.6119320147135 901.1867311508945 873.274889907792 # Ar
1996 1996 1 0.0 528.0965491421549 535.8303993548262 370.6958130559504 # Ar
1997 1997 1 0.0 58.11307106654314 232.65935196735006 1015.3172196857756 # Ar
1998 1998 1 0.0 193.18764098798766 288.9933221907526 364.0800781234301 # Ar
1999 1999 1 0.0 11.779021204847213 286.8777020119662 833.1086785438871 # Ar
2000 2000 1 0.0 261.08122519852736 373.4799485810511 815.8416632995321 # Ar
