LAMMPS data file -- atom_style full -- generated by chemfiles
150 atoms
0 bonds
0 angles
0 dihedrals
0 impropers
2 atom types
0 bond types
0 angle types
0 dihedral types
0 improper types
0.00000000 413.303607 xlo xhi
0.00000000 413.303607 ylo yhi
0.00000000 413.303607 zlo zhi

# Pair Coeffs
# 1 Ar
# 2 Ar+

Masses

1 39.948 # Ar
2 39.948 # Ar+

Atoms # full

1 1 1 0.0 2.42207247334237 24.97180387007997 19.8824854279529 # Ar
2 2 1 0.0 264.2153907160036 318.2280875157317 334.0482722228458 # Ar
3 3 1 0.0 316.506201494149 292.59763980903506 12.964995588296318 # Ar
4 4 1 0.0 379.0496791927728 108.43716800814269 263.55252622915026 # Ar
5 5 1 0.0 333.1613595050251 317.027233547691 317.23872355396605 # Ar
6 6 1 0.0 219.02167304549263 111.06509630853049 5.983644497815478 # Ar
7 7 1 0.0 140.84455014341464 289.7246827881326 104.41853690490353 # Ar
8 8 1 0.0 294.0977867413075 120.3193057130071 73.73546561394473 # Ar
9 9 1 0.0 394.3361447702759 13.484222290461666 398.7079240306491 # Ar
10 10 1 0.0 195.77750902694416 120.33761680291202 385.202076989318 # Ar
11 11 1 0.0 161.67334276948216 221.53596300956985 300.0445826431104 # Ar
12 12 1 0.0 324.2816067747566 45.457467399636506 310.31430597713995 # Ar
13 13 1 0.0 189.53678363131462 24.008342782364288 88.4968944545001 # Ar
14 14 1 0.0 270.0989994660124 337.97083191411184 47.19946023075156 # Ar
15 15 1 0.0 118.26228441940967 46.96047516047077 174.22840305013386 # Ar
16 16 1 0.0 86.24217317542333 221.92147304913297 92.71514759780536 # Ar
17 17 1 0.0 310.9816917467131 17.157730878415695 126.04559943821437 # Ar
18 18 1 0.0 275.02717280332166 69.22353008340863 39.246852893263885 # Ar
19 19 1 0.0 303.30155865759224 313.9375439944128 326.07908771005793 # Ar
20 20 1 0.0 376.7159468428421 116.53585040843555 24.618419475839243 # Ar
21 21 1 0.0 311.64161272990145 305.9338259895394 372.2239575658936 # Ar
22 22 1 0.0 139.1407998971383 39.30795839842141 53.85518728866534 # Ar
23 23 1 0.0 124.63604959997963 335.53325691751843 44.24429888679824 # Ar
24 24 1 0.0 32.38954760441843 377.17919017740763 250.10235812787784 # Ar
25 25 1 0.0 9.43492410187231 110.30435336298358 5.565088262091822 # Ar
26 26 1 0.0 198.61056230812213 97.97061065948087 184.9181793251402 # Ar
27 27 1 0.0 42.437678323414836 36.75128747971456 252.21461716016356 # Ar
28 28 1 0.0 130.12485065860014 136.80538477899992 196.73509817661025 # Ar
29 29 1 0.0 197.0114794104807 246.63993722672802 153.67442235414612 # Ar
30 30 1 0.0 109.26185255436803 50.67128694335183 245.15456991264767 # Ar
31 31 1 0.0 20.583231571813606 177.13061037546234 203.7240924781105 # Ar
32 32 1 0.0 88.67387617081454 354.90014741243476 376.4702129938944 # Ar
33 33 1 0.0 328.7435940489881 36.69237087001468 362.99281864938985 # Ar
34 34 1 0.0 238.5065902801218 310.0132720419378 206.967030343073 # Ar
35 35 1 0.0 291.060149035542 44.590879900465914 21.07544569671878 # Ar
36 36 1 0.0 20.605965290177824 325.23790444745913 323.65607983558175 # Ar
37 37 1 0.0 179.8651305346499 333.8550315517084 397.9890134250241 # Ar
38 38 1 0.0 62.44027122690614 195.47103746755758 151.1331714132859 # Ar
39 39 1 0.0 149.15287685433688 328.23561116963936 292.4191825013129 # Ar
40 40 1 0.0 130.90662450486704 346.67569406095504 369.9714871989482 # Ar
41 41 1 0.0 320.3660204644779 259.6415912555029 149.24351483011895 # Ar
42 42 1 0.0 52.15716196469632 343.9177955196342 71.61299892299841 # Ar
43 43 1 0.0 111.0029178985491 235.38910243225993 384.7718500791724 # Ar
44 44 1 0.0 95.26246515378787 354.7971706421472 315.9312400187495 # Ar
45 45 1 0.0 226.4548079555433 309.4512192536046 361.6807822784591 # Ar
46 46 1 0.0 41.52737780136292 2.4136928467089405 342.3298277996164 # Ar
47 47 1 0.0 134.16174194074748 117.20636526572441 33.31132119084562 # Ar
48 48 1 0.0 399.3381086458461 364.27348936243004 213.00597229818322 # Ar
49 49 1 0.0 291.2728887694281 410.07278989654475 192.41941455560334 # Ar
50 50 1 0.0 369.1996370684815 382.51613390741863 220.71319389542086 # Ar
51 51 1 0.0 385.47892402658454 248.02555032797235 49.85093458235681 # Ar
52 52 1 0.0 37.431312252187574 313.23913054331126 281.41841274794103 # Ar
53 53 1 0.0 196.7600951746116 268.0509263887053 148.82805640134717 # Ar
54 54 1 0.0 310.17003868917004 25.81707517053984 154.5253183473615 # Ar
55 55 1 0.0 329.1006884489389 209.5635548746639 93.40561053970414 # Ar
56 56 1 0.0 48.233097577570945 320.71175009536324 38.519163397111754 # Ar
57 57 1 0.0 205.3450464790557 194.01168687550935 154.6520522333421 # Ar
58 58 1 0.0 293.9042289859734 292.59000204499347 398.18000005672906 # Ar
59 59 1 0.0 213.33800959125756 337.0709205352961 380.44523479058535 # Ar
60 60 1 0.0 59.70664780607832 27.849240776231042 191.17855587840342 # Ar
61 61 1 0.0 361.10643163032245 70.57668894971323 61.20029216284088 # Ar
62 62 1 0.0 276.98718204820085 18.50688195518236 292.4578857755783 # Ar
63 63 1 0.0 207.29965037491624 368.99384021728696 341.37087495139093 # Ar
64 64 1 0.0 399.2265563840415 138.1931296733763 188.25059945834315 # Ar
65 65 1 0.0 267.5965863274992 44.54013630814625 382.2014310520808 # Ar
66 66 1 0.0 229.56439417579915 95.21783774920618 401.9477724279352 # Ar
67 67 1 0.0 330.2590606706068 197.9000995322196 115.22445044887846 # Ar
68 68 1 0.0 250.29664479754962 34.85669199159372 104.44543747856494 # Ar
69 69 1 0.0 262.76430487718534 6.674245968642681 124.19722182029632 # Ar
70 70 1 0.0 97.0186426612966 294.84041537390533 134.11904998974802 # Ar
71 71 1 0.0 312.7739545800529 298.3673768808074 406.4425055861699 # Ar
72 72 1 0.0 209.36301370348255 339.89401548270035 333.18827869680507 # Ar
73 73 1 0.0 133.38982550295873 171.80520065735075 78.70534115467566 # Ar
74 74 1 0.0 45.60899448022484 88.58843067066559 133.2794037501405 # Ar
75 75 1 0.0 39.90635306109676 324.58230471947684 341.4466959046687 # Ar
76 76 1 0.0 86.97413722172149 180.96460189984168 212.21363934421987 # Ar
77 77 1 0.0 413.2428867083838 181.50715348017007 36.683577710862394 # Ar
78 78 1 0.0 157.68450861353458 144.0790250692782 398.90887536518323 # Ar
79 79 1 0.0 157.89793311508646 72.93218048044291 62.778996972540604 # Ar
80 80 1 0.0 182.40492258868525 357.24955327184017 181.12592511718063 # Ar
81 81 1 0.0 331.2810469858134 170.5679389043373 73.90217996058945 # Ar
82 82 1 0.0 390.64704334589385 29.304379997568468 200.20417771714708 # Ar
83 83 1 0.0 379.6633065565779 97.94833184716859 157.82419186408953 # Ar
84 84 1 0.0 249.8958817891694 207.21620249464223 53.33440822924884 # Ar
85 85 1 0.0 184.09379764520494 300.63680314638486 330.32985403545985 # Ar
86 86 1 0.0 327.0274928281133 129.5645732901238 73.50031122076152 # Ar
87 87 1 0.0 367.3823482997583 185.1049024060405 32.55581555243896 # Ar
88 88 1 0.0 60.841055290060346 252.3386962765006 209.78198748455443 # Ar
89 89 1 0.0 325.0441467333998 7.783430742866198 405.3828340496642 # Ar
90 90 1 0.0 363.0518375957161 348.9504446622581 117.26374765175747 # Ar
91 91 1 0.0 290.149396509284 219.5902668993233 378.54439629293574 # Ar
92 92 1 0.0 254.7968712646848 99.25492366249773 289.7665643142807 # Ar
93 93 1 0.0 159.219371924351 76.99567252972126 186.92900414925478 # Ar
94 94 1 0.0 174.03553765228722 120.84294888321102 302.79129901439103 # Ar
95 95 1 0.0 179.35167443937763 266.64148104248846 9.45932687606774 # Ar
96 96 1 0.0 228.85723619689753 408.2194732962637 362.92410284507747 # Ar
97 97 1 0.0 313.9658141784424 347.41008574752954 255.34885449336156 # Ar
98 98 1 0.0 90.83939605405843 69.0652656600753 336.80616824116004 # Ar
99 99 1 0.0 136.06511725866446 239.2941383826234 285.44900365052956 # Ar
100 100 1 0.0 219.0424712204657 196.1893707856511 403.6098555573325 # Ar
101 101 1 0.0 78.74621094526472 180.84019083971438 9.13735198202933 # Ar
102 102 1 0.0 259.08141737659355 384.44877996133147 201.47376367436405 # Ar
103 103 1 0.0 132.95738087362773 191.5179220304714 130.547753300798 # Ar
104 104 1 0.0 395.8664522698691 38.03267626802153 407.9060224947271 # Ar
105 105 1 0.0 366.1621214257391 284.36067472502526 48.11562266270208 # Ar
106 106 1 0.0 21.707112630879127 305.9866099641632 131.69542584902575 # Ar
107 107 1 0.0 320.3914474205498 329.9670673118552 353.750376205865 # Ar
108 108 1 0.0 38.47769362276455 77.0063744049843 190.9851064564943 # Ar
109 109 1 0.0 370.6337281494701 276.242107806202 296.6572749969527 # Ar
110 110 1 0.0 354.14749051075114 18.79826501273586 149.16978863077017 # Ar
111 111 1 0.0 280.16343710030515 11.441644550897042 349.46920311003163 # Ar
112 112 1 0.0 75.67384630868132 55.317015626590326 273.47442556618006 # Ar
113 113 1 0.0 225.99019039027323 107.70724272478364 121.47658811060761 # Ar
114 114 1 0.0 55.755273587000666 143.68813038609537 287.78103185317417 # Ar
115 115 1 0.0 149.99970995485862 268.03964269479303 365.6602174765682 # Ar
116 116 1 0.0 368.24184937385695 1.9799509121644925 40.50652547185453 # Ar
117 117 1 0.0 374.6905831422318 375.2892340353556 244.45964319790588 # Ar
118 118 1 0.0 334.62409668169613 410.4887956172122 284.9825158238675 # Ar
119 119 1 0.0 162.44716759809359 292.66929424757825 146.28791939877743 # Ar
120 120 1 0.0 355.77118277868453 42.50696516345384 106.34341457007719 # Ar
121 121 1 0.0 177.3591528608645 188.7687957700492 311.07937393287045 # Ar
122 122 1 0.0 110.58053393331848 33.826686681842865 197.60506766566314 # Ar
123 123 1 0.0 392.8744925771934 140.70642896702972 10.182841853063618 # Ar
124 124 1 0.0 178.674986359167 294.0791308100478 285.5404493094377 # Ar
125 125 1 0.0 318.5938492330443 233.1823106737114 212.58442685124714 # Ar
126 126 1 0.0 146.01645767791686 33.59848645641312 386.62860773249395 # Ar
127 127 1 0.0 129.45445659912974 286.42896845889055 5.5452818123001215 # Ar
128 128 1 0.0 152.77135412979746 240.5051892923647 177.992097002889 # Ar
129 129 1 0.0 262.1378309806193 95.17952832468272 351.8552401211746 # Ar
130 130 1 0.0 174.35045650629937 71.74069678227957 94.409155012107 # Ar
131 131 1 0.0 152.36071647320023 394.5285800890304 260.3063427850771 # Ar
132 132 2 0.0 23.478113507043517 190.803078085761 213.97282094720333 # Ar+
133 133 2 0.0 323.0931103231246 152.0690720265695 158.0972558326606 # Ar+
134 134 2 0.0 43.56190569319196 170.14873689244516 186.48030224888348 # Ar+
135 135 2 0.0 157.28687443900523 331.6010587233908 401.4857978470737 # Ar+
136 136 2 0.0 377.9647242127446 62.44807570718999 253.64216299685685 # Ar+
137 137 2 0.0 253.30075928899845 321.97774555853715 108.58933580434184 # Ar+
138 138 2 0.0 356.4201267404015 273.46774724915264 251.6658901625354 # Ar+
139 139 2 0.0 223.90500896739644 404.4421134083155 233.8421820138414 # Ar+
140 140 2 0.0 387.48952422717485 281.9180057275017 412.31148833221727 # Ar+
141 141 2 0.0 329.4163335128154 73.6281352731176 199.75267077581535 # Ar+
142 142 2 0.0 339.79976484255445 22.49798334801241 207.42772183069715 # Ar+
143 143 2 0.0 119.951399639296 134.5602947533203 222.1558777331715 # Ar+
144 144 2 0.0 296.1019329002576 288.68244775024914 8.73493887378181 # Ar+
145 145 2 0.0 191.12364567701013 21.79097987206121 349.4455419924506 # Ar+
146 146 2 0.0 393.36904383426173 78.06564797504105 212.672440682951 # Ar+
147 147 2 0.0 69.5963172636708 135.8703935533513 74.12820387260143 # Ar+
148 148 2 0.0 372.6627760908862 139.86077730112845 352.7755370909535 # Ar+
149 149 2 0.0 120.10397465925233 293.6292226390522 268.8951275486653 # Ar+
150 150 2 0.0 214.4124447435706 30.551087851184267 359.99066553036545 # Ar+
