LAMMPS data file -- atom_style full -- generated by chemfiles
150 atoms
0 bonds
0 angles
0 dihedrals
0 impropers
2 atom types
0 bond types
0 angle types
0 dihedral types
0 improper types
0.00000000 733.808041 xlo xhi
0.00000000 733.808041 ylo yhi
0.00000000 733.808041 zlo zhi

# Pair Coeffs
# 1 Ar
# 2 Ar+

Masses

1 39.948 # Ar
2 39.948 # Ar+

Atoms # full

1 1 1 0.0 488.78743988923185 564.2152938279702 516.9240180434151 # Ar
2 2 1 0.0 78.71601811316532 127.48975699835323 644.8087336747279 # Ar
3 3 1 0.0 130.47091673978417 299.0858151071101 38.85765403823299 # Ar
4 4 1 0.0 51.536653194273605 369.28411028924023 223.05643105256542 # Ar
5 5 1 0.0 390.42376721847296 169.16747766686575 362.3390651959008 # Ar
6 6 1 0.0 214.7079786530749 358.2029058144639 725.7004846926004 # Ar
7 7 1 0.0 253.57938219522353 127.20363021803199 699.1650530865145 # Ar
8 8 1 0.0 680.7752630399473 719.5521969814477 171.47658124758323 # Ar
9 9 1 0.0 475.0642160976428 571.3468778695194 572.96189680063 # Ar
10 10 1 0.0 53.70744863131386 20.081377978463156 526.5518336672566 # Ar
11 11 1 0.0 158.94949542060976 689.7244582739492 709.3194206018115 # Ar
12 12 1 0.0 143.2461940242837 228.16716686001047 430.7573783005289 # Ar
13 13 1 0.0 648.9488953601958 543.465407684395 313.816639071023 # Ar
14 14 1 0.0 175.38762454009827 642.1889542422397 58.394284209752925 # Ar
15 15 1 0.0 264.86994658837574 590.0344726360818 457.4392133393862 # Ar
16 16 1 0.0 580.664895389891 148.07081228562194 391.12649892025917 # Ar
17 17 1 0.0 109.19184407467979 8.774985553443427 666.9652920965199 # Ar
18 18 1 0.0 61.141217407541795 129.71747417518833 664.3209223431882 # Ar
19 19 1 0.0 580.0464147581417 591.3027238149874 245.81628790476583 # Ar
20 20 1 0.0 23.33806419059102 535.7948686386327 613.9132760288024 # Ar
21 21 1 0.0 642.0672078950561 363.8609153447276 564.9628422563069 # Ar
22 22 1 0.0 359.23791529095547 356.08185898192437 140.20556585357656 # Ar
23 23 1 0.0 168.54799303679997 315.38844314451785 335.9729164683283 # Ar
24 24 1 0.0 77.19832494735762 480.53555868614166 476.48336931237975 # Ar
25 25 1 0.0 209.49005769621053 389.35286575761455 566.2238468615717 # Ar
26 26 1 0.0 98.95487542944493 241.74395644029855 501.3491993888428 # Ar
27 27 1 0.0 598.8620752885295 539.4375340697381 31.311872689603643 # Ar
28 28 1 0.0 445.0942266550687 328.40084107279665 267.6337583822295 # Ar
29 29 1 0.0 707.4449655827669 169.23963308825287 384.7462057152527 # Ar
30 30 1 0.0 227.17715834118164 75.11951438375739 271.2266565144351 # Ar
31 31 1 0.0 175.16577015060156 606.4286032508833 717.8261236429265 # Ar
32 32 1 0.0 439.2249431122666 539.9050769017654 378.11714035394436 # Ar
33 33 1 0.0 582.40316396026 79.9478431663828 99.07230825748832 # Ar
34 34 1 0.0 576.68957304801 170.7582841453205 537.8458527347449 # Ar
35 35 1 0.0 74.05919177283978 272.8790017376429 113.36288329146304 # Ar
36 36 1 0.0 337.93390989918765 103.19350988752564 405.4476977032862 # Ar
37 37 1 0.0 437.2656350062948 710.2925564153618 378.4441741933244 # Ar
38 38 1 0.0 716.0794724272453 109.97144111573026 4.201129173285703 # Ar
39 39 1 0.0 218.97336038034246 400.38191977990726 606.5938778119211 # Ar
40 40 1 0.0 152.52009083035134 435.119544613558 44.17909844559234 # Ar
41 41 1 0.0 65.63872149309198 152.37457578859267 438.1377349909929 # Ar
42 42 1 0.0 414.0794104982327 200.11967575522706 44.9167992620645 # Ar
43 43 1 0.0 619.0162453306734 522.8712779603333 400.86244080501496 # Ar
44 44 1 0.0 350.18333802764386 713.8885340126811 273.8976332720683 # Ar
45 45 1 0.0 65.14147064551595 206.47588342595844 43.144489704150466 # Ar
46 46 1 0.0 272.1207445310823 4.888197410834604 212.79737249385707 # Ar
47 47 1 0.0 282.6886778848994 41.74681542443534 446.6591973451793 # Ar
48 48 1 0.0 321.82551297690884 102.74662423810842 46.72920930824403 # Ar
49 49 1 0.0 524.905520209027 298.9697627974616 390.8503141375158 # Ar
50 50 1 0.0 675.5087908833871 203.14798456566226 475.543332383398 # Ar
51 51 1 0.0 652.51428592627 125.10781487126995 619.5675158336796 # Ar
52 52 1 0.0 724.6214817400897 663.6480250270436 20.443051271221137 # Ar
53 53 1 0.0 286.1504994794122 519.2452417909068 635.4418107225596 # Ar
54 54 1 0.0 414.08006295986286 616.8684367515659 331.48153711541113 # Ar
55 55 1 0.0 355.20141317422826 239.7978118930359 597.6397026788234 # Ar
56 56 1 0.0 524.875365191923 164.2733714683203 431.2321954682415 # Ar
57 57 1 0.0 403.78149014241825 350.6004730348755 491.49959931301987 # Ar
58 58 1 0.0 293.0242821613016 589.5438836883159 32.346028784002414 # Ar
59 59 1 0.0 649.1561010138511 483.83650472894175 519.4137926348196 # Ar
60 60 1 0.0 683.1226619659571 602.2903046964067 392.0142878065803 # Ar
61 61 1 0.0 96.99502007788716 403.45476069178324 396.6255605862727 # Ar
62 62 1 0.0 232.4520875017178 339.93374502634646 27.499258108172892 # Ar
63 63 1 0.0 350.5032194270759 229.67925563626775 521.3484108002888 # Ar
64 64 1 0.0 582.9852148437017 637.1371419699523 190.43791051905885 # Ar
65 65 1 0.0 546.0764018224604 62.37976062711344 323.7871300971036 # Ar
66 66 1 0.0 81.59258048070025 92.43796140201377 664.5544268192068 # Ar
67 67 1 0.0 508.30567652301295 400.07487952592953 272.85972841616217 # Ar
68 68 1 0.0 380.00393906384835 507.3368110643449 668.5426630499094 # Ar
69 69 1 0.0 246.14822070340836 633.8990084745983 414.8544220454559 # Ar
70 70 1 0.0 411.40574338639954 461.17569930971126 169.0620953865478 # Ar
71 71 1 0.0 568.0867273827836 447.2942239307812 524.5363662043288 # Ar
72 72 1 0.0 536.111939368664 158.0005172964973 59.418982531274864 # Ar
73 73 1 0.0 224.0236528984299 663.1564979273207 625.2258999293668 # Ar
74 74 1 0.0 64.06779465327276 316.878082936757 488.8816823615483 # Ar
75 75 1 0.0 178.88606953945987 134.26401765469407 68.98640866060357 # Ar
76 76 1 0.0 207.1378211557828 631.0656828464422 232.54251203771614 # Ar
77 77 1 0.0 293.9267629272271 593.5328193938068 619.3161337651645 # Ar
78 78 1 0.0 213.16644205681973 701.2207489205049 246.3242680798517 # Ar
79 79 1 0.0 709.8882092890738 589.9663419023776 174.86456755877555 # Ar
80 80 1 0.0 336.3382974599189 53.04255151622152 249.14793592763587 # Ar
81 81 1 0.0 354.307034720081 619.9864817282369 26.311066636035303 # Ar
82 82 1 0.0 505.90100961449525 497.823822246752 364.7525520157736 # Ar
83 83 1 0.0 285.8370664680026 469.4702134475558 406.7325148694848 # Ar
84 84 1 0.0 447.7985561236588 404.5660562323805 223.14676661419355 # Ar
85 85 1 0.0 304.05842038809953 466.65427451327434 40.24638898935584 # Ar
86 86 1 0.0 149.00281391639712 634.3355720459839 148.78497634518044 # Ar
87 87 1 0.0 503.36291124486166 710.6400997244798 641.9599933771962 # Ar
88 88 1 0.0 366.5326962742141 169.8182389881454 301.18980265444367 # Ar
89 89 1 0.0 724.2544622291625 520.1954591758429 549.4770991325764 # Ar
90 90 1 0.0 458.3925770578365 32.63727181852594 184.76396306002115 # Ar
91 91 1 0.0 82.26375223332866 159.98694507116093 427.4892916883136 # Ar
92 92 1 0.0 279.898717848445 687.2728555248102 273.82780572181116 # Ar
93 93 1 0.0 483.9364147444018 633.6448598951749 447.0195265210205 # Ar
94 94 1 0.0 383.4802863291797 476.71400921541 126.76774144222328 # Ar
95 95 1 0.0 147.35649579201467 67.37163160245198 472.4892266202526 # Ar
96 96 1 0.0 456.76461311722034 281.3132397081178 603.2245129208326 # Ar
97 97 1 0.0 416.16711832253236 339.57383980298806 610.206245865575 # Ar
98 98 1 0.0 496.1100529539989 451.7424439656485 432.84466031420584 # Ar
99 99 1 0.0 612.8125578828672 73.654952308157 83.04345742026888 # Ar
100 100 1 0.0 56.85300862146612 590.0186636479921 379.1909293432622 # Ar
101 101 1 0.0 691.8714102498515 248.60092272710827 208.7190636649617 # Ar
102 102 1 0.0 373.22185423148034 5.826931873907967 44.21972549332548 # Ar
103 103 1 0.0 386.3780983195225 44.94849735303077 674.7418554667316 # Ar
104 104 1 0.0 68.86608650139037 20.888095674125843 326.281902903241 # Ar
105 105 1 0.0 602.809115421206 150.72036190058697 204.74197917781407 # Ar
106 106 1 0.0 156.59589806834524 395.75522068254276 598.9262110941893 # Ar
107 107 1 0.0 22.35804822973271 404.2030605537246 438.52237214697556 # Ar
108 108 1 0.0 73.76915777687937 557.6083923381401 251.5681994705919 # Ar
109 109 1 0.0 641.5339161152373 63.796655574212686 289.3639288876347 # Ar
110 110 1 0.0 555.8786607727394 602.6204930640555 204.31925200873872 # Ar
111 111 1 0.0 512.802093427092 463.9301581470831 472.49683290319575 # Ar
112 112 1 0.0 165.85753305278425 331.42869834057774 696.6217565340635 # Ar
113 113 2 0.0 222.08650723698716 480.46955288958435 325.001015809896 # Ar+
114 114 2 0.0 88.19709466022663 692.629713304715 609.1787859855903 # Ar+
115 115 2 0.0 108.37336749676133 498.3098718823597 151.431304169827 # Ar+
116 116 2 0.0 680.912288247682 325.22004448470017 79.22423215978438 # Ar+
117 117 2 0.0 160.5040904881676 578.8482465886203 80.69880725304243 # Ar+
118 118 2 0.0 405.5556398315939 74.59524087082367 729.5754398377987 # Ar+
119 119 2 0.0 300.4574927365593 560.44541715143 530.5127717347264 # Ar+
120 120 2 0.0 15.35912916558266 96.47246029689074 264.48274494639884 # Ar+
121 121 2 0.0 362.1827698010069 239.75584336314452 720.7696846794984 # Ar+
122 122 2 0.0 607.1908516628068 47.64706855095209 701.999953076242 # Ar+
123 123 2 0.0 40.913990667503924 598.7149474284307 180.89404051497925 # Ar+
124 124 2 0.0 367.06428429896414 681.0333015543599 334.9865498046438 # Ar+
125 125 2 0.0 171.57038990556248 538.810439834384 172.43632926724592 # Ar+
126 126 2 0.0 577.3603905132743 467.0966517891042 506.7766506165692 # Ar+
127 127 2 0.0 645.3161056687468 351.3837272134485 722.0979383436821 # Ar+
128 128 2 0.0 240.43710101605566 535.5233297096527 16.758509236398407 # Ar+
129 129 2 0.0 55.237430925565164 635.193615988741 362.17669875020897 # Ar+
130 130 2 0.0 347.31368367212804 578.2416380333065 462.6092147274176 # Ar+
131 131 2 0.0 449.30885880894135 678.6304171219571 417.6559254806348 # Ar+
132 132 2 0.0 626.0500144922938 471.9420823842416 633.5469718933441 # Ar+
133 133 2 0.0 454.17214586141625 146.90915503306212 36.2637119750763 # Ar+
134 134 2 0.0 19.4911129787947 519.6119786815475 385.96824090900736 # Ar+
135 135 2 0.0 544.4049128292228 361.03330286418094 317.8306500484645 # Ar+
136 136 2 0.0 183.67387710596648 519.3309621317546 265.7514032106593 # Ar+
137 137 2 0.0 350.2153417511149 636.9080187188 548.8322698429487 # Ar+
138 138 2 0.0 275.2820713672405 159.5060926041731 86.9794852153413 # Ar+
139 139 2 0.0 357.390910129321 673.8784182020415 98.69036172774695 # Ar+
140 140 2 0.0 201.30972142903664 97.49355394097694 50.18168237359327 # Ar+
141 141 2 0.0 47.3520674284158 36.69632188199031 230.51331825772257 # Ar+
142 142 2 0.0 39.11019919722943 336.32715754192844 84.28267019824675 # Ar+
143 143 2 0.0 304.3954782279527 421.3727714172064 382.6449570855058 # Ar+
144 144 2 0.0 669.4884401841493 252.63299539358664 539.7026694893684 # Ar+
145 145 2 0.0 396.8097470819447 243.80509882049634 679.5045855795184 # Ar+
146 146 2 0.0 277.85533679535547 42.202643197439414 104.88970054895732 # Ar+
147 147 2 0.0 288.1366906541571 269.45812447963124 425.145629265685 # Ar+
148 148 2 0.0 66.86372042194442 309.7468224244643 281.3623307854659 # Ar+
149 149 2 0.0 358.4218305220069 531.3564293409804 445.04431344734354 # Ar+
150 150 2 0.0 722.3213342015323 648.7716820233848 357.7554533448652 # Ar+
