LAMMPS data file -- atom_style full -- generated by chemfiles
150 atoms
0 bonds
0 angles
0 dihedrals
0 impropers
2 atom types
0 bond types
0 angle types
0 dihedral types
0 improper types
0.00000000 1169.82196 xlo xhi
0.00000000 1169.82196 ylo yhi
0.00000000 1169.82196 zlo zhi

# Pair Coeffs
# 1 Ar
# 2 Ar+

Masses

1 39.948 # Ar
2 39.948 # Ar+

Atoms # full

1 1 1 0.0 971.9305288990491 687.9038380584499 1048.7817155549865 # Ar
2 2 1 0.0 770.2313534240942 873.859043869673 383.1179563264012 # Ar
3 3 1 0.0 566.1322599357992 130.65976136556202 46.25310428720732 # Ar
4 4 1 0.0 648.1978300790039 1106.787856854086 1127.4853760338362 # Ar
5 5 1 0.0 73.53591359686114 1154.4449568606258 1025.7832294370507 # Ar
6 6 1 0.0 681.798224425412 177.63248159689007 351.17608529233104 # Ar
7 7 1 0.0 577.5651422988263 89.5361253194367 465.61946853019447 # Ar
8 8 1 0.0 888.7214293884178 785.8539172694606 413.2547165116637 # Ar
9 9 1 0.0 843.1781342640612 231.35547213786066 1030.134204639801 # Ar
10 10 1 0.0 80.81197547266846 192.99224967720443 406.02494357756757 # Ar
11 11 1 0.0 755.0744923399287 162.8679495630143 349.7442302304824 # Ar
12 12 1 0.0 864.2074108019605 1057.8146452341937 281.44807099589116 # Ar
13 13 1 0.0 332.507224000572 520.5246924245556 262.23615095571853 # Ar
14 14 1 0.0 998.7386841775967 1077.9743746335635 797.7073445883874 # Ar
15 15 1 0.0 315.98907760902114 984.6546060074877 908.3808153991013 # Ar
16 16 1 0.0 345.27589952118336 164.12509369268133 20.372119433679796 # Ar
17 17 1 0.0 432.62176081212283 280.3608841481496 82.34406043884104 # Ar
18 18 1 0.0 1087.488469944899 987.5621824333105 421.22980359126177 # Ar
19 19 1 0.0 698.3480753075 438.2886491274145 578.6229787455578 # Ar
20 20 1 0.0 1046.678201815874 683.8088903596769 280.57723202177334 # Ar
21 21 1 0.0 890.3683956349653 1084.5123786659542 410.2171368011426 # Ar
22 22 1 0.0 1096.634907332439 470.81011944972914 544.1531251485861 # Ar
23 23 1 0.0 1108.7821613138456 510.35791026509446 342.93887828219 # Ar
24 24 1 0.0 1169.5991530248111 284.8021056446261 751.8237545661675 # Ar
25 25 1 0.0 848.4678583179913 252.2323832625223 73.03649676637589 # Ar
26 26 1 0.0 206.43339314800164 559.5909582014086 358.8969608018416 # Ar
27 27 1 0.0 618.325186443448 344.63761831106183 969.2611961780909 # Ar
28 28 1 0.0 165.15255909631088 991.3015166874754 269.2410554389712 # Ar
29 29 1 0.0 1099.884464178168 1145.3031852694105 309.90326158179676 # Ar
30 30 1 0.0 1067.2886645272245 1008.3540703247578 434.0512094848512 # Ar
31 31 1 0.0 260.55127085299665 518.9776919032288 555.4119088308169 # Ar
32 32 1 0.0 1125.5054417982988 714.7451686855311 229.77499202417033 # Ar
33 33 1 0.0 660.7317897032744 733.6813876815683 638.7657033746707 # Ar
34 34 1 0.0 1116.1725279703098 217.1132232813199 531.7307434194269 # Ar
35 35 1 0.0 1078.5520005820288 214.48040286115824 15.764382671593593 # Ar
36 36 1 0.0 310.1396143944946 514.5760564555808 1005.8608187240416 # Ar
37 37 1 0.0 300.0569715413667 1118.567753601179 957.0305140860105 # Ar
38 38 1 0.0 683.2910424567829 571.9535508112788 268.2271198753033 # Ar
39 39 1 0.0 43.55434161584889 293.9073535593346 42.52381026088669 # Ar
40 40 1 0.0 1080.0041407968567 366.3698596243757 531.6264197554045 # Ar
41 41 1 0.0 333.4659371344354 700.3490841812268 725.2076137559864 # Ar
42 42 1 0.0 422.9893330891396 647.9762205746977 1037.1028165024968 # Ar
43 43 1 0.0 877.2285341675567 213.69211758289322 594.4957416247724 # Ar
44 44 1 0.0 862.8696509449882 270.2632704885712 580.4678693139798 # Ar
45 45 1 0.0 955.2667703485779 999.6255639458204 714.9654703643704 # Ar
46 46 1 0.0 786.2416917329537 355.4056457698419 584.8921421412214 # Ar
47 47 1 0.0 612.0223934803328 937.1032131039834 640.7654391863749 # Ar
48 48 1 0.0 78.5656357493526 228.89231461599314 1060.529417694198 # Ar
49 49 1 0.0 143.30689107954166 632.878088370562 291.73914737505754 # Ar
50 50 1 0.0 829.4769672198438 455.76824544448203 633.5158824941655 # Ar
51 51 1 0.0 648.14943312084 573.0296376746412 1083.6500959504613 # Ar
52 52 1 0.0 1071.6265420749876 818.2778109960421 387.5331528206845 # Ar
53 53 1 0.0 1143.673505424188 5.410766705101857 1100.8948902076618 # Ar
54 54 1 0.0 841.5616386226674 791.5407062023543 1050.0450858064692 # Ar
55 55 1 0.0 645.0293925271358 164.62103886030206 1121.1718514383904 # Ar
56 56 1 0.0 1153.819523917841 81.15757418505953 682.7071922427209 # Ar
57 57 1 0.0 157.705214027619 343.05503875936125 971.5276083825142 # Ar
58 58 1 0.0 716.4415064522731 568.4119736315606 489.6089410943146 # Ar
59 59 1 0.0 615.9550935089035 510.8438112565488 1056.859437168827 # Ar
60 60 1 0.0 159.90858972067292 7.565378399350933 433.378943152154 # Ar
61 61 1 0.0 15.82848441886261 723.5017891952693 449.22640953040536 # Ar
62 62 1 0.0 701.1128067007322 1125.229901686389 695.6487771138355 # Ar
63 63 1 0.0 2.1831702756339335 541.433461499273 1004.0100984993613 # Ar
64 64 1 0.0 871.6101747865765 1148.2398410619446 417.11805302737076 # Ar
65 65 1 0.0 851.701688213391 7.030797578744264 927.8016379137762 # Ar
66 66 1 0.0 1035.1960606614084 374.09147370781847 736.9076422094687 # Ar
67 67 1 0.0 618.5949440594198 863.9338456787308 1063.7055819874784 # Ar
68 68 1 0.0 390.47896764965384 265.2407813640459 461.3666783209749 # Ar
69 69 1 0.0 613.990852081714 631.6622775054298 1025.688911602364 # Ar
70 70 1 0.0 735.1894672775113 1061.0240649599953 282.1306687707051 # Ar
71 71 1 0.0 238.86821209891536 478.88633029146035 332.818841814675 # Ar
72 72 1 0.0 465.8626223287276 898.5297578452247 646.1990284682039 # Ar
73 73 1 0.0 1092.3854201970573 1149.62709197902 774.9201783238773 # Ar
74 74 1 0.0 107.57937415455112 247.1331447294886 773.0838805353814 # Ar
75 75 1 0.0 1081.7860562387743 563.242900730751 643.9160163228983 # Ar
76 76 1 0.0 566.0164814135463 19.87345576500498 60.87205801206173 # Ar
77 77 1 0.0 1096.2233910525185 256.7419122179225 10.806936225782298 # Ar
78 78 1 0.0 221.1849918442421 689.4560132724754 436.00193393464906 # Ar
79 79 1 0.0 611.8130302024808 370.8445089754296 174.10734801811466 # Ar
80 80 1 0.0 817.7170264346088 171.88198318039602 638.6038926599533 # Ar
81 81 1 0.0 692.1423840188453 849.8088372884752 1134.2397609354052 # Ar
82 82 1 0.0 473.9449422891861 865.4815019005138 447.9854831502072 # Ar
83 83 1 0.0 670.7433852627553 585.2871647202828 347.8549430594744 # Ar
84 84 1 0.0 348.7622910718772 686.9581582769813 1014.2190723466505 # Ar
85 85 1 0.0 289.79688020885766 651.2118146796357 602.3458559449874 # Ar
86 86 1 0.0 626.3177401669087 795.9902614909012 663.9950207954569 # Ar
87 87 2 0.0 404.6397212340202 545.3995517148533 1021.9261623918032 # Ar+
88 88 2 0.0 489.40552960818263 614.097825947624 1079.188137888114 # Ar+
89 89 2 0.0 1146.6667347968057 166.07945691581924 252.64183429246495 # Ar+
90 90 2 0.0 1057.7271355568644 746.1152247173588 682.4014186297923 # Ar+
91 91 2 0.0 350.99101820030614 281.76955822364914 54.50699533377001 # Ar+
92 92 2 0.0 299.91903185869137 666.8895253533058 689.3387353334783 # Ar+
93 93 2 0.0 1092.6425941889202 300.2981655066971 821.9055678971589 # Ar+
94 94 2 0.0 317.5071758779158 169.70236080310997 501.0402153592886 # Ar+
95 95 2 0.0 833.8473853187166 1034.3836440320235 268.45588164770766 # Ar+
96 96 2 0.0 1047.1763754774558 690.1267590892016 512.721560492034 # Ar+
97 97 2 0.0 392.58984733838184 148.2971943391356 770.9486811748881 # Ar+
98 98 2 0.0 261.4855882512484 181.69088821964039 678.1459714328034 # Ar+
99 99 2 0.0 720.4116537910837 657.6344430830503 271.58227887235824 # Ar+
100 100 2 0.0 896.4439474525285 757.0132789209304 721.8419967105925 # Ar+
101 101 2 0.0 833.3983467542037 343.40128575757046 370.8879370481449 # Ar+
102 102 2 0.0 123.71173844430822 287.8078751782724 655.9337257311571 # Ar+
103 103 2 0.0 472.20696261197935 401.2986743608409 181.4255222682438 # Ar+
104 104 2 0.0 303.47703650232546 418.7330646386828 1083.9047719897865 # Ar+
105 105 2 0.0 654.5556268325653 120.28895413097761 275.87295742396884 # Ar+
106 106 2 0.0 351.10680038481496 640.2350173403104 287.3864754348826 # Ar+
107 107 2 0.0 1142.081259979146 1107.7312046117602 997.6328444812767 # Ar+
108 108 2 0.0 582.559541882129 417.1214480824509 618.6701305641266 # Ar+
109 109 2 0.0 938.7182623040136 1025.5988126993032 101.38236518703926 # Ar+
110 110 2 0.0 403.58571830925723 1168.4427642672738 197.02343140901422 # Ar+
111 111 2 0.0 141.13597425874073 1084.836671360653 789.260906727011 # Ar+
112 112 2 0.0 217.34216769004746 289.82175641584286 161.81113178726832 # Ar+
113 113 2 0.0 452.16401773335315 1136.136479281548 756.2389613084149 # Ar+
114 114 2 0.0 349.6433522632382 1058.804332490756 283.66370363390257 # Ar+
115 115 2 0.0 659.635397700023 730.722351351246 938.2867358233979 # Ar+
116 116 2 0.0 1020.3255561281253 672.2951973360757 116.88587424203587 # Ar+
117 117 2 0.0 1049.3283492925596 669.8022041964017 552.0794060545988 # Ar+
118 118 2 0.0 181.6285218494976 156.2933570559546 181.88811576890078 # Ar+
119 119 2 0.0 753.8661456889495 672.7639212733233 1047.9727357328934 # Ar+
120 120 2 0.0 1009.199449675394 73.5606117485486 956.2997048674229 # Ar+
121 121 2 0.0 682.09537853612 158.9141057771908 600.2303402607713 # Ar+
122 122 2 0.0 1073.1016107600203 432.98043439382445 137.9899081185933 # Ar+
123 123 2 0.0 730.5051003263234 668.9585427831006 1119.7499018167994 # Ar+
124 124 2 0.0 670.6401478320017 1139.290768398114 565.7298351795355 # Ar+
125 125 2 0.0 299.8667233668747 1064.603786506358 1004.3342337409641 # Ar+
126 126 2 0.0 1118.384085225675 146.44826807040334 988.5999152638778 # Ar+
127 127 2 0.0 859.6359291194084 692.8501590624334 923.5206817831346 # Ar+
128 128 2 0.0 641.9512676268065 90.60870902848792 977.3202491149466 # Ar+
129 129 2 0.0 501.79033237057746 92.50072124060833 659.8798596525883 # Ar+
130 130 2 0.0 803.2103375147149 690.5509759443659 288.6567081359418 # Ar+
131 131 2 0.0 1143.852993498823 711.9144595280915 824.5549285618495 # Ar+
132 132 2 0.0 222.12831523233191 827.1383510814776 43.600037773742066 # Ar+
133 133 2 0.0 1166.928802897816 349.07286158143654 1159.5774666331822 # Ar+
134 134 2 0.0 261.1434667125101 502.9554771874953 81.44286178970437 # Ar+
135 135 2 0.0 643.9054155094564 990.8745293958862 192.29757990564536 # Ar+
136 136 2 0.0 913.5779822616709 1155.0677685361213 142.3032150855518 # Ar+
137 137 2 0.0 825.0380931663141 336.01196935698545 957.6833328483 # Ar+
138 138 2 0.0 1040.5316566746767 556.761866678624 559.0813289165659 # Ar+
139 139 2 0.0 1074.4313967887806 683.7802950654482 1104.332713400798 # Ar+
140 140 2 0.0 311.9979325418866 703.2038693387808 270.18360429344756 # Ar+
141 141 2 0.0 907.4521464999767 790.5991861952418 946.6108113907311 # Ar+
142 142 2 0.0 216.36878496538674 153.57809490586462 73.59229364223242 # Ar+
143 143 2 0.0 230.7015770355052 247.31890069495108 307.5383158290825 # Ar+
144 144 2 0.0 1073.6209007270209 1160.703863176306 264.7324459166363 # Ar+
145 145 2 0.0 977.6962858966208 888.3817161724298 122.71832281429111 # Ar+
146 146 2 0.0 461.79671882552503 1024.6180910360408 704.6810206846584 # Ar+
147 147 2 0.0 86.052623419235 303.1299268003275 233.98170127724137 # Ar+
148 148 2 0.0 1062.8279376480584 595.7990840389972 273.2840298882708 # Ar+
149 149 2 0.0 618.8648734548076 121.34943090966553 1045.2248538732608 # Ar+
150 150 2 0.0 551.4761081500135 279.7068353660797 147.21801027184404 # Ar+
