LAMMPS data file -- atom_style full -- generated by chemfiles
150 atoms
0 bonds
0 angles
0 dihedrals
0 impropers
2 atom types
0 bond types
0 angle types
0 dihedral types
0 improper types
0.00000000 733.808041 xlo xhi
0.00000000 733.808041 ylo yhi
0.00000000 733.808041 zlo zhi

# Pair Coeffs
# 1 Ar
# 2 Ar+

Masses

1 39.948 # Ar
2 39.948 # Ar+

Atoms # full

1 1 1 0.0 630.1723442911101 700.6089862270157 102.34290695432341 # Ar
2 2 1 0.0 374.3510471548903 292.82035685763833 405.0956789654352 # Ar
3 3 1 0.0 325.85178520512983 621.8288393068159 446.4813055221912 # Ar
4 4 1 0.0 227.7307165645259 716.844034289788 293.94925409185976 # Ar
5 5 1 0.0 567.181658958657 326.0242417169979 407.56230358139226 # Ar
6 6 1 0.0 723.9508229234185 486.61231103886576 611.049965941007 # Ar
7 7 1 0.0 262.1154730585532 2.659827927015303 293.7765165033602 # Ar
8 8 1 0.0 211.96006196415425 216.71468784842406 312.28911344375587 # Ar
9 9 1 0.0 44.55855289303442 494.67403639054703 618.6484706655147 # Ar
10 10 1 0.0 60.53688682294872 719.4463506119487 525.7075656369607 # Ar
11 11 1 0.0 452.8173828396525 446.5472971203645 276.7017341038345 # Ar
12 12 1 0.0 708.5039044021248 491.0254966310145 480.8091593566554 # Ar
13 13 1 0.0 691.9533579790224 593.0759306838079 265.957806832148 # Ar
14 14 1 0.0 37.8121088510768 456.8487010967555 204.1013290171235 # Ar
15 15 1 0.0 1.8818380091367606 435.85266085927975 258.2537782174709 # Ar
16 16 1 0.0 511.4366497131132 580.0441395119587 555.2562029888232 # Ar
17 17 1 0.0 212.79615965863664 170.17054729958326 146.13010074475454 # Ar
18 18 1 0.0 396.40848289499434 309.590482125236 351.56393432172837 # Ar
19 19 1 0.0 416.0846776123215 89.77358387043789 489.716941531142 # Ar
20 20 1 0.0 271.51339184296796 158.58625498764425 544.2309859767065 # Ar
21 21 1 0.0 615.8383504192466 555.0563458439009 130.01588962427397 # Ar
22 22 1 0.0 460.3861020014304 394.03554257323606 305.56922395433037 # Ar
23 23 1 0.0 454.7965080993588 558.2531118707205 654.7106331415781 # Ar
24 24 1 0.0 557.5464973088012 337.09965066762567 711.782663547777 # Ar
25 25 1 0.0 331.62203994207704 567.0144624214807 59.60221771762039 # Ar
26 26 1 0.0 586.8962490499775 605.4710359586596 174.53067746841677 # Ar
27 27 1 0.0 547.5897101826798 111.54938531667476 144.2836668131805 # Ar
28 28 1 0.0 298.5417110305334 107.52795664624482 675.361972240674 # Ar
29 29 1 0.0 629.4361459026495 299.65691952812716 611.7217242500042 # Ar
30 30 1 0.0 176.74691575999302 217.9207447650474 13.780641113236305 # Ar
31 31 1 0.0 198.2648231567536 597.4078977579302 322.39383554480094 # Ar
32 32 1 0.0 148.36069130995767 5.887612818084456 497.71671130662173 # Ar
33 33 1 0.0 96.51576702687362 466.8509486877014 199.19123843915264 # Ar
34 34 1 0.0 227.8301637872374 675.786026855282 599.7563749989465 # Ar
35 35 1 0.0 720.4576810185979 471.204883048896 546.4500734151204 # Ar
36 36 1 0.0 368.2326676512794 199.5327990849752 680.0371705439471 # Ar
37 37 1 0.0 656.6656558170932 435.93274432902984 141.28030735032388 # Ar
38 38 1 0.0 387.88283343990025 653.565867679779 285.6993236317266 # Ar
39 39 1 0.0 148.87821211606368 514.087534283946 672.098531412322 # Ar
40 40 1 0.0 227.1542547467324 468.37619484628715 49.488395511334524 # Ar
41 41 1 0.0 62.63957095905475 445.45516380374886 704.2146614932522 # Ar
42 42 1 0.0 271.8007503519714 313.2668112267193 264.4146208570339 # Ar
43 43 1 0.0 522.8094349295997 394.36426804773254 342.26395185961894 # Ar
44 44 1 0.0 225.92698452104543 572.5179336418062 237.79345973672332 # Ar
45 45 1 0.0 664.440903151271 55.87840005900089 707.8057784522076 # Ar
46 46 1 0.0 730.5254318409121 286.5504108006382 728.7357465338918 # Ar
47 47 1 0.0 293.9766943159588 89.85998369394626 229.53920090825557 # Ar
48 48 1 0.0 527.469583871092 593.5924543795904 726.2472425409688 # Ar
49 49 1 0.0 17.561118341210495 159.5522921127777 140.4770278610425 # Ar
50 50 1 0.0 334.24495467973526 619.7083959962251 148.22640074153657 # Ar
51 51 1 0.0 606.2926198848955 132.22186211158134 358.6316280196203 # Ar
52 52 1 0.0 175.80263508878903 81.01559316451407 129.66231066699834 # Ar
53 53 1 0.0 68.75972141624507 43.62810198560142 639.223659275575 # Ar
54 54 1 0.0 424.33039709049376 588.2102157056156 39.501371636153124 # Ar
55 55 1 0.0 326.8316648130768 477.0955804244677 611.8551138961429 # Ar
56 56 1 0.0 287.0636670762369 10.985667406600674 330.73143728919285 # Ar
57 57 1 0.0 579.3782197553787 283.811757066825 402.4144040048802 # Ar
58 58 1 0.0 195.37023491698753 38.21937774538988 712.9733276547748 # Ar
59 59 1 0.0 52.08428204975524 651.4386048411428 267.6210292510771 # Ar
60 60 1 0.0 454.1936491043437 676.5437853809115 175.40361234710863 # Ar
61 61 1 0.0 562.891721806299 309.4969102102852 620.629150200342 # Ar
62 62 1 0.0 396.30743287808735 715.9186364035999 6.763569592345015 # Ar
63 63 1 0.0 684.8603688601457 612.6246344336823 107.0726624950954 # Ar
64 64 1 0.0 161.48147725494093 4.535386013361441 396.88908775234387 # Ar
65 65 1 0.0 52.68837177098226 0.45362150796960843 461.57706860156196 # Ar
66 66 1 0.0 492.01545196204387 556.3877807981219 562.7096580370625 # Ar
67 67 1 0.0 14.571940402039392 371.97268047912615 297.45708666720634 # Ar
68 68 1 0.0 525.7205964945792 306.7512328165932 538.3698507302487 # Ar
69 69 1 0.0 357.9504804935503 299.87749113880443 732.8661719236881 # Ar
70 70 1 0.0 638.5805516234954 534.8296524796737 175.14129716502165 # Ar
71 71 1 0.0 560.9393887694246 405.58841479722275 631.32555195644 # Ar
72 72 1 0.0 566.9853471088671 96.19806386779283 385.430089753991 # Ar
73 73 1 0.0 586.1522403883074 436.88972281904546 382.20254407477347 # Ar
74 74 1 0.0 141.36048561547958 227.61524875466515 621.8859454502048 # Ar
75 75 1 0.0 361.35250866727205 307.4975017705665 654.2480835808026 # Ar
76 76 1 0.0 342.84140973597994 14.82738399139174 385.83367253766085 # Ar
77 77 1 0.0 406.42871988795923 208.26178212084693 531.1421853085506 # Ar
78 78 1 0.0 176.9354605166984 299.51089014104537 240.57535255748306 # Ar
79 79 1 0.0 435.45644462870814 83.02341544123979 165.47257266838787 # Ar
80 80 1 0.0 174.85067841800395 448.49534921627924 545.3048184006195 # Ar
81 81 1 0.0 13.55751850532055 447.0332933280681 646.5834140827116 # Ar
82 82 1 0.0 92.6147000673555 605.110977179464 120.57705995042714 # Ar
83 83 1 0.0 270.24830477541053 135.29481889877167 610.4278226563912 # Ar
84 84 1 0.0 8.525820706954333 389.38280296115994 591.8230009165105 # Ar
85 85 1 0.0 174.465690893964 213.87368396757904 558.2296263213145 # Ar
86 86 1 0.0 504.71866370965205 171.62601149288722 292.24835223748346 # Ar
87 87 1 0.0 607.0567809257286 617.3508788473038 377.7802720701553 # Ar
88 88 1 0.0 465.4146112079534 718.6041323896023 307.5515715304678 # Ar
89 89 1 0.0 723.1373540129235 16.409680035452237 704.9503579438771 # Ar
90 90 1 0.0 586.3554369627253 137.9983074266522 343.99262117066905 # Ar
91 91 1 0.0 413.93660282523166 261.6064952822163 426.53613485347006 # Ar
92 92 1 0.0 61.2087090709179 13.248472890559173 115.26014769087075 # Ar
93 93 1 0.0 438.5617953213559 529.6979415457947 519.1800599149979 # Ar
94 94 1 0.0 76.97001315923565 345.9355386470088 90.68933558864865 # Ar
95 95 1 0.0 12.760568908366464 480.30555762986944 455.2031985463516 # Ar
96 96 1 0.0 701.9293388147914 598.1545674485917 303.09400513825244 # Ar
97 97 1 0.0 95.41597044111249 318.2007332744294 652.6209764549026 # Ar
98 98 1 0.0 134.802741402619 629.9712371759521 571.0805500000328 # Ar
99 99 1 0.0 229.1191341692735 648.1741877412456 225.79292583755392 # Ar
100 100 1 0.0 370.05113907220687 372.4168252155519 444.24705538875213 # Ar
101 101 1 0.0 463.3676892551048 89.61812599502085 150.26277740170897 # Ar
102 102 1 0.0 175.7838888918301 282.96290831297307 632.6767447356269 # Ar
103 103 1 0.0 450.33797966625747 192.4622623008988 466.81852502928666 # Ar
104 104 1 0.0 353.21965182109534 272.14453223767947 657.4647364669465 # Ar
105 105 1 0.0 317.632415463316 504.45628234444746 339.88851181834195 # Ar
106 106 1 0.0 607.111338529776 698.9545673607463 359.1689119003157 # Ar
107 107 1 0.0 530.358917347343 451.76418352865284 693.6907942643555 # Ar
108 108 1 0.0 528.8124845611522 566.9947127652515 383.0166480155059 # Ar
109 109 1 0.0 319.60811312853383 135.34412243609574 519.5504937841588 # Ar
110 110 1 0.0 349.711239001816 348.0957273652443 147.8769814089771 # Ar
111 111 1 0.0 157.46873430726902 154.95990733625175 290.6170232519658 # Ar
112 112 1 0.0 175.33836690154905 511.60114775845204 239.24911016542444 # Ar
113 113 2 0.0 365.25236314118405 148.1642125246483 659.9244832521682 # Ar+
114 114 2 0.0 470.16316328658445 244.3352759194949 47.34544823738319 # Ar+
115 115 2 0.0 213.2176266328812 440.71976871648945 590.2470719976916 # Ar+
116 116 2 0.0 704.2175108937665 224.1828214915042 295.207581168097 # Ar+
117 117 2 0.0 492.073182086765 279.58992545580696 613.6688971843712 # Ar+
118 118 2 0.0 254.670118796453 537.4597516091206 550.2367678828139 # Ar+
119 119 2 0.0 624.8050250837608 292.37070765195654 512.9522775258166 # Ar+
120 120 2 0.0 277.00863199884594 29.93357213006678 4.2028327718000185 # Ar+
121 121 2 0.0 722.6467665537072 299.2598316392959 252.6764778126617 # Ar+
122 122 2 0.0 88.18080811802962 627.2971474012754 66.07554422889396 # Ar+
123 123 2 0.0 0.02019453976308551 728.2261387594859 426.5919760392595 # Ar+
124 124 2 0.0 206.78507917918932 625.0288954835418 198.66565236139243 # Ar+
125 125 2 0.0 569.1369678246472 581.2620952642851 402.8301356369051 # Ar+
126 126 2 0.0 81.96675571404568 73.6051919742117 676.2347667343963 # Ar+
127 127 2 0.0 728.2703204701547 511.8583430383345 249.09891036708902 # Ar+
128 128 2 0.0 357.311961798808 253.19889584271664 602.03905804152 # Ar+
129 129 2 0.0 715.5870783128776 733.7633829821224 231.74953220559001 # Ar+
130 130 2 0.0 667.4735921487471 608.8747779367773 631.2686632834562 # Ar+
131 131 2 0.0 132.58765736276254 502.87720251562604 140.36043468705003 # Ar+
132 132 2 0.0 45.86634384216771 82.87206577751033 1.3668826797259968 # Ar+
133 133 2 0.0 487.40829864318385 377.264607397163 0.1775411154490045 # Ar+
134 134 2 0.0 374.3254414522385 598.3816241436099 149.9953131105616 # Ar+
135 135 2 0.0 505.5508872362959 652.9688280681029 721.4714298575711 # Ar+
136 136 2 0.0 17.282850221867776 423.34847242229165 505.97287302271263 # Ar+
137 137 2 0.0 244.86070072159185 464.06015934660337 433.6518782229477 # Ar+
138 138 2 0.0 677.4933799387455 428.9069170307401 30.123205246415623 # Ar+
139 139 2 0.0 715.368184254044 401.85069462377584 429.05902534153773 # Ar+
140 140 2 0.0 114.62378985300923 259.11995725823766 652.0556548662611 # Ar+
141 141 2 0.0 695.9126763335641 69.28747879294261 181.23632731399445 # Ar+
142 142 2 0.0 186.08187982508002 671.9438725570624 198.64799449564984 # Ar+
143 143 2 0.0 140.16513888991716 371.08616221905663 617.8684349457915 # Ar+
144 144 2 0.0 444.4297214240094 509.88755985857586 619.4178808207043 # Ar+
145 145 2 0.0 71.53060655791069 715.3559340806089 88.12093288018643 # Ar+
146 146 2 0.0 645.5850633069981 331.27465733462435 269.5008925199767 # Ar+
147 147 2 0.0 277.0743290636658 418.0578191964181 319.35618336458964 # Ar+
148 148 2 0.0 717.1329474170193 330.3822335421992 482.2932520578186 # Ar+
149 149 2 0.0 245.75122079570485 98.104569133795 233.2692668540668 # Ar+
150 150 2 0.0 299.3347380427225 514.9652641963689 439.0176504142917 # Ar+
