LAMMPS data file -- atom_style full -- generated by chemfiles
150 atoms
0 bonds
0 angles
0 dihedrals
0 impropers
2 atom types
0 bond types
0 angle types
0 dihedral types
0 improper types
0.00000000 1566.48599 xlo xhi
0.00000000 1566.48599 ylo yhi
0.00000000 1566.48599 zlo zhi

# Pair Coeffs
# 1 Ar
# 2 Ar+

Masses

1 39.948 # Ar
2 39.948 # Ar+

Atoms # full

1 1 1 0.0 1152.1634816853234 1471.2549386661556 815.8169973599812 # Ar
2 2 1 0.0 1473.0414414415077 658.3713442714376 169.96387760460655 # Ar
3 3 1 0.0 187.06348586954329 333.1063718366609 1478.619501660784 # Ar
4 4 1 0.0 260.48549421349196 1250.4847233615487 439.52992426668175 # Ar
5 5 1 0.0 1407.0066169852605 703.6006081852465 38.590904350009225 # Ar
6 6 1 0.0 1531.8861854251475 1528.9138099882289 68.22647375451788 # Ar
7 7 1 0.0 747.0640713409468 857.6901938518972 1412.2704398565468 # Ar
8 8 1 0.0 1020.9651953390646 227.57230139474407 169.91958772986018 # Ar
9 9 1 0.0 1233.943934387127 480.2460874114407 744.4285441379798 # Ar
10 10 1 0.0 678.9172361411876 616.8671196455115 195.52952618491292 # Ar
11 11 1 0.0 54.02672552576567 3.677170086585791 92.12340079788757 # Ar
12 12 1 0.0 1247.1548907003912 252.5113954486065 820.4591575851159 # Ar
13 13 1 0.0 120.9806530929003 174.59424738607038 1053.0444899456181 # Ar
14 14 1 0.0 815.1582027473469 614.9062733521342 1227.2752328112604 # Ar
15 15 1 0.0 873.284728459287 856.0362884812339 1283.187001826881 # Ar
16 16 1 0.0 570.2028779535932 1359.5437046650216 562.7988558471806 # Ar
17 17 1 0.0 15.275510483676648 1109.538408278759 1092.1072124680463 # Ar
18 18 1 0.0 1365.1244865947258 607.0991305098738 709.3635401438253 # Ar
19 19 1 0.0 886.3605364877353 1453.449885257416 1254.38260677933 # Ar
20 20 1 0.0 1134.7645035852845 937.9042573726053 260.4551996936248 # Ar
21 21 1 0.0 670.050460323017 568.9941159189408 768.2645039308613 # Ar
22 22 1 0.0 1518.4442911193578 399.64745088280927 810.1488510326362 # Ar
23 23 1 0.0 974.9881285300988 291.0203021489581 32.95101033208776 # Ar
24 24 1 0.0 859.6318838626437 1279.6443729361313 283.22198346487 # Ar
25 25 1 0.0 1105.5491583036478 425.6861085905897 1044.3827397077825 # Ar
26 26 1 0.0 413.23611804089563 1442.1705219744983 831.8808742501726 # Ar
27 27 1 0.0 958.511991959616 1069.3125099188208 88.09645880426771 # Ar
28 28 1 0.0 674.073710368188 577.9014009409567 199.7736459441054 # Ar
29 29 1 0.0 963.4349810837427 168.50896445121734 854.8212000538232 # Ar
30 30 1 0.0 596.3720109056803 821.5288830658541 1097.0963410479678 # Ar
31 31 1 0.0 1101.984505194851 752.6220968811299 815.9264555526962 # Ar
32 32 1 0.0 1233.139829490334 214.6490531010441 980.5301538756711 # Ar
33 33 1 0.0 1457.7041299469047 164.25729791306074 1453.7062272244207 # Ar
34 34 1 0.0 499.72731770082504 995.3206646825832 784.697635918168 # Ar
35 35 1 0.0 1085.520698047083 164.18778311587562 1326.9805201720656 # Ar
36 36 1 0.0 80.27309491513093 421.9169563602483 1451.210244866282 # Ar
37 37 1 0.0 1292.9936097204838 971.4727504232252 1381.3578211988986 # Ar
38 38 1 0.0 578.2346957576895 1177.6616016896962 5.9179782747590135 # Ar
39 39 1 0.0 966.9301725014717 703.3044952602027 900.6535212752273 # Ar
40 40 1 0.0 318.278884411225 430.06854282037847 443.8479334647676 # Ar
41 41 1 0.0 1373.3123877277392 1359.969394187056 507.65801825170985 # Ar
42 42 1 0.0 1191.6394183619411 1386.0788162605777 1536.0866467702397 # Ar
43 43 1 0.0 120.04924131872717 1564.398220468377 517.697292218271 # Ar
44 44 1 0.0 1082.137522815649 1455.200562153758 507.5287862611134 # Ar
45 45 1 0.0 760.4253603643539 138.8872308675849 231.88017252472716 # Ar
46 46 1 0.0 1508.5034575120965 929.3350073068245 1102.552319214411 # Ar
47 47 1 0.0 1405.1413351260733 1362.0119783354282 256.25704388884037 # Ar
48 48 1 0.0 575.5870689699312 521.393245776498 1513.9519878611418 # Ar
49 49 1 0.0 1455.505544495669 615.7618208192657 272.23463890823973 # Ar
50 50 1 0.0 608.7325567649351 1001.1194248561791 1417.3505683433107 # Ar
51 51 1 0.0 1135.5839152907097 1470.567641230938 1306.7650349926907 # Ar
52 52 1 0.0 1090.9383846032872 1428.4724145333169 214.25895885465005 # Ar
53 53 1 0.0 579.9962253947994 1323.2027266892621 1202.19513500309 # Ar
54 54 1 0.0 649.6213190604196 1239.609779316515 365.7518414092076 # Ar
55 55 1 0.0 1100.6769861995485 1087.0859191403858 1466.9667536422514 # Ar
56 56 1 0.0 805.1849608890788 1107.0999000486581 1497.5591222196995 # Ar
57 57 1 0.0 1440.5086275437006 366.91147941223926 945.6921662710689 # Ar
58 58 1 0.0 193.12874051403978 1217.0201440170308 957.5951673763602 # Ar
59 59 1 0.0 894.4671876308372 385.98846559722176 1177.1847369780207 # Ar
60 60 1 0.0 1023.8443981335352 1194.3020262225969 798.7097960568838 # Ar
61 61 2 0.0 1460.3972625031215 544.5761344293369 687.4830674163234 # Ar+
62 62 2 0.0 623.9486996457686 679.3433391269707 343.0547510458769 # Ar+
63 63 2 0.0 808.7670222431727 1296.4367712156925 1277.7012980856696 # Ar+
64 64 2 0.0 696.0836464332973 1016.7576820449311 818.0706563974046 # Ar+
65 65 2 0.0 227.40924971127092 1312.973428315774 566.368237447206 # Ar+
66 66 2 0.0 591.2989907840595 1461.1507919976993 1453.8446550718238 # Ar+
67 67 2 0.0 1096.7234126846456 1253.837288992929 1035.7474695144065 # Ar+
68 68 2 0.0 1157.098286339839 839.8866449794521 437.07762018333233 # Ar+
69 69 2 0.0 373.0327660424148 1087.1409433504623 176.3189488098354 # Ar+
70 70 2 0.0 54.360560369202126 976.6277857787218 599.301821943162 # Ar+
71 71 2 0.0 312.17398319088164 155.6598572468325 858.6835105412348 # Ar+
72 72 2 0.0 873.081848212241 1426.2576803963684 249.0714772086806 # Ar+
73 73 2 0.0 755.1285237259912 901.1229938320058 1533.8079302510494 # Ar+
74 74 2 0.0 714.9993158822836 703.9962511841838 1407.446466738786 # Ar+
75 75 2 0.0 1287.4838011672025 1564.9835287744258 855.254475539424 # Ar+
76 76 2 0.0 1173.6551967271264 643.2963624572224 404.8534977734158 # Ar+
77 77 2 0.0 56.81694348152893 161.76420926280272 1144.8700692475884 # Ar+
78 78 2 0.0 304.5377914465844 1279.4895152127992 1438.504650239451 # Ar+
79 79 2 0.0 1057.5247956174169 483.37097391417905 663.371119906208 # Ar+
80 80 2 0.0 613.9758630551773 1171.3690936334508 1529.9626700220026 # Ar+
81 81 2 0.0 533.4993019322545 399.20406587308463 86.23436525195204 # Ar+
82 82 2 0.0 905.3222774177927 1415.7349170724167 732.5030686404419 # Ar+
83 83 2 0.0 602.7111463792977 203.49671559774308 624.6910010992001 # Ar+
84 84 2 0.0 1323.1484527656303 437.52940875024217 725.8549398297376 # Ar+
85 85 2 0.0 1486.7353457851243 292.8607981347762 546.5646936948559 # Ar+
86 86 2 0.0 997.3169497364382 481.98846607551496 495.52130568201216 # Ar+
87 87 2 0.0 1138.6777456380512 163.33695516528786 307.512257259091 # Ar+
88 88 2 0.0 1507.779891187363 575.1632344726089 909.2234623986111 # Ar+
89 89 2 0.0 696.6506592793191 187.65338194025324 377.7587919862682 # Ar+
90 90 2 0.0 1047.8566621100038 274.163303607872 460.90575664584884 # Ar+
91 91 2 0.0 1521.6219169236215 54.653911062613936 1528.0117244419214 # Ar+
92 92 2 0.0 856.6864139675122 1515.6893186934542 99.0299121925173 # Ar+
93 93 2 0.0 268.0132246875773 555.2060585612062 739.2141396976208 # Ar+
94 94 2 0.0 501.75024896181657 738.0706455872823 1334.8413472274176 # Ar+
95 95 2 0.0 842.721764431559 201.41578500499259 1063.5164756569118 # Ar+
96 96 2 0.0 694.0625136467529 631.1391180382969 522.0111939986774 # Ar+
97 97 2 0.0 441.2645213532256 451.87518089231037 713.1100592958021 # Ar+
98 98 2 0.0 1406.2603163389133 587.4819086136921 1019.5828389925974 # Ar+
99 99 2 0.0 1488.44499037721 1420.8717167851619 1197.966638122935 # Ar+
100 100 2 0.0 338.11041289538394 1355.226469326626 1436.4184443547786 # Ar+
101 101 2 0.0 1114.138790707317 780.4791530503536 1318.5303325664224 # Ar+
102 102 2 0.0 1233.4050821525016 1328.3758827328286 473.77370545719793 # Ar+
103 103 2 0.0 964.1978774672391 592.5369714761538 745.9439078656183 # Ar+
104 104 2 0.0 253.591309667717 945.2840059602177 468.17793106039625 # Ar+
105 105 2 0.0 298.7096238253387 596.6518862585692 443.8002553696962 # Ar+
106 106 2 0.0 393.5500067695342 482.49003092261836 943.2053183581437 # Ar+
107 107 2 0.0 621.4382483290583 519.7146071014068 765.7130033038034 # Ar+
108 108 2 0.0 1117.049076926703 1523.7086035828856 38.555030495803784 # Ar+
109 109 2 0.0 956.6173310852346 334.33805398947766 1014.9903285144583 # Ar+
110 110 2 0.0 1191.5627527935033 38.04679952383001 108.62154530785563 # Ar+
111 111 2 0.0 218.15371507973205 1506.462499634409 1271.3092840552763 # Ar+
112 112 2 0.0 502.50776250182867 1407.7739225581784 22.842311155287994 # Ar+
113 113 2 0.0 1012.7088299566132 1140.8974301274407 1064.5494983160775 # Ar+
114 114 2 0.0 22.273786922010736 158.3740723616021 516.9270557722867 # Ar+
115 115 2 0.0 177.31426317055153 936.1012402611073 333.93196240164116 # Ar+
116 116 2 0.0 244.9139077052678 1086.3116148981426 1247.7510656164993 # Ar+
117 117 2 0.0 380.94700987809455 470.95772129965906 471.9694107031952 # Ar+
118 118 2 0.0 1190.599609826971 50.7543502769562 553.6196844543595 # Ar+
119 119 2 0.0 361.7715533207431 1343.1655705988164 1404.7297862506769 # Ar+
120 120 2 0.0 1031.4024337890407 419.94023849376896 1332.1125444616803 # Ar+
121 121 2 0.0 83.67188636269276 997.3976580940644 1210.822297838204 # Ar+
122 122 2 0.0 843.9836542609252 465.14838656826333 170.59535407052238 # Ar+
123 123 2 0.0 397.145288760098 401.8722357230648 880.5190673922704 # Ar+
124 124 2 0.0 48.74159476934251 1211.4473367057763 270.68019160631263 # Ar+
125 125 2 0.0 98.67056910953558 928.335692041677 923.3671495842601 # Ar+
126 126 2 0.0 157.7921409575465 592.2975687307627 537.9650346286815 # Ar+
127 127 2 0.0 1262.9178066461463 1033.1540425562685 32.70888754746109 # Ar+
128 128 2 0.0 1243.3332032393062 84.69647442122317 504.1696593806777 # Ar+
129 129 2 0.0 740.4884677949727 25.611959637048727 495.2542660704184 # Ar+
130 130 2 0.0 1065.982668261649 1096.0962820926125 779.3486146630835 # Ar+
131 131 2 0.0 729.7844182834209 1203.7613342273698 242.36069504978303 # Ar+
132 132 2 0.0 958.8491535382815 1142.433289847714 1565.8648708966678 # Ar+
133 133 2 0.0 672.6355317251667 945.1212657813643 371.0776155047647 # Ar+
134 134 2 0.0 1137.0889580907237 1156.2807830764038 462.2271637317618 # Ar+
135 135 2 0.0 447.6715712018662 756.9879030992029 429.28917571898023 # Ar+
136 136 2 0.0 185.14647856985923 903.7351510124379 266.2487952469515 # Ar+
137 137 2 0.0 996.1340660811805 341.2231638329064 838.2828228502982 # Ar+
138 138 2 0.0 1130.6921094753377 151.30498275140377 812.4951696713425 # Ar+
139 139 2 0.0 289.5787909205716 199.12849364429928 122.33728152416592 # Ar+
140 140 2 0.0 1022.4093297173129 609.9857548930473 212.69832974976575 # Ar+
141 141 2 0.0 724.5435786790945 0.8042324183532802 583.3477918389164 # Ar+
142 142 2 0.0 454.1798897877589 771.405218293643 738.7949182863316 # Ar+
143 143 2 0.0 464.5391326668467 300.45160076578156 201.9464133133359 # Ar+
144 144 2 0.0 1349.270464035923 555.9984798544019 1401.1615177237254 # Ar+
145 145 2 0.0 834.581407702035 538.0503129714081 1200.3629385395575 # Ar+
146 146 2 0.0 1129.4562160845494 1496.3871048945773 880.2554510978702 # Ar+
147 147 2 0.0 1321.9654333374756 346.7009335280219 953.6397464417349 # Ar+
148 148 2 0.0 117.17711710701354 133.20443765534523 1535.543854791237 # Ar+
149 149 2 0.0 1041.408186984748 271.2471672293855 8.305530896396961 # Ar+
150 150 2 0.0 561.5532589203291 557.1114170779824 279.1230099228698 # Ar+
