LAMMPS data file -- atom_style full -- generated by chemfiles
150 atoms
0 bonds
0 angles
0 dihedrals
0 impropers
2 atom types
0 bond types
0 angle types
0 dihedral types
0 improper types
0.00000000 192.649377 xlo xhi
0.00000000 192.649377 ylo yhi
0.00000000 192.649377 zlo zhi

# Pair Coeffs
# 1 Ar
# 2 Ar+

Masses

1 39.948 # Ar
2 39.948 # Ar+

Atoms # full

1 1 1 0.0 91.28626450258855 69.43480735718973 102.21404853802709 # Ar
2 2 1 0.0 130.4283186028286 53.97299261408178 133.48709049391667 # Ar
3 3 1 0.0 171.12724595109805 134.6069093440912 166.7655580120133 # Ar
4 4 1 0.0 139.96292001021476 4.717943519045602 102.59465696411922 # Ar
5 5 1 0.0 131.04268906578713 27.187608478804375 110.73060890831553 # Ar
6 6 1 0.0 129.57230870838248 24.699270199478587 60.50708906979889 # Ar
7 7 1 0.0 34.24851013626711 23.432689868116356 128.98231566205197 # Ar
8 8 1 0.0 119.48723396186897 6.741360812173516 157.03164113425484 # Ar
9 9 1 0.0 128.2375192205932 105.05093292577118 76.0738002655786 # Ar
10 10 1 0.0 30.48382224497297 94.67121040082255 47.83174038505224 # Ar
11 11 1 0.0 174.5553574936566 161.37181303460235 94.87246481583048 # Ar
12 12 1 0.0 128.20997521562262 99.45297164366619 32.82941880624852 # Ar
13 13 1 0.0 23.211224254004986 118.10738606379336 104.90716741086769 # Ar
14 14 1 0.0 72.46996933795891 76.98076825083706 146.3492358546911 # Ar
15 15 1 0.0 162.47986649077356 25.152682531617444 148.3672981592029 # Ar
16 16 1 0.0 184.54641093107463 29.45209540160843 137.54179354434757 # Ar
17 17 1 0.0 108.94055857467688 126.12479780783553 101.89033929968446 # Ar
18 18 1 0.0 172.2663729274902 41.5865276896129 171.7889588228219 # Ar
19 19 1 0.0 159.18393455198728 145.091062405718 15.754794712970332 # Ar
20 20 1 0.0 80.00827058306835 93.37038647391803 176.81596586277428 # Ar
21 21 1 0.0 114.89976467489436 71.40795735503208 156.00849182179155 # Ar
22 22 1 0.0 88.8722423430697 158.32005379012173 5.154521068745585 # Ar
23 23 1 0.0 109.47054533514081 119.18786605928064 136.36870119411037 # Ar
24 24 1 0.0 176.13333329126266 191.07554168744164 130.77679921312838 # Ar
25 25 1 0.0 191.27688246441238 82.71635287200453 20.881363358272747 # Ar
26 26 1 0.0 31.402742551440394 132.57027313500976 82.50592596878634 # Ar
27 27 1 0.0 60.40967423219125 69.95693640011113 16.48235482363706 # Ar
28 28 1 0.0 97.20451643053141 102.80033134784692 85.69143311833129 # Ar
29 29 1 0.0 90.33965017543555 166.22314311884267 57.637310139712284 # Ar
30 30 1 0.0 21.540292107121225 52.96862526368265 138.58890183090492 # Ar
31 31 1 0.0 48.2670955287287 115.69398238897716 50.330406018171544 # Ar
32 32 1 0.0 29.320936574928798 82.30133623291347 153.36975700450327 # Ar
33 33 1 0.0 125.58931697103218 101.66229033474579 42.645008603245266 # Ar
34 34 1 0.0 66.90091275282617 150.61157724828243 25.773201762016733 # Ar
35 35 1 0.0 185.45311366082828 174.79223548172044 159.4380224587407 # Ar
36 36 1 0.0 66.55356858069642 84.97324210888445 146.71977504759872 # Ar
37 37 1 0.0 11.905992066166757 70.28168050472999 68.44317062666903 # Ar
38 38 1 0.0 134.80497983148652 3.6588198255137034 39.94504629482301 # Ar
39 39 1 0.0 81.72474333172009 153.71827899174758 144.84048296565638 # Ar
40 40 1 0.0 122.34047967530388 42.417993419284635 26.10855013004724 # Ar
41 41 1 0.0 149.76242264663162 99.6333893823099 7.421797828507702 # Ar
42 42 1 0.0 116.40751118931857 98.61447312310496 44.619689418496975 # Ar
43 43 1 0.0 124.68783650503673 53.35596080350996 117.83655015139932 # Ar
44 44 1 0.0 79.6408518502874 173.07707472140254 185.47462739842487 # Ar
45 45 1 0.0 17.287959860998228 132.30125895873942 118.70789404770005 # Ar
46 46 1 0.0 4.366935718420002 82.71984435025593 67.51340739276115 # Ar
47 47 1 0.0 171.68066913544152 134.17321493286482 135.1788153908693 # Ar
48 48 1 0.0 182.7335883602513 11.801153526218465 167.28331770796305 # Ar
49 49 1 0.0 59.87366207618319 188.24103813299487 126.68926027443351 # Ar
50 50 1 0.0 126.65783289838545 145.97395846840774 110.46616166513695 # Ar
51 51 1 0.0 120.13200620681788 177.8136730844293 115.4256481018558 # Ar
52 52 1 0.0 103.77644874060262 115.44536353980175 23.300065978185856 # Ar
53 53 1 0.0 116.09811768549966 32.14060355795253 3.3183172983580236 # Ar
54 54 1 0.0 89.31402427037237 45.222896033409 72.33472389094123 # Ar
55 55 1 0.0 73.88771281336665 113.2410224330721 145.21509845004508 # Ar
56 56 1 0.0 171.87660493956028 136.87765954963294 104.72560068169007 # Ar
57 57 1 0.0 132.83775957375792 35.547381016907885 49.30021478807873 # Ar
58 58 1 0.0 71.5377968898209 144.73041106280948 11.732159458954566 # Ar
59 59 1 0.0 178.3153879172359 75.46751575270571 184.1531643318095 # Ar
60 60 1 0.0 141.51049487067252 59.983965243122626 128.46286258873246 # Ar
61 61 1 0.0 91.99024280313259 185.96109018374233 89.49947908000252 # Ar
62 62 1 0.0 132.00240875781546 75.36357719056335 67.25549146280446 # Ar
63 63 1 0.0 118.01883335738498 21.540046910024927 115.97240574494683 # Ar
64 64 1 0.0 35.179181454045725 90.34781257235419 100.72546210932956 # Ar
65 65 1 0.0 171.9096295293991 50.69768926719657 91.133312651932 # Ar
66 66 1 0.0 12.682822156792536 53.142912104808104 14.868844244210047 # Ar
67 67 1 0.0 88.17095901573317 40.352043534715435 27.006925366804836 # Ar
68 68 1 0.0 55.20260784925245 81.17700498091924 78.01205738028445 # Ar
69 69 1 0.0 51.64091958457539 112.60070901042363 52.34947816855871 # Ar
70 70 1 0.0 57.60925139480481 115.59749419709719 129.75490454236126 # Ar
71 71 1 0.0 109.6858857668529 69.67106375237888 56.693338452365985 # Ar
72 72 1 0.0 23.389861007496332 57.970693269471695 86.03420870491266 # Ar
73 73 1 0.0 86.05071505603907 75.78377623601385 24.497784564843542 # Ar
74 74 1 0.0 62.02934833727023 189.40829318167744 86.24698779782636 # Ar
75 75 1 0.0 152.92029313495138 163.37153299454883 60.47905522435441 # Ar
76 76 1 0.0 98.17357465275921 60.68493022428208 11.048141998121741 # Ar
77 77 1 0.0 47.07208000991593 12.68143329317279 29.002822278498776 # Ar
78 78 1 0.0 179.71691584201048 89.22557040057193 139.09891067560184 # Ar
79 79 1 0.0 144.80524666689104 26.665252232001606 25.505207082626903 # Ar
80 80 1 0.0 75.95182892869518 93.60810834184355 109.65824622959839 # Ar
81 81 1 0.0 117.05874262628448 173.0825472615611 36.687590070843676 # Ar
82 82 1 0.0 51.509825610220545 181.54206155780182 121.00168214217092 # Ar
83 83 1 0.0 174.68659033714889 108.80995022922639 99.37074604076263 # Ar
84 84 1 0.0 170.91944456941462 100.30205147507462 67.77339117633194 # Ar
85 85 1 0.0 136.38987744504865 183.4303589210415 80.5196386703852 # Ar
86 86 1 0.0 41.62917746619247 119.18022138302362 15.611421506756972 # Ar
87 87 1 0.0 185.98248953913225 53.735538714976265 36.71177512264195 # Ar
88 88 1 0.0 167.4599725013329 189.856584381196 177.77707665553595 # Ar
89 89 1 0.0 178.4595896023427 187.71128070157891 34.80262591837656 # Ar
90 90 1 0.0 16.606732884685915 77.89614655715656 112.36940086089639 # Ar
91 91 1 0.0 187.41303126248928 109.88385397284775 57.15518460958929 # Ar
92 92 1 0.0 78.19688764426338 90.62512375746601 39.121979173071544 # Ar
93 93 1 0.0 174.78610816927878 57.65248821299029 174.4188207265347 # Ar
94 94 1 0.0 24.21220458644891 113.66820475768583 102.00013222005754 # Ar
95 95 1 0.0 166.67711499344497 153.19411502258578 1.0722211963701076 # Ar
96 96 1 0.0 53.914262587999254 26.98037620779912 167.95921898438075 # Ar
97 97 1 0.0 172.6738766185173 43.1937959411823 105.62260567590187 # Ar
98 98 1 0.0 166.96325314239343 33.42375929749625 101.34815282986345 # Ar
99 99 1 0.0 93.37649430904109 45.8693564048235 4.406319703579661 # Ar
100 100 1 0.0 113.60930970668134 188.64395315661838 29.87486033153702 # Ar
101 101 1 0.0 39.149505026295564 105.14248742614463 130.8163648576586 # Ar
102 102 1 0.0 78.18488272979316 41.915224648031696 100.05588536002409 # Ar
103 103 1 0.0 154.80552092131992 97.62497869903186 128.2727943242627 # Ar
104 104 1 0.0 94.95853537696648 6.516861725190179 90.96527544844868 # Ar
105 105 1 0.0 5.44533966831257 171.44146055877508 132.55861097805754 # Ar
106 106 1 0.0 160.99273936918846 10.13156074092495 68.64134824098682 # Ar
107 107 1 0.0 3.974083105834847 79.94608667342384 122.80108907385149 # Ar
108 108 1 0.0 157.21760640656566 90.89837797040718 150.8798190164868 # Ar
109 109 1 0.0 125.94938207386264 111.39036549309503 8.732840759261146 # Ar
110 110 1 0.0 103.154547291609 113.11403277220171 120.23180903004788 # Ar
111 111 1 0.0 147.19865443574224 38.526045663409874 54.79834752979313 # Ar
112 112 1 0.0 108.78422274728602 189.39617801463484 117.91549821590935 # Ar
113 113 1 0.0 127.2641378779137 135.0224880867386 156.37208879664556 # Ar
114 114 1 0.0 53.274864089705915 120.12914951869888 7.927947221749699 # Ar
115 115 1 0.0 88.39976691434883 179.82855905073464 36.932870646948196 # Ar
116 116 1 0.0 3.816385804677194 184.60782644358142 186.62251618514273 # Ar
117 117 1 0.0 6.69081800178642 75.52422782121373 7.012581008210328 # Ar
118 118 1 0.0 30.77924397837607 70.73326178657422 162.8600512273399 # Ar
119 119 1 0.0 4.422037795466906 31.62618860085554 98.05190069112435 # Ar
120 120 1 0.0 88.44489334247857 77.9975877761469 47.23856107786307 # Ar
121 121 1 0.0 71.98229575942173 95.00827234646289 97.22623112256804 # Ar
122 122 1 0.0 185.20369795912026 67.97438152105633 9.294078481361545 # Ar
123 123 1 0.0 161.1700332136399 30.60147495652373 55.464558765751896 # Ar
124 124 1 0.0 151.1047060373418 141.39865896092172 140.87069147601414 # Ar
125 125 1 0.0 4.429961287905472 76.78108925305438 48.01497109640648 # Ar
126 126 1 0.0 78.14482697667034 18.42981136681348 187.55252887438093 # Ar
127 127 1 0.0 34.882920342884056 40.689539504198265 133.55911309524836 # Ar
128 128 1 0.0 35.081317537859164 132.95629623836925 158.3695589456306 # Ar
129 129 1 0.0 177.77048106010807 143.71528949140207 126.69110801769797 # Ar
130 130 1 0.0 67.59537799661406 121.24125796299286 126.95466149945446 # Ar
131 131 1 0.0 170.19206763402826 178.05437296267127 58.277585003334714 # Ar
132 132 1 0.0 90.21091559591008 162.74795018127298 192.45121724541062 # Ar
133 133 1 0.0 152.2001439201176 142.49392589913487 14.676440015586092 # Ar
134 134 1 0.0 21.652582778664275 9.29759129174449 121.74560774427289 # Ar
135 135 1 0.0 152.10629818874577 170.4352982450807 13.722838554449586 # Ar
136 136 1 0.0 88.8582136508993 32.946388675824174 110.88706237214632 # Ar
137 137 1 0.0 41.615521111499085 15.698124490147615 77.86452762708242 # Ar
138 138 1 0.0 159.94045780162958 181.3421183208957 184.63062836673393 # Ar
139 139 1 0.0 45.957877719252615 119.99216813379019 124.87063490806774 # Ar
140 140 1 0.0 137.07526810006513 132.365372934689 172.98120440890753 # Ar
141 141 1 0.0 187.03243217207054 39.80674698942713 115.2525230708148 # Ar
142 142 1 0.0 190.5534781555524 9.848764997261783 7.375568587769082 # Ar
143 143 2 0.0 147.59376300359295 7.877302059096123 89.53917801926048 # Ar+
144 144 2 0.0 114.15748841731553 0.7628523640499278 119.69989240697056 # Ar+
145 145 2 0.0 105.03562288110562 56.34550865374263 176.14583218889513 # Ar+
146 146 2 0.0 7.984850023320734 76.64656786666849 94.78076233936568 # Ar+
147 147 2 0.0 127.96958577946054 44.811977770948346 55.62912311932581 # Ar+
148 148 2 0.0 173.21380876412198 45.4502259983412 69.57012806782322 # Ar+
149 149 2 0.0 62.391565195329775 168.81163414727337 150.32833495914528 # Ar+
150 150 2 0.0 111.16240854961944 64.26526833900816 35.116553047533046 # Ar+
