LAMMPS data file -- atom_style full -- generated by chemfiles
150 atoms
0 bonds
0 angles
0 dihedrals
0 impropers
2 atom types
0 bond types
0 angle types
0 dihedral types
0 improper types
0.00000000 413.303607 xlo xhi
0.00000000 413.303607 ylo yhi
0.00000000 413.303607 zlo zhi

# Pair Coeffs
# 1 Ar
# 2 Ar+

Masses

1 39.948 # Ar
2 39.948 # Ar+

Atoms # full

1 1 1 0.0 125.59027471639182 130.24550843898095 15.23987914520369 # Ar
2 2 1 0.0 31.909530945238384 226.7732312486602 149.31373951218214 # Ar
3 3 1 0.0 186.1759543546251 207.904675111952 186.71652030945023 # Ar
4 4 1 0.0 353.73627790652966 72.7536680223381 199.49734769141685 # Ar
5 5 1 0.0 81.73945648216994 355.78413850656284 59.5151614184488 # Ar
6 6 1 0.0 212.8259045259545 221.67386385605988 295.3690329193439 # Ar
7 7 1 0.0 16.49482081616274 126.40439668380992 122.58080887452958 # Ar
8 8 1 0.0 347.65662759463646 78.52647693388606 298.37463679583215 # Ar
9 9 1 0.0 271.59334658547715 103.75699273179775 259.2904176899821 # Ar
10 10 1 0.0 163.5566957906614 241.61724515131542 375.24917564625144 # Ar
11 11 1 0.0 353.3833112157559 91.82143745069011 397.581823784826 # Ar
12 12 1 0.0 401.6147530787902 136.31968676007165 404.7310218188301 # Ar
13 13 1 0.0 189.93529361006185 17.937516566169535 87.63631079961316 # Ar
14 14 1 0.0 201.6426147538307 186.94183388416857 37.27251133506609 # Ar
15 15 1 0.0 192.47402028488574 224.754910006479 313.66317564000417 # Ar
16 16 1 0.0 391.35244099779015 180.53963316141326 115.00726060671367 # Ar
17 17 1 0.0 364.8551162005321 123.15794538850848 381.3059217041019 # Ar
18 18 1 0.0 148.1504123514524 100.60691684897986 212.83969286048836 # Ar
19 19 1 0.0 226.35137701286914 322.5580634161932 402.65784157276704 # Ar
20 20 1 0.0 97.65412809250493 193.83955033215622 209.84317740654248 # Ar
21 21 1 0.0 396.0203519141378 73.349479208788 112.63695345190187 # Ar
22 22 1 0.0 171.96969254231823 146.38093860861076 140.54783655560828 # Ar
23 23 1 0.0 131.27350762805878 46.36045990257707 261.036586688672 # Ar
24 24 1 0.0 259.8580653748088 200.3386432133009 53.42519205801706 # Ar
25 25 1 0.0 359.5941313557072 277.33961682324053 394.69288410854506 # Ar
26 26 1 0.0 24.03130493919201 126.30482278774554 350.5910366661608 # Ar
27 27 1 0.0 22.61817275721903 115.75053059371488 73.409007090892 # Ar
28 28 1 0.0 301.9027730532747 211.2202954603488 223.69202744863122 # Ar
29 29 1 0.0 13.333086597593969 260.6692925022103 147.98783187582498 # Ar
30 30 1 0.0 25.646727484565147 123.45387939614966 190.58525255031685 # Ar
31 31 1 0.0 177.11839807370225 407.46690352650876 271.0126605720074 # Ar
32 32 1 0.0 100.13445702971369 170.89988147312403 95.93087128349768 # Ar
33 33 1 0.0 242.2454486129127 147.66654118569838 278.9055164676715 # Ar
34 34 1 0.0 42.71056011895617 39.198375296828964 283.4946764477629 # Ar
35 35 1 0.0 23.567223743046856 302.5465652323468 85.00828752947365 # Ar
36 36 1 0.0 48.549302321773624 74.12944955815085 251.15334583845808 # Ar
37 37 1 0.0 345.42058957173356 265.57389566350156 61.67775916891541 # Ar
38 38 1 0.0 202.5505571932703 70.47180978351572 119.12012845221699 # Ar
39 39 1 0.0 57.172466617418635 209.66293137609102 34.68977229385031 # Ar
40 40 1 0.0 382.11697909722096 167.05155433010694 163.38894745536305 # Ar
41 41 1 0.0 108.51931010383565 320.86611500817673 6.257280775630615 # Ar
42 42 1 0.0 124.38826592996635 390.9824635138466 116.51748413950726 # Ar
43 43 1 0.0 3.682154889327312 90.8123209081728 35.14625219483872 # Ar
44 44 1 0.0 386.77023475471043 168.41488997884952 349.4423949116286 # Ar
45 45 1 0.0 158.31449180537047 124.77512915337232 354.2573899790262 # Ar
46 46 1 0.0 192.41065443614576 65.06475511145031 2.30947638841676 # Ar
47 47 1 0.0 64.31421555172562 308.8509339634967 318.49587987023216 # Ar
48 48 1 0.0 391.46530697967546 210.5566831912678 93.03749578036303 # Ar
49 49 1 0.0 230.30375127325732 217.43278056643402 159.09612244676507 # Ar
50 50 1 0.0 167.68599491871018 176.4637264836578 332.1933654950584 # Ar
51 51 1 0.0 351.0911009881781 327.02824979007926 328.5295759838401 # Ar
52 52 1 0.0 289.2120748240346 16.802595085970495 395.81839162744933 # Ar
53 53 1 0.0 56.88688845501939 115.81775019070115 266.7538399538373 # Ar
54 54 1 0.0 279.5186983820117 275.5072339267999 406.40200765889387 # Ar
55 55 1 0.0 266.40292236865287 343.8751154799123 63.64329512626348 # Ar
56 56 1 0.0 48.79844088185976 200.10838960019362 100.17581761435048 # Ar
57 57 1 0.0 28.40917456608306 150.35131518858128 161.65945838052394 # Ar
58 58 1 0.0 281.68277009246736 204.31435612040335 172.21931463866892 # Ar
59 59 1 0.0 142.55896154437778 18.368116361645335 112.35895954282027 # Ar
60 60 1 0.0 278.77350723824304 204.51078555194914 72.53991850342068 # Ar
61 61 1 0.0 110.79408002139512 179.7389841818872 217.36609748632588 # Ar
62 62 1 0.0 200.24309468071604 231.25724018920175 6.585591773144534 # Ar
63 63 1 0.0 0.4062160662485139 187.7747299682273 28.762645080209506 # Ar
64 64 1 0.0 176.57958818506575 52.350070110567096 113.16956927348429 # Ar
65 65 1 0.0 220.94296318892825 230.9056398724578 375.78757956187053 # Ar
66 66 1 0.0 193.08128606824772 197.99264071786814 277.6690259389643 # Ar
67 67 1 0.0 409.3153151066137 282.44359661889945 391.7912583411553 # Ar
68 68 1 0.0 32.74881855651256 101.1991578087411 345.0599811712733 # Ar
69 69 1 0.0 317.48732036006925 276.989102212384 303.0803534989492 # Ar
70 70 1 0.0 173.5684300034795 410.6879005615104 224.28055108119418 # Ar
71 71 1 0.0 304.7297976691845 42.45965341300614 367.3190161730274 # Ar
72 72 1 0.0 204.7891387102325 96.59582156448015 245.85000438099232 # Ar
73 73 1 0.0 7.677956111693121 156.91851405410418 168.45779331269142 # Ar
74 74 1 0.0 8.794913907281355 284.27274402905044 106.20761148149434 # Ar
75 75 1 0.0 309.4992012891971 412.950997105732 0.47611520615182895 # Ar
76 76 1 0.0 128.23813318717717 8.53072345329586 266.9839687063751 # Ar
77 77 1 0.0 317.3601051994626 103.45453554931129 221.22093538288874 # Ar
78 78 1 0.0 354.4517200143926 382.40907569815687 152.37897271865467 # Ar
79 79 1 0.0 260.1830630584432 23.564098323903995 7.5927232315232445 # Ar
80 80 1 0.0 390.30904401534525 327.17669498380246 76.63306898076588 # Ar
81 81 1 0.0 335.1179644175918 209.67420640117817 142.0929339028479 # Ar
82 82 1 0.0 45.45638753807555 167.51992366383715 117.72449210236465 # Ar
83 83 1 0.0 70.80265015628463 267.54732997614076 255.57931491220418 # Ar
84 84 1 0.0 253.412760545744 90.27686168240848 304.5098595707002 # Ar
85 85 1 0.0 25.09552271671941 227.2348969094778 88.30781908695249 # Ar
86 86 1 0.0 240.97324182287105 330.4509512290677 390.32905794655187 # Ar
87 87 1 0.0 38.28426655083041 342.7952308982714 99.16936386470479 # Ar
88 88 1 0.0 156.582549822857 35.929810868407216 318.2334213790141 # Ar
89 89 1 0.0 395.20077773047 121.22204135458858 383.01134165628764 # Ar
90 90 1 0.0 356.9960994395777 360.0498767530147 96.85697402617063 # Ar
91 91 1 0.0 27.027821480665082 320.3418145474956 291.44108961005946 # Ar
92 92 1 0.0 377.52242169337035 259.60175468957476 100.9171936923946 # Ar
93 93 1 0.0 346.55844061723747 395.08857010440727 279.47310542384866 # Ar
94 94 1 0.0 271.57400290660553 146.57116851474794 412.7394719298885 # Ar
95 95 1 0.0 317.2774029473869 219.39900399187385 282.7644671949137 # Ar
96 96 1 0.0 20.33948773638305 285.1887761260219 165.02823382460267 # Ar
97 97 1 0.0 341.01885024418027 122.59928855584435 369.55348434979356 # Ar
98 98 1 0.0 349.75077987580613 199.12927331791417 283.1111090825434 # Ar
99 99 1 0.0 353.62754671261087 75.35915491883361 269.9907373607954 # Ar
100 100 1 0.0 220.52580261578117 111.95763710260223 85.18205849880363 # Ar
101 101 1 0.0 184.33330017293432 307.88712905114335 78.13455476441223 # Ar
102 102 1 0.0 15.543071961991943 362.96276142117364 91.19607915789172 # Ar
103 103 1 0.0 55.7082060583807 319.6261559886415 212.20090651821505 # Ar
104 104 1 0.0 165.0479502613484 234.71939177591614 139.63544953204547 # Ar
105 105 1 0.0 117.95563889000182 48.36570077331201 132.58269128109598 # Ar
106 106 1 0.0 324.215734268911 340.5612333925406 68.332095708688 # Ar
107 107 1 0.0 365.85323797738465 104.6423139061289 207.17922997414243 # Ar
108 108 1 0.0 53.779068391421106 28.398711090050327 71.66475913878816 # Ar
109 109 1 0.0 341.14726192134054 374.3942653457571 226.86011881710837 # Ar
110 110 1 0.0 0.6190481094049819 283.12087514260764 2.789918540088956 # Ar
111 111 1 0.0 298.30639968867507 0.8208290197753502 67.01263423147981 # Ar
112 112 1 0.0 200.6151680326095 3.3875423485316243 149.04258052525725 # Ar
113 113 1 0.0 183.0244086381547 393.31468756160507 379.4312950545186 # Ar
114 114 1 0.0 179.96944800287815 124.0295917033263 190.30556804994632 # Ar
115 115 1 0.0 95.88148218464596 68.79438306311376 209.59440401816283 # Ar
116 116 1 0.0 64.96842853343091 7.715934494369053 79.8847825626227 # Ar
117 117 1 0.0 245.557472862384 101.50880655141789 109.30015320458084 # Ar
118 118 1 0.0 141.91710583983715 393.50207525466055 70.705936433514 # Ar
119 119 1 0.0 109.39559206268544 313.4821880514873 51.590340150266584 # Ar
120 120 1 0.0 46.97050492092639 1.4172228053140934 38.97568504683172 # Ar
121 121 1 0.0 290.91979977658076 108.64611830459718 221.33274313222032 # Ar
122 122 1 0.0 412.7193579967629 308.4884910031448 112.12810174865454 # Ar
123 123 1 0.0 66.41555628578621 106.9148744265182 356.6337010528015 # Ar
124 124 1 0.0 112.57260632777988 73.33355205197188 367.8495746801233 # Ar
125 125 1 0.0 215.10638447307687 0.4398673132391606 204.87010541772804 # Ar
126 126 1 0.0 63.952755005646324 157.63272767174035 235.100379214694 # Ar
127 127 1 0.0 403.900714394341 126.67207729902098 367.5778763888736 # Ar
128 128 1 0.0 180.74241546977908 139.57037150289304 131.66062253645893 # Ar
129 129 1 0.0 100.03379452455793 397.3624242508777 129.68620447363304 # Ar
130 130 1 0.0 216.22968534466784 284.74828272144805 54.918444954989 # Ar
131 131 1 0.0 390.9973360678263 8.368737958596133 79.5431593325919 # Ar
132 132 2 0.0 283.6578327668292 92.3268703758796 47.0108594749089 # Ar+
133 133 2 0.0 308.83293116124815 371.85221013590376 23.31270503160081 # Ar+
134 134 2 0.0 245.54865123687685 24.13097856297399 72.92058529022489 # Ar+
135 135 2 0.0 74.6060599156282 232.58471289653113 136.6439676693102 # Ar+
136 136 2 0.0 287.3976442803146 252.1542843220347 135.71046461485477 # Ar+
137 137 2 0.0 1.8606024701786468 164.84389197009364 385.00702918419546 # Ar+
138 138 2 0.0 118.64722487097364 308.3169097539196 398.8998619707649 # Ar+
139 139 2 0.0 94.11167370975913 72.30915372320688 209.59497364379956 # Ar+
140 140 2 0.0 72.01476100776631 396.66745445792355 383.7599700571584 # Ar+
141 141 2 0.0 263.13428827031163 80.57205079260883 398.07674457376277 # Ar+
142 142 2 0.0 90.78551512357845 264.6315727986942 340.8963158290274 # Ar+
143 143 2 0.0 329.23611413396964 320.4814547996673 58.0184137777865 # Ar+
144 144 2 0.0 9.960929234652045 313.2016858156741 25.04248235466019 # Ar+
145 145 2 0.0 244.18541872719248 26.204580350067374 331.09143446347673 # Ar+
146 146 2 0.0 190.4021295995667 45.550575055632656 205.81503954517348 # Ar+
147 147 2 0.0 159.86331184838355 6.262792109833672 376.97332951088333 # Ar+
148 148 2 0.0 135.5398335304469 182.0874110357642 249.63198373138775 # Ar+
149 149 2 0.0 141.43119651483843 186.31002635882152 185.72214770500565 # Ar+
150 150 2 0.0 219.00684944485502 256.60422523542184 33.51635440461383 # Ar+
