LAMMPS data file -- atom_style full -- generated by chemfiles
2000 atoms
0 bonds
0 angles
0 dihedrals
0 impropers
1 atom types
0 bond types
0 angle types
0 dihedral types
0 improper types
0.00000000 589.050655 xlo xhi
0.00000000 589.050655 ylo yhi
0.00000000 589.050655 zlo zhi

# Pair Coeffs
# 1 Ar

Masses

1 39.948 # Ar

Atoms # full

1 1 1 0.0 469.53098922279537 504.28307675128553 224.40908329572233 # Ar
2 2 1 0.0 279.2212791379433 75.32523003144453 31.78006654668604 # Ar
3 3 1 0.0 243.41055345166643 152.05203480677096 284.6338141314826 # Ar
4 4 1 0.0 121.66809173740778 415.1961760292304 122.73895846900467 # Ar
5 5 1 0.0 493.9267150004546 274.64242621347734 317.1267404575939 # Ar
6 6 1 0.0 411.8997698937669 99.07887811031242 316.4347829431659 # Ar
7 7 1 0.0 584.1994735114232 137.96952257630676 491.756255569137 # Ar
8 8 1 0.0 74.834897128431 242.420845995548 41.35005049863646 # Ar
9 9 1 0.0 283.41973942314746 310.20430190380137 471.06982502294926 # Ar
10 10 1 0.0 218.76202478428445 157.4430286442265 263.3934296305785 # Ar
11 11 1 0.0 509.5437807950775 359.6120969432563 53.013430074254416 # Ar
12 12 1 0.0 295.07939898078314 30.00351750075665 74.41329129730487 # Ar
13 13 1 0.0 166.6405019570862 443.4008173534504 429.57821426415103 # Ar
14 14 1 0.0 195.67907184071063 291.7617564217072 187.06730133094726 # Ar
15 15 1 0.0 496.2262436762439 349.1836255323203 317.6880705778986 # Ar
16 16 1 0.0 150.64217418929022 260.59156362045553 516.0848579387791 # Ar
17 17 1 0.0 427.33574854837036 366.45669602233806 547.7555915251027 # Ar
18 18 1 0.0 147.99374223477525 215.48666085984834 313.927366215243 # Ar
19 19 1 0.0 534.0851343216793 110.05172972537913 117.9500476765903 # Ar
20 20 1 0.0 536.0837802537361 438.0769104693802 9.653063508429165 # Ar
21 21 1 0.0 122.0592028814745 286.07420081383094 441.57660755172697 # Ar
22 22 1 0.0 314.6039062685456 131.22022693311013 350.8728073974037 # Ar
23 23 1 0.0 216.2410245986699 446.1180108682738 285.3793381237055 # Ar
24 24 1 0.0 30.348769510082604 489.364913274398 190.20477675901446 # Ar
25 25 1 0.0 379.0592000209502 494.2222138930159 581.6148820255096 # Ar
26 26 1 0.0 437.40713434404336 487.5597813560663 273.8386740895481 # Ar
27 27 1 0.0 205.04809290025065 124.43247632345961 133.43828473893922 # Ar
28 28 1 0.0 472.404543025172 44.58977267210215 493.5490004777327 # Ar
29 29 1 0.0 460.79861372861325 264.8855876126099 493.49464638951093 # Ar
30 30 1 0.0 100.26214050280572 219.82766369623423 576.9197863319354 # Ar
31 31 1 0.0 433.20812123467596 480.10935315896984 462.74981880952737 # Ar
32 32 1 0.0 114.13148218671768 418.56930131149517 395.09505420827475 # Ar
33 33 1 0.0 332.5429628120455 575.3511663711704 118.0668837053777 # Ar
34 34 1 0.0 562.3644475795461 327.03511993237544 482.5567306802639 # Ar
35 35 1 0.0 273.4606596425814 117.13683624525555 30.518456388773746 # Ar
36 36 1 0.0 46.835736771511094 546.2980996694089 414.901563340437 # Ar
37 37 1 0.0 468.97745034654906 494.4898448889609 397.7871682437458 # Ar
38 38 1 0.0 564.8591541692393 363.3088642425478 238.99684986114966 # Ar
39 39 1 0.0 112.07894604379284 431.6736029624375 82.5389634704429 # Ar
40 40 1 0.0 582.4741310724436 261.6543755743199 221.38673818370984 # Ar
41 41 1 0.0 421.8154203437552 412.20927095238267 156.53236920079343 # Ar
42 42 1 0.0 183.860286754004 489.52716802320793 148.73937369384154 # Ar
43 43 1 0.0 59.88014028419937 488.3209361674037 509.4978531452157 # Ar
44 44 1 0.0 445.04087568007674 198.67284312034263 56.99694478420458 # Ar
45 45 1 0.0 401.5663765059079 461.735000365001 139.81733907502962 # Ar
46 46 1 0.0 187.70990583960196 405.10849690039686 60.46451934857919 # Ar
47 47 1 0.0 66.87384189032184 382.38646919335866 242.92081795552664 # Ar
48 48 1 0.0 502.00807212652023 565.8497746887418 564.3557172664523 # Ar
49 49 1 0.0 290.3903867902134 115.17538165892667 251.12506904806628 # Ar
50 50 1 0.0 65.49561282001815 22.337419351763636 137.86909735471812 # Ar
51 51 1 0.0 124.6897041416521 464.2406897821486 29.407109271512656 # Ar
52 52 1 0.0 364.53769194765704 105.41829141359266 102.35356839229247 # Ar
53 53 1 0.0 310.6473699740953 243.24475279686456 404.41308083277914 # Ar
54 54 1 0.0 1.7466199239061704 411.4067043529096 511.4295847321049 # Ar
55 55 1 0.0 201.46052127816156 493.912722211544 403.31573543270895 # Ar
56 56 1 0.0 91.28974133984485 552.5624105859514 211.34503525563676 # Ar
57 57 1 0.0 331.0834140971261 33.00545863523839 354.99619095951397 # Ar
58 58 1 0.0 411.654342918852 142.25847198720277 506.41812170832424 # Ar
59 59 1 0.0 228.54466109546982 49.4945149427603 288.2212022860889 # Ar
60 60 1 0.0 568.7524972352253 520.2068826706039 343.4406700664259 # Ar
61 61 1 0.0 536.2909343932001 178.2578398308463 113.08823499106518 # Ar
62 62 1 0.0 581.1758765055748 565.4578222668578 35.82632006288921 # Ar
63 63 1 0.0 157.22263843015625 473.5948087600663 140.2742577571411 # Ar
64 64 1 0.0 280.46349903201684 17.61293910056045 537.0451858066907 # Ar
65 65 1 0.0 422.63620279181146 494.94773394482564 220.97778988296355 # Ar
66 66 1 0.0 156.0629654890406 413.6758426105755 65.04454221141285 # Ar
67 67 1 0.0 96.04680291791146 170.20864348360786 288.875699750948 # Ar
68 68 1 0.0 519.018573085698 263.3642425211741 396.1820584463376 # Ar
69 69 1 0.0 247.7555729431136 586.3675894644924 149.91088932211989 # Ar
70 70 1 0.0 124.98140822977496 471.6660671494767 109.99790683574794 # Ar
71 71 1 0.0 588.1503084340841 248.31452567320827 466.8537315939107 # Ar
72 72 1 0.0 562.5893052942713 449.07362745153864 340.1168716701752 # Ar
73 73 1 0.0 128.8870229355275 77.65568886051834 347.05456790549965 # Ar
74 74 1 0.0 433.4575345052191 250.62073677908361 487.43772521991315 # Ar
75 75 1 0.0 485.1771391698995 176.87338882496184 155.99521824420174 # Ar
76 76 1 0.0 236.84690855387316 241.30610988045225 163.04351294708894 # Ar
77 77 1 0.0 538.366747833481 207.95415621116797 279.44354651393684 # Ar
78 78 1 0.0 585.6691074675936 557.8235534381624 505.7248806972632 # Ar
79 79 1 0.0 121.18112151001382 58.630309444496824 315.6306261084843 # Ar
80 80 1 0.0 65.00726699170261 537.248140206148 293.34015260996955 # Ar
81 81 1 0.0 300.545895369552 441.9237006660382 458.68302157371323 # Ar
82 82 1 0.0 203.8412188460899 339.2199312063613 573.4929774168911 # Ar
83 83 1 0.0 193.4790774621487 354.0381586246913 168.57965576327433 # Ar
84 84 1 0.0 381.74227036626206 162.1859411339124 273.9573655136713 # Ar
85 85 1 0.0 215.82507091341765 470.33309805794397 382.57752676505964 # Ar
86 86 1 0.0 283.81416481394166 275.56178783025683 242.92312911004956 # Ar
87 87 1 0.0 375.415059295414 546.9118802199743 195.55083024554838 # Ar
88 88 1 0.0 374.980986734904 90.20122456366151 559.1538989772596 # Ar
89 89 1 0.0 183.8372844947587 63.989410076235956 441.4226380358944 # Ar
90 90 1 0.0 262.20022480521624 462.93311174277426 575.7270771753783 # Ar
91 91 1 0.0 298.61359819531486 425.4578462118325 407.0577224898911 # Ar
92 92 1 0.0 410.75435657151075 554.7187672575296 95.97498801328297 # Ar
93 93 1 0.0 335.8267687601964 534.4390704388338 434.5131161376211 # Ar
94 94 1 0.0 65.84153351599008 467.2295993250626 134.35472114133918 # Ar
95 95 1 0.0 487.08466093942985 14.559464053128181 519.5023161316354 # Ar
96 96 1 0.0 264.6290763417255 147.3421609120312 383.81698553008437 # Ar
97 97 1 0.0 387.6447864656816 391.6252104246971 167.3610135988306 # Ar
98 98 1 0.0 179.671284176888 182.79069755730612 111.49966697788021 # Ar
99 99 1 0.0 78.79315397116592 490.35890659409 245.96260310873208 # Ar
100 100 1 0.0 255.22287537630237 10.712605903839565 340.73220664676893 # Ar
101 101 1 0.0 120.85837752692571 241.08247170184953 510.471935751019 # Ar
102 102 1 0.0 30.264052981286422 372.1000305681917 72.64358713026824 # Ar
103 103 1 0.0 466.2084776298109 35.58401642794145 306.8086364418691 # Ar
104 104 1 0.0 401.5633314900116 411.14640314249084 13.285201486841501 # Ar
105 105 1 0.0 80.84517209371668 341.7878850686562 290.88221759869543 # Ar
106 106 1 0.0 442.9987918060975 9.189833467183998 425.6767113136261 # Ar
107 107 1 0.0 435.44481007723556 281.7433793362075 359.2131081537066 # Ar
108 108 1 0.0 428.8593226645987 204.37889319048352 493.40253023557426 # Ar
109 109 1 0.0 370.47633799653676 496.9293708030208 110.46865870273234 # Ar
110 110 1 0.0 454.5780809934931 108.63876493168188 263.00179171902283 # Ar
111 111 1 0.0 510.02140046696206 50.078533534528475 372.55672765213563 # Ar
112 112 1 0.0 190.66690318183626 248.07674473783922 195.15821924870784 # Ar
113 113 1 0.0 212.1561789754074 348.45465386647453 51.0228423618568 # Ar
114 114 1 0.0 304.7543679763381 0.8495135964914511 183.47038458056403 # Ar
115 115 1 0.0 516.244141490029 168.5237765228068 524.9170923529629 # Ar
116 116 1 0.0 423.85485351825923 146.2477561242893 275.0648303498564 # Ar
117 117 1 0.0 251.32736637626823 487.09512033074543 359.4192034841281 # Ar
118 118 1 0.0 370.35793261752457 342.80173071814323 379.778314571124 # Ar
119 119 1 0.0 331.19881065005916 23.493379462404466 526.1171647540236 # Ar
120 120 1 0.0 299.48939333694943 223.9233145552786 80.3763865706646 # Ar
121 121 1 0.0 380.899066558586 45.23399350684157 213.23295945660797 # Ar
122 122 1 0.0 316.7500773250008 426.2019084187662 540.0862933075422 # Ar
123 123 1 0.0 147.80892377658589 559.2184319610653 344.5845975444532 # Ar
124 124 1 0.0 258.61839558002157 287.2605095761187 454.1486123820299 # Ar
125 125 1 0.0 233.33708349725558 435.2399006843542 404.1032773795063 # Ar
126 126 1 0.0 302.8207957543044 377.1487001337079 145.96426575108683 # Ar
127 127 1 0.0 558.0186630013403 267.2143393586072 410.17141278730685 # Ar
128 128 1 0.0 313.07186254149644 407.90548995573585 361.93391160449886 # Ar
129 129 1 0.0 474.6055100937639 220.8032632815166 138.92522203431025 # Ar
130 130 1 0.0 316.05758145076584 533.4435366000745 167.60419161199235 # Ar
131 131 1 0.0 449.7570079922529 227.08415276487182 334.78078722956786 # Ar
132 132 1 0.0 326.14423112541857 157.6765185336926 351.3928800704652 # Ar
133 133 1 0.0 584.1711072593239 10.152549381376568 399.6865475294464 # Ar
134 134 1 0.0 80.64608682862351 150.07115599920814 0.9121796904959789 # Ar
135 135 1 0.0 244.38536052784926 508.3809500037977 531.8922601915737 # Ar
136 136 1 0.0 479.4655994186106 408.9706190568219 97.84844535410016 # Ar
137 137 1 0.0 560.5984400102597 451.76195961340284 415.14967921280834 # Ar
138 138 1 0.0 153.67046353056543 539.2108648355484 241.32496958003108 # Ar
139 139 1 0.0 475.837719884327 390.4555355685132 111.36060751109113 # Ar
140 140 1 0.0 313.9072648075429 554.4570228476218 511.1786048564955 # Ar
141 141 1 0.0 250.4689872448986 411.4125604057221 409.534358823734 # Ar
142 142 1 0.0 231.6150425952344 49.45367516859516 48.221596336769935 # Ar
143 143 1 0.0 77.44722829498001 113.69108420423295 538.5258872804727 # Ar
144 144 1 0.0 274.5727989433858 508.4782257832709 242.63772238774115 # Ar
145 145 1 0.0 503.4953433143447 247.25216891146434 382.49507145678444 # Ar
146 146 1 0.0 175.38280120390056 308.4235738137468 8.512415697144236 # Ar
147 147 1 0.0 491.4766506061906 145.96870574413106 440.0947899501206 # Ar
148 148 1 0.0 512.2094859812405 240.4283998909153 472.8363225525462 # Ar
149 149 1 0.0 194.84388777183526 7.953007472999065 342.48975799877115 # Ar
150 150 1 0.0 86.30160044091446 329.2865365348543 384.19771289498027 # Ar
151 151 1 0.0 19.900326227677585 21.595896308316828 464.5024504133208 # Ar
152 152 1 0.0 66.67453183302707 82.84690719238117 521.358624205318 # Ar
153 153 1 0.0 503.84550327439297 21.094465392791232 454.48666199702416 # Ar
154 154 1 0.0 241.49250166663515 492.0836613836821 372.1183178074007 # Ar
155 155 1 0.0 357.3232629407306 88.05329859912887 351.2591235068511 # Ar
156 156 1 0.0 268.1791655793325 147.4175503460059 56.65920859383904 # Ar
157 157 1 0.0 329.3937107664964 310.9663485351527 302.62725522161395 # Ar
158 158 1 0.0 378.402736368979 127.71791244940998 314.89151007673996 # Ar
159 159 1 0.0 426.6334803605266 499.30830657006544 280.6966563614105 # Ar
160 160 1 0.0 216.15813974287823 527.1554086437753 549.4323350990712 # Ar
161 161 1 0.0 534.9316320262627 351.51236570883276 94.29592814840677 # Ar
162 162 1 0.0 296.09305026962693 311.85876635814674 27.044605355585052 # Ar
163 163 1 0.0 6.816682332708956 93.42922213651352 559.6687490734871 # Ar
164 164 1 0.0 547.9552231077328 505.28120651613455 277.49771474395664 # Ar
165 165 1 0.0 262.72319105681646 199.13111038170894 362.36556932751984 # Ar
166 166 1 0.0 339.04204090650205 582.8587022434474 549.2649797342036 # Ar
167 167 1 0.0 93.14116881922182 277.4704007418956 333.01317007897865 # Ar
168 168 1 0.0 517.9650083435268 152.27235632347512 30.47343876349716 # Ar
169 169 1 0.0 367.74668908999735 277.8700798259264 200.07462626493256 # Ar
170 170 1 0.0 51.61874577664477 85.74183071171849 252.7654787688377 # Ar
171 171 1 0.0 26.79771746698209 517.0086501392706 427.32772304641225 # Ar
172 172 1 0.0 13.40204575185399 217.87740199872812 8.892253385830475 # Ar
173 173 1 0.0 54.26723584494655 40.95540897645756 459.32133793694146 # Ar
174 174 1 0.0 435.5230503647319 530.3072716721825 313.049927895292 # Ar
175 175 1 0.0 425.5693773768452 493.42270526801923 452.9859923413553 # Ar
176 176 1 0.0 109.47150330558604 352.8724630160688 325.8356181119492 # Ar
177 177 1 0.0 334.0679129730753 323.3055337853013 6.514642420280394 # Ar
178 178 1 0.0 52.326275993699916 9.407360622515109 521.6704895129917 # Ar
179 179 1 0.0 264.121572097309 176.69807727918837 188.75718588267148 # Ar
180 180 1 0.0 124.03138833894621 162.42247482428618 537.3232132026405 # Ar
181 181 1 0.0 409.7251592000467 100.79775526367024 299.1506106558003 # Ar
182 182 1 0.0 252.00776986254866 108.7569869706885 117.5978240329681 # Ar
183 183 1 0.0 20.156064105998855 520.4292478298762 566.0818762643744 # Ar
184 184 1 0.0 172.94154795538049 319.4150706023249 206.43719526774743 # Ar
185 185 1 0.0 433.5252637068863 365.9764376997973 511.8120302305751 # Ar
186 186 1 0.0 228.26563979894186 77.90564546077184 140.44024823980246 # Ar
187 187 1 0.0 181.25434333300853 239.8658781277471 171.20083396137775 # Ar
188 188 1 0.0 455.33654160230805 106.549730522866 296.48214960329847 # Ar
189 189 1 0.0 42.4743577036183 361.82746716472445 217.94115523814494 # Ar
190 190 1 0.0 343.0067612320086 550.7696605024147 57.952042472763104 # Ar
191 191 1 0.0 350.4796090254956 523.0502335826934 247.81690568412566 # Ar
192 192 1 0.0 209.85761969567852 176.26794079582203 292.1784272420338 # Ar
193 193 1 0.0 312.38552604831125 419.0796120053127 258.39691195052467 # Ar
194 194 1 0.0 449.42867085115967 503.8871648290902 390.04275268903444 # Ar
195 195 1 0.0 284.71247907990363 258.75339649049283 317.06734205738854 # Ar
196 196 1 0.0 350.9119646888194 174.52072834631483 334.3878689104807 # Ar
197 197 1 0.0 50.76054179238962 102.81424183314128 451.3338100897906 # Ar
198 198 1 0.0 559.4518554029756 66.16018042158102 269.11890242943906 # Ar
199 199 1 0.0 357.98849549799144 111.52873715276053 364.83651286432735 # Ar
200 200 1 0.0 85.06288577063837 33.19793367735917 527.0343682223447 # Ar
201 201 1 0.0 408.3096349813448 337.82066920353395 240.4780465784127 # Ar
202 202 1 0.0 221.82779116204105 257.56770919713284 279.58122591441014 # Ar
203 203 1 0.0 526.1687145155032 339.9668032877242 329.3960505344899 # Ar
204 204 1 0.0 60.05852846591181 105.15886944007867 395.7713616350603 # Ar
205 205 1 0.0 369.3775901405086 93.74848288265488 258.13211573039814 # Ar
206 206 1 0.0 455.4259577710869 565.4633369492543 308.716581739167 # Ar
207 207 1 0.0 7.085850377200002 156.06946435246675 228.4239353925563 # Ar
208 208 1 0.0 237.45662351678936 14.54151641218944 187.50121925468054 # Ar
209 209 1 0.0 458.81347829984935 16.098291969982665 458.14293397409637 # Ar
210 210 1 0.0 417.1791821683368 187.0474517198632 185.09856774341245 # Ar
211 211 1 0.0 244.1212342987008 242.271940462512 280.2955584808826 # Ar
212 212 1 0.0 519.2131920487653 310.17213989615675 369.08471934397375 # Ar
213 213 1 0.0 540.6950661941027 406.2251154140827 568.851736991774 # Ar
214 214 1 0.0 482.03163121164965 254.60180407112 440.3255600380528 # Ar
215 215 1 0.0 68.84810316499743 584.9210587711874 237.04095601127906 # Ar
216 216 1 0.0 268.751981802516 114.99811293812598 349.62819442907886 # Ar
217 217 1 0.0 145.5246899069785 299.5739553642081 451.3432204603204 # Ar
218 218 1 0.0 146.11554523131943 178.00611804727723 128.0604930774706 # Ar
219 219 1 0.0 54.41571971269973 308.87062260062885 486.0770677660114 # Ar
220 220 1 0.0 167.92614406970785 574.1586372812313 210.81232490303225 # Ar
221 221 1 0.0 339.46539023253115 297.41329230333946 149.5949056478628 # Ar
222 222 1 0.0 4.002952409940088 512.3081243559443 547.9213304288273 # Ar
223 223 1 0.0 307.59101615580414 118.13123697526304 580.1257213577939 # Ar
224 224 1 0.0 23.643086183365817 59.86560267437562 101.30990531644606 # Ar
225 225 1 0.0 430.6610591471197 476.8467984302457 356.33725834680723 # Ar
226 226 1 0.0 41.76152421298825 562.567762316825 57.968840117625994 # Ar
227 227 1 0.0 60.395206297819584 188.60756355655474 478.0458325798461 # Ar
228 228 1 0.0 91.45494407763813 421.0066067047839 177.00771536514736 # Ar
229 229 1 0.0 122.37949258948697 207.77781975426387 48.067077516315486 # Ar
230 230 1 0.0 347.25366747208665 578.2269824276949 44.79735367900727 # Ar
231 231 1 0.0 570.4812568017892 467.0519548672009 231.83179911809373 # Ar
232 232 1 0.0 176.6531923523807 222.41860016458006 570.4045597370308 # Ar
233 233 1 0.0 164.89863753228914 351.8476318052369 476.5254625218374 # Ar
234 234 1 0.0 560.6671843279631 510.0058453074227 547.1310946295125 # Ar
235 235 1 0.0 469.2438862044994 40.16440340545203 535.2089527112443 # Ar
236 236 1 0.0 405.8134569094021 302.5056095875101 511.6320725422094 # Ar
237 237 1 0.0 136.87058270504178 230.4589794460887 123.54898558068402 # Ar
238 238 1 0.0 120.82674181423448 208.75267232145094 21.25645402783944 # Ar
239 239 1 0.0 38.27050984432879 300.7975714353498 346.39574294324757 # Ar
240 240 1 0.0 182.18028869097657 182.48751378753707 41.48658520523102 # Ar
241 241 1 0.0 270.60611929720545 361.8860004473675 266.75938475242026 # Ar
242 242 1 0.0 377.032337552195 326.90737993783256 355.3184901543354 # Ar
243 243 1 0.0 472.9737805508181 253.53632334543562 484.256067131432 # Ar
244 244 1 0.0 166.54508767405946 259.90580826152393 305.75294803584677 # Ar
245 245 1 0.0 458.6439136513781 130.28416542470532 178.09288728142593 # Ar
246 246 1 0.0 454.8744726206534 490.2798720132265 317.15482664268137 # Ar
247 247 1 0.0 137.9176074357637 348.84983979943246 153.07809095804512 # Ar
248 248 1 0.0 484.6272416995468 536.3312914332815 544.9954453557078 # Ar
249 249 1 0.0 515.2096827357457 577.0352414736143 285.69147476119014 # Ar
250 250 1 0.0 519.3986594921705 501.06952661627207 424.6879931014023 # Ar
251 251 1 0.0 576.7971921687316 95.34642029297629 158.78785913636818 # Ar
252 252 1 0.0 496.7754619507363 586.9491977940643 52.32105835312357 # Ar
253 253 1 0.0 259.4021832376475 470.19821757869704 265.0856271195673 # Ar
254 254 1 0.0 471.9212577379322 507.67336386288343 330.6257122371103 # Ar
255 255 1 0.0 533.6115680589193 150.11792918701332 374.88240329630855 # Ar
256 256 1 0.0 421.9959681013205 301.8582344518958 413.4185634291702 # Ar
257 257 1 0.0 573.7421908277801 435.8247249303931 511.81117931557424 # Ar
258 258 1 0.0 374.48287278813683 89.80699511196931 313.17204263559177 # Ar
259 259 1 0.0 216.2763985340924 66.15200745550602 275.73055988681614 # Ar
260 260 1 0.0 329.98867686915634 267.976428863818 58.45232484409433 # Ar
261 261 1 0.0 502.9397991379654 300.01552165580404 547.4116278891211 # Ar
262 262 1 0.0 218.56050362883886 405.79509227712987 577.3594476618954 # Ar
263 263 1 0.0 28.68222665792554 32.36570483245223 135.87301914578237 # Ar
264 264 1 0.0 269.80707154980024 424.2430498782373 536.4400273421023 # Ar
265 265 1 0.0 101.75220448554964 543.2417141456397 269.2489957185283 # Ar
266 266 1 0.0 201.56802525454611 563.0794303925436 107.30485930821924 # Ar
267 267 1 0.0 189.76947760579466 20.503361307179176 171.71531922627773 # Ar
268 268 1 0.0 318.9734008769426 350.5086343449856 570.0259451385681 # Ar
269 269 1 0.0 83.23959716599808 362.1515335259292 24.987524945726676 # Ar
270 270 1 0.0 572.7481039335433 240.30545404433607 44.6112059922068 # Ar
271 271 1 0.0 30.337279570595662 123.19551319912021 396.5374331328231 # Ar
272 272 1 0.0 461.61759049120985 118.23399955069503 441.0383418322649 # Ar
273 273 1 0.0 197.82170595858366 542.4561082797883 401.09358461981464 # Ar
274 274 1 0.0 16.22620481683249 568.2456083843323 381.5702092368918 # Ar
275 275 1 0.0 525.6549242144453 463.2746525906319 231.10234569974838 # Ar
276 276 1 0.0 235.62868137952444 474.94412340764404 368.05680434614 # Ar
277 277 1 0.0 326.7071275241398 558.218974177496 516.745485855793 # Ar
278 278 1 0.0 533.3716110240034 288.0923923213721 420.10427055505625 # Ar
279 279 1 0.0 122.8658511203782 168.30234575216704 507.9722158263702 # Ar
280 280 1 0.0 584.077562294687 44.466314692755155 241.9563606833433 # Ar
281 281 1 0.0 480.77807135402605 292.47705720036345 335.0739851158663 # Ar
282 282 1 0.0 564.1186828153578 122.95568710617367 469.7787789319011 # Ar
283 283 1 0.0 368.88813297558124 305.22198042005755 283.7956958332063 # Ar
284 284 1 0.0 38.93156692481446 445.7951653218452 210.67775146540703 # Ar
285 285 1 0.0 261.373200543121 196.74015124910193 68.78228891798673 # Ar
286 286 1 0.0 363.35783351763774 160.42390013480397 484.79711959165905 # Ar
287 287 1 0.0 525.118180589072 103.13601252160177 452.2748959657291 # Ar
288 288 1 0.0 516.5604626184213 535.9261799493365 250.79127015031256 # Ar
289 289 1 0.0 99.77219238000653 22.73703552681115 151.2144927775969 # Ar
290 290 1 0.0 77.06102261064116 430.98879508011146 345.00409545862516 # Ar
291 291 1 0.0 368.566318198149 199.37861331511328 540.1881666352014 # Ar
292 292 1 0.0 415.47202071414836 441.1288138468649 154.51575192224595 # Ar
293 293 1 0.0 233.5328369353705 434.6379677256399 394.5283487479443 # Ar
294 294 1 0.0 555.3071589879416 146.20416074290267 152.39965469386243 # Ar
295 295 1 0.0 44.66083729119971 67.10633426411789 508.3660819385572 # Ar
296 296 1 0.0 231.38525392776904 240.19797924026628 264.1462940998263 # Ar
297 297 1 0.0 1.7631260776345121 409.83575969006694 450.55184747299364 # Ar
298 298 1 0.0 409.82111775315934 153.38602161286994 582.9082922027765 # Ar
299 299 1 0.0 307.8683724067003 468.01557195508497 326.05827347361105 # Ar
300 300 1 0.0 76.54466873990388 173.01479410807752 323.67905429704905 # Ar
301 301 1 0.0 67.91197217864799 202.7833369011679 234.21782947160358 # Ar
302 302 1 0.0 515.1783304621808 258.4581825560948 215.90177289393603 # Ar
303 303 1 0.0 98.97137432907812 300.86559615824484 251.89165641339181 # Ar
304 304 1 0.0 191.82379118518358 354.84869591114386 204.06626612436196 # Ar
305 305 1 0.0 437.62911772423166 204.3972355588083 12.77432978971171 # Ar
306 306 1 0.0 127.58778243714158 273.0642769293017 558.4377544921006 # Ar
307 307 1 0.0 256.2250933466399 6.4778803149084565 111.15024303376966 # Ar
308 308 1 0.0 549.5732290175439 206.4831476423572 132.02984232681945 # Ar
309 309 1 0.0 59.43384228107458 512.8118184790313 516.2834770407677 # Ar
310 310 1 0.0 199.99572574242833 108.51924584410716 227.4635348901677 # Ar
311 311 1 0.0 554.7480268155102 334.5799050903116 304.95791751991914 # Ar
312 312 1 0.0 110.4368632649938 273.0328688360151 585.6967359651799 # Ar
313 313 1 0.0 72.3480801366355 126.67771497894762 6.650737536369568 # Ar
314 314 1 0.0 83.19184758294573 404.70166603859724 142.75599756146778 # Ar
315 315 1 0.0 0.3717880946420534 476.4897887464404 333.730145326274 # Ar
316 316 1 0.0 315.26440706454406 191.31097747950952 120.2491352176661 # Ar
317 317 1 0.0 183.92401417632172 337.3643113286854 405.4621874603163 # Ar
318 318 1 0.0 114.42845732246865 301.4404071025061 456.16379728177606 # Ar
319 319 1 0.0 558.8407200409274 172.47485265819859 343.3798906915201 # Ar
320 320 1 0.0 30.193795679362754 159.16483011822027 312.8025095704268 # Ar
321 321 1 0.0 568.1454690723599 581.9777680205515 25.223649570340008 # Ar
322 322 1 0.0 567.3485635723633 386.0881055982665 458.45213820277036 # Ar
323 323 1 0.0 182.7622774614644 408.3098789863471 340.88452891029243 # Ar
324 324 1 0.0 252.6058929329894 166.25782290428066 258.95195009335237 # Ar
325 325 1 0.0 439.26307883726025 356.20637164322596 499.56700942731504 # Ar
326 326 1 0.0 265.7100506706514 397.0128346535345 290.312919690812 # Ar
327 327 1 0.0 577.9673152874034 10.307826649828044 257.0361711789335 # Ar
328 328 1 0.0 54.33367295653205 292.72841891753495 292.47129420489836 # Ar
329 329 1 0.0 257.63403840802124 243.18055311001385 289.87009235356743 # Ar
330 330 1 0.0 297.2088370847563 292.24314032222725 515.1133623324918 # Ar
331 331 1 0.0 324.66454838461493 543.7614066509673 508.3133812123269 # Ar
332 332 1 0.0 564.2987231708047 552.6069983576663 264.5104962383203 # Ar
333 333 1 0.0 476.8734396955933 165.10617771704483 538.4378589577537 # Ar
334 334 1 0.0 106.84210444056075 469.7656129311905 30.830585139368296 # Ar
335 335 1 0.0 121.25803079809428 482.73171992435016 44.29336477854 # Ar
336 336 1 0.0 388.26376492041015 447.76906757769035 217.07154896449865 # Ar
337 337 1 0.0 159.1296934976594 43.48611656485804 559.5527295637678 # Ar
338 338 1 0.0 314.016921884975 238.94611663245075 41.798939918684404 # Ar
339 339 1 0.0 490.2787533179556 328.5935717626953 411.62089397352645 # Ar
340 340 1 0.0 125.59518328618238 256.5877357104671 155.3045688381101 # Ar
341 341 1 0.0 192.8100535100557 23.685567635869564 527.3525205449234 # Ar
342 342 1 0.0 110.64140823155648 26.55331889449673 326.3608327223338 # Ar
343 343 1 0.0 174.9427297854848 560.0777633371413 131.84363960368566 # Ar
344 344 1 0.0 77.57768620923991 568.6970767646948 455.24186821838464 # Ar
345 345 1 0.0 227.46335633806945 414.647573972539 466.07650744435966 # Ar
346 346 1 0.0 571.7743922503469 58.47776836175418 270.8950660024809 # Ar
347 347 1 0.0 372.1278683066732 116.74373519624837 522.6115298206707 # Ar
348 348 1 0.0 274.26837892684665 521.1044854917455 124.92257682731895 # Ar
349 349 1 0.0 241.56249882245146 283.43967846015664 450.05719522308436 # Ar
350 350 1 0.0 164.22728858343478 475.55431137640437 98.01715313980196 # Ar
351 351 1 0.0 336.97387343745925 349.79868844835056 92.13160686263372 # Ar
352 352 1 0.0 274.86399355794043 258.75991405996444 341.51075006951504 # Ar
353 353 1 0.0 532.8067977354881 244.17088943406722 340.9686933007065 # Ar
354 354 1 0.0 30.158088019799358 11.495648258957184 585.8383830802508 # Ar
355 355 1 0.0 272.1182077918162 297.14776003545336 407.61741071447346 # Ar
356 356 1 0.0 267.5783341647924 160.765439336485 540.489686945683 # Ar
357 357 1 0.0 38.913866396732885 176.89879196085727 416.06628437308666 # Ar
358 358 1 0.0 237.8964532165561 96.92144643610193 502.8438624263742 # Ar
359 359 1 0.0 449.957594372189 22.940883712707674 10.960481146618228 # Ar
360 360 1 0.0 299.76426578168787 186.9602381111819 141.5151093307016 # Ar
361 361 1 0.0 312.4273430124767 540.5285362953558 462.94526062209366 # Ar
362 362 1 0.0 447.1990888585312 52.968233079795525 171.19175917810767 # Ar
363 363 1 0.0 561.9363231978284 34.12170099822386 96.55749134582541 # Ar
364 364 1 0.0 115.03480951903778 320.93152891846614 252.69925723736637 # Ar
365 365 1 0.0 461.1962514790522 250.0285414397335 565.7804536979248 # Ar
366 366 1 0.0 131.98997119696142 51.46512384350041 567.6511613114499 # Ar
367 367 1 0.0 577.1393146350727 457.32992034822036 399.29145869659624 # Ar
368 368 1 0.0 105.60178615369381 251.78982733095825 477.12849564488636 # Ar
369 369 1 0.0 107.40433302600684 460.2236345119388 581.3053438439091 # Ar
370 370 1 0.0 303.04173434101267 29.150627485615704 185.8896731077219 # Ar
371 371 1 0.0 2.401879464158957 68.68938646654988 587.4296877273835 # Ar
372 372 1 0.0 10.604996896125543 380.1050737201035 73.09724476996021 # Ar
373 373 1 0.0 510.88157073518306 579.8457333506635 287.33695322593553 # Ar
374 374 1 0.0 281.3648466524325 481.9988251257382 210.03058389447335 # Ar
375 375 1 0.0 532.390645376127 28.05132640734337 57.94364995417755 # Ar
376 376 1 0.0 66.11306961552756 163.22946348683067 484.6302471186906 # Ar
377 377 1 0.0 361.4677435046075 20.57963965572272 381.018918741405 # Ar
378 378 1 0.0 569.5971648291412 318.51967192926924 279.3023670860033 # Ar
379 379 1 0.0 489.5044147699372 92.615547629728 457.82997221389587 # Ar
380 380 1 0.0 153.9637919870558 12.585731976130742 310.6697720401785 # Ar
381 381 1 0.0 575.9708149225462 221.6023140910553 586.9362014425311 # Ar
382 382 1 0.0 265.6287312261326 460.089542427955 213.52707498086122 # Ar
383 383 1 0.0 459.23335181734757 542.9538680241373 477.2489989791748 # Ar
384 384 1 0.0 251.30151804189484 18.71700913607113 429.1177788206129 # Ar
385 385 1 0.0 321.78048815106104 403.5254870447673 197.6101003714461 # Ar
386 386 1 0.0 167.5352012368452 576.0810809933088 479.55717780175803 # Ar
387 387 1 0.0 179.9868134658144 124.91731686031348 339.57412027392064 # Ar
388 388 1 0.0 482.1679540094054 497.50783975702 530.6558591902298 # Ar
389 389 1 0.0 460.27212832239576 518.5871149048866 177.57773853743564 # Ar
390 390 1 0.0 404.5456957474294 275.96890933504784 312.41744425152115 # Ar
391 391 1 0.0 212.84243183401446 148.05617696830794 474.3852621312205 # Ar
392 392 1 0.0 353.1872332015024 231.59564356875694 516.2867421222227 # Ar
393 393 1 0.0 359.89149514943716 281.05728834855523 232.53346924703732 # Ar
394 394 1 0.0 444.53787909180016 522.4510042549297 201.89286266163157 # Ar
395 395 1 0.0 421.83428178771 148.58861575976056 90.91882214738533 # Ar
396 396 1 0.0 323.69057340673226 24.51529653800953 353.38689173975723 # Ar
397 397 1 0.0 544.4890160704668 261.1905976777416 127.56869575626446 # Ar
398 398 1 0.0 101.30712879393337 496.33246114786584 232.28495988848658 # Ar
399 399 1 0.0 18.244589350110775 79.90174299955746 551.4870763375287 # Ar
400 400 1 0.0 362.1922559774825 131.74770421047256 504.50316895533433 # Ar
401 401 1 0.0 399.66347615158844 396.0947147261143 308.30135454760426 # Ar
402 402 1 0.0 150.58730425413725 76.80608180623447 101.47296724543321 # Ar
403 403 1 0.0 87.55718239530118 179.38132564097694 158.97450352207932 # Ar
404 404 1 0.0 547.8475788206991 284.0676950207061 152.24522432463016 # Ar
405 405 1 0.0 376.80583668566595 504.7771371479392 414.9308726146197 # Ar
406 406 1 0.0 1.9300087423621026 476.6593500820187 28.941402965591898 # Ar
407 407 1 0.0 386.9178763825513 81.60818416111402 243.5010939980799 # Ar
408 408 1 0.0 429.0029094393094 407.5909967249365 75.90511179773722 # Ar
409 409 1 0.0 472.2660842632896 457.65970835643566 112.54441020500778 # Ar
410 410 1 0.0 280.5920045397829 126.08432454298602 160.89902642360224 # Ar
411 411 1 0.0 86.98823432003806 489.438236282533 25.47743172200794 # Ar
412 412 1 0.0 240.93079120116687 216.34293248651693 387.5603848572017 # Ar
413 413 1 0.0 539.3306457891936 469.2533842161675 272.4852283807502 # Ar
414 414 1 0.0 308.64329043817605 527.2808533015423 299.9696118477214 # Ar
415 415 1 0.0 43.36860656190256 86.17828982752074 121.15777427952155 # Ar
416 416 1 0.0 266.51176148596534 487.7263641447174 272.4772424761658 # Ar
417 417 1 0.0 175.54316573264603 305.58396416775764 46.11083508414973 # Ar
418 418 1 0.0 327.4318924944953 374.87760163543015 567.7907557045122 # Ar
419 419 1 0.0 372.10134025244633 370.2268211680202 346.8972051845644 # Ar
420 420 1 0.0 242.16964387230803 557.7815090007824 258.8658750126661 # Ar
421 421 1 0.0 319.19681900048147 111.09642317960197 195.9816661829867 # Ar
422 422 1 0.0 384.876482417055 448.81301384646576 563.1435243325686 # Ar
423 423 1 0.0 284.0737586622571 235.43090886091477 350.5695366633819 # Ar
424 424 1 0.0 118.82816002797445 220.84659662058232 67.12351512439218 # Ar
425 425 1 0.0 227.16834145848887 90.77111297982329 368.2020875149639 # Ar
426 426 1 0.0 328.4912062766863 163.51923321844666 185.96464273068233 # Ar
427 427 1 0.0 280.755377169721 192.97773301394216 131.21607381098687 # Ar
428 428 1 0.0 104.36887874464225 150.56873631588584 293.84830119666407 # Ar
429 429 1 0.0 82.31297304348051 370.2523590247853 548.1150392918637 # Ar
430 430 1 0.0 93.52783499637462 191.24563835059556 81.98335416845026 # Ar
431 431 1 0.0 128.26463323359616 292.2412194193765 435.9910797455282 # Ar
432 432 1 0.0 295.6734404830886 69.54319161108012 68.76160962548187 # Ar
433 433 1 0.0 487.1123172374168 76.45083071277813 362.39852831514463 # Ar
434 434 1 0.0 208.92424836432005 145.96624307564022 455.0804649634857 # Ar
435 435 1 0.0 511.33294293801873 532.173319490723 86.17172827220286 # Ar
436 436 1 0.0 515.2207976677878 350.43180367497274 312.5476723567378 # Ar
437 437 1 0.0 194.59756136797543 343.49316336749575 200.91463560358068 # Ar
438 438 1 0.0 300.7371561566617 513.1536137625216 544.1308814086781 # Ar
439 439 1 0.0 199.63212313517786 190.60478723073567 116.41349974620096 # Ar
440 440 1 0.0 459.8625640988305 169.2193107993095 477.8830572405455 # Ar
441 441 1 0.0 281.68004462549806 235.56530449159388 360.12102926649584 # Ar
442 442 1 0.0 244.5591565527978 91.25125492353442 63.158360042388274 # Ar
443 443 1 0.0 278.9686279933463 489.8687790273751 176.2636389385534 # Ar
444 444 1 0.0 239.70462309235546 453.4235027828336 370.0148842012997 # Ar
445 445 1 0.0 237.01584480651056 287.2257338728804 457.64759171583324 # Ar
446 446 1 0.0 114.75180070887403 433.3244163306981 399.3942258142965 # Ar
447 447 1 0.0 432.4683813167615 215.28243776104972 133.8555437237829 # Ar
448 448 1 0.0 174.37318621287505 78.48645869582356 481.7702191992712 # Ar
449 449 1 0.0 588.7263761644164 282.073152873018 340.92815487389316 # Ar
450 450 1 0.0 110.69091840920167 474.6111886279492 406.53955271685015 # Ar
451 451 1 0.0 206.83258939375338 31.697479916137688 77.96830465248725 # Ar
452 452 1 0.0 72.17498751670536 322.4539494676908 190.14748769890699 # Ar
453 453 1 0.0 565.0613728498505 275.2069687513566 543.8878456659817 # Ar
454 454 1 0.0 152.6276090884816 133.19287669407416 337.4688632322607 # Ar
455 455 1 0.0 56.978924470569 461.44387945618763 43.271822846997246 # Ar
456 456 1 0.0 396.5198242145944 405.5162197989218 94.54505794769786 # Ar
457 457 1 0.0 96.14061036201073 540.5460328179447 307.18132433905447 # Ar
458 458 1 0.0 484.8745218042717 453.95996902344865 431.04491585284995 # Ar
459 459 1 0.0 194.6954777424622 113.26859808163142 81.74945423674394 # Ar
460 460 1 0.0 379.10483653117205 61.41762472729097 588.0200898451434 # Ar
461 461 1 0.0 29.31963466468875 380.7358667642964 413.53512624173834 # Ar
462 462 1 0.0 58.61384327595238 432.57791946548497 120.6583225375023 # Ar
463 463 1 0.0 518.6498950867741 294.2117342550928 305.07932543854486 # Ar
464 464 1 0.0 295.16638276374107 526.9423121907226 402.35518689959935 # Ar
465 465 1 0.0 86.57346151588447 279.0536069181039 326.8373532621678 # Ar
466 466 1 0.0 476.07478421135363 260.09609921010434 464.3238360761443 # Ar
467 467 1 0.0 296.49647101871346 401.6902765743623 129.63557493394796 # Ar
468 468 1 0.0 158.93097502326924 498.3717221418053 323.13581419616827 # Ar
469 469 1 0.0 353.3361710303242 325.3462901427144 29.945170972839897 # Ar
470 470 1 0.0 250.2459206181193 306.947524378276 577.033979323438 # Ar
471 471 1 0.0 300.75646213732034 287.15922641652907 210.51552544512816 # Ar
472 472 1 0.0 159.08341455704903 448.07482319927084 28.918590205113926 # Ar
473 473 1 0.0 569.0900206564236 372.7734496849645 358.43588506119454 # Ar
474 474 1 0.0 390.5046414319705 572.5540352114655 466.7143772554309 # Ar
475 475 1 0.0 436.3730539475345 147.08114426758877 552.4793090824553 # Ar
476 476 1 0.0 388.58511896626425 422.33121071337337 177.49018292044073 # Ar
477 477 1 0.0 50.82435177513996 1.3062631812660157 382.3670235148792 # Ar
478 478 1 0.0 31.993640376097193 2.890285896695915 398.3563083963707 # Ar
479 479 1 0.0 337.0224490242356 394.2593432622765 110.74790259240068 # Ar
480 480 1 0.0 188.3794964272877 573.5394066320546 441.8449542682354 # Ar
481 481 1 0.0 469.79226631526774 503.8082388010808 43.07567783384856 # Ar
482 482 1 0.0 381.7505989590797 191.13848999566633 589.0023534317752 # Ar
483 483 1 0.0 237.73443342447362 130.43258815126322 43.69985044696536 # Ar
484 484 1 0.0 440.0364998915234 411.7371524010849 114.87450362924355 # Ar
485 485 1 0.0 433.7654285963223 85.88129766687851 477.5625392655676 # Ar
486 486 1 0.0 44.20277984541681 221.4450239789296 246.5002581183051 # Ar
487 487 1 0.0 542.2204252499215 502.9727472921541 520.2026120716384 # Ar
488 488 1 0.0 153.1942464581202 48.92277081384328 364.9943325626573 # Ar
489 489 1 0.0 18.68009324244451 519.7637792826672 581.6642947326412 # Ar
490 490 1 0.0 374.72931948359974 141.64609943506673 397.0869594927236 # Ar
491 491 1 0.0 301.04289346233026 428.6753216986481 353.54323621105897 # Ar
492 492 1 0.0 49.43870169642288 274.5353756288533 189.95889106541944 # Ar
493 493 1 0.0 321.7999854810147 91.00367969523319 199.85470684506393 # Ar
494 494 1 0.0 200.49204852288875 541.0078896963457 447.5636447098467 # Ar
495 495 1 0.0 481.4071639090679 171.4042536699767 189.9784585642879 # Ar
496 496 1 0.0 236.67313063920912 508.22978310973616 446.95754595732143 # Ar
497 497 1 0.0 549.5162981239604 94.8471423518992 105.0849313473892 # Ar
498 498 1 0.0 290.01885914464305 213.81175197316412 368.99842802192956 # Ar
499 499 1 0.0 47.130013073421836 256.3191518102428 216.04873232489484 # Ar
500 500 1 0.0 512.6372375356823 456.3237674329997 316.3688565770859 # Ar
501 501 1 0.0 571.6941282723132 74.93368832686524 303.79071081656303 # Ar
502 502 1 0.0 161.7823262006599 557.9475741646381 458.6939270865797 # Ar
503 503 1 0.0 439.032362490398 396.48385759846764 21.362960580938104 # Ar
504 504 1 0.0 452.0710394824146 143.91002600724195 387.87241384603675 # Ar
505 505 1 0.0 314.973233698527 266.91824644627076 111.33243824234981 # Ar
506 506 1 0.0 72.599371840144 451.782738388273 96.13497376516843 # Ar
507 507 1 0.0 339.5630634300135 185.87338799366523 342.1171419000313 # Ar
508 508 1 0.0 32.99951918623764 395.6013080011256 502.5842177796523 # Ar
509 509 1 0.0 397.27941807617714 438.66524014909123 55.154397061485795 # Ar
510 510 1 0.0 205.05752803930375 453.9603555893724 306.58621586503943 # Ar
511 511 1 0.0 535.1572645951102 300.3104806606603 36.282096861271846 # Ar
512 512 1 0.0 216.68589204194865 188.04909298450397 140.3043436113963 # Ar
513 513 1 0.0 148.49904031013352 257.5002066896948 89.49455145342858 # Ar
514 514 1 0.0 16.120803519293517 546.0295887552508 581.0770012192121 # Ar
515 515 1 0.0 496.9721508202438 330.1854725382793 269.3041189711037 # Ar
516 516 1 0.0 265.7293635293198 263.7674616040526 129.45485062413292 # Ar
517 517 1 0.0 307.7719981009843 372.52862445380316 493.84207644322777 # Ar
518 518 1 0.0 220.1411216362886 160.40556366007263 48.00409207634821 # Ar
519 519 1 0.0 160.02969402493858 259.78143115612016 368.0225737491118 # Ar
520 520 1 0.0 454.37264688890326 509.50811531664976 429.85907785932847 # Ar
521 521 1 0.0 525.7650246763446 120.59162468415789 317.9731269116602 # Ar
522 522 1 0.0 421.3145412691243 406.66950111257614 98.63678887129096 # Ar
523 523 1 0.0 542.4844291694199 282.25387083945213 546.620290360826 # Ar
524 524 1 0.0 531.4558509717212 195.18149033005017 262.14433003673633 # Ar
525 525 1 0.0 116.2355679794188 188.00780670427466 257.7035016559508 # Ar
526 526 1 0.0 70.29351808238478 263.2349359097521 53.21425941875512 # Ar
527 527 1 0.0 51.34308158372049 529.8759805354666 428.75600210164885 # Ar
528 528 1 0.0 525.3429220975353 449.28280607611146 69.57512161982602 # Ar
529 529 1 0.0 500.40263643063355 114.59441231044451 496.8506767368254 # Ar
530 530 1 0.0 213.37843489237164 171.29884126340536 112.93400738609071 # Ar
531 531 1 0.0 201.47389462193217 578.8831675132742 385.0999265218473 # Ar
532 532 1 0.0 564.2887017964197 314.41556406533545 218.55127370374944 # Ar
533 533 1 0.0 510.3667737013662 28.33249138193735 289.83900294045236 # Ar
534 534 1 0.0 381.30130098387923 537.8684518807696 305.4969748580627 # Ar
535 535 1 0.0 401.3186138605118 465.207437885058 394.76249988672026 # Ar
536 536 1 0.0 274.38177390967587 106.36615470674184 13.711302695645289 # Ar
537 537 1 0.0 24.942620389807384 246.14967680774186 203.0463622524339 # Ar
538 538 1 0.0 421.2285423945507 559.1290635362167 532.1499486180693 # Ar
539 539 1 0.0 318.7633533104159 308.3264228256778 140.42000765466483 # Ar
540 540 1 0.0 399.5108130362035 461.15744055509344 235.7073680648017 # Ar
541 541 1 0.0 237.56854598057006 140.5930882303735 151.6727575167917 # Ar
542 542 1 0.0 403.2091751777246 422.7431179008116 300.70917867206543 # Ar
543 543 1 0.0 34.0893579909353 520.668963629522 509.5576331924077 # Ar
544 544 1 0.0 119.7134285766557 63.699649167379626 581.9348920431308 # Ar
545 545 1 0.0 450.63920728846085 58.37494117431833 232.83447713877217 # Ar
546 546 1 0.0 167.47199851057104 135.8894940964674 177.53062139070497 # Ar
547 547 1 0.0 22.14876350613029 457.49993406659513 95.27712666488581 # Ar
548 548 1 0.0 484.735117901327 272.145119696336 155.01780437923358 # Ar
549 549 1 0.0 332.05445564867426 32.968625908929184 583.6123844918081 # Ar
550 550 1 0.0 374.33135572357287 493.38741831548975 568.2105776641511 # Ar
551 551 1 0.0 264.708660105918 407.97251160830876 213.37305974618857 # Ar
552 552 1 0.0 217.7535142077191 279.4040672335924 289.32957166475114 # Ar
553 553 1 0.0 371.41484282171206 116.22572403095086 373.3706466031197 # Ar
554 554 1 0.0 9.243099519159712 516.1948499362447 556.9080328928188 # Ar
555 555 1 0.0 105.56957071399992 567.1810679378098 107.73256231511361 # Ar
556 556 1 0.0 173.0296110136197 543.0323502796584 225.0411332191184 # Ar
557 557 1 0.0 36.09559805763978 221.65074140784952 98.30473828845717 # Ar
558 558 1 0.0 239.67994734906 411.75556295721 24.211589342120508 # Ar
559 559 1 0.0 552.9766736484164 49.82365226515111 222.53805085367335 # Ar
560 560 1 0.0 11.3062882953456 367.7985086278413 315.79967367400974 # Ar
561 561 1 0.0 229.33236014344115 2.274769827099418 202.56545978087445 # Ar
562 562 1 0.0 313.2554824712023 433.9362587320356 94.82060292196742 # Ar
563 563 1 0.0 101.67629386461051 279.1871466846162 374.52226532312443 # Ar
564 564 1 0.0 220.90728854618453 376.22539652936814 140.30139954868645 # Ar
565 565 1 0.0 373.6867400401268 212.70415370916584 365.18365487501853 # Ar
566 566 1 0.0 56.91647040412737 386.81877780880467 339.88145326464576 # Ar
567 567 1 0.0 275.2409395140215 330.5676697961279 234.3233791366779 # Ar
568 568 1 0.0 521.750690193 289.4218513341539 39.44865133612507 # Ar
569 569 1 0.0 248.6127942494967 526.3126751818259 311.8414115535196 # Ar
570 570 1 0.0 468.40429088361594 11.51991223215506 187.58615497069678 # Ar
571 571 1 0.0 83.8009043790819 165.9517311180449 577.4444700048272 # Ar
572 572 1 0.0 564.8154562009701 121.49295094718275 538.3707978759173 # Ar
573 573 1 0.0 24.82218069575467 413.3679213649551 474.46101925354714 # Ar
574 574 1 0.0 496.0183205580191 538.2978163389519 477.6019028673317 # Ar
575 575 1 0.0 65.69810546973534 550.1134566776668 404.01795630486384 # Ar
576 576 1 0.0 336.528638647603 259.819230941577 97.52746376644306 # Ar
577 577 1 0.0 345.58291447465234 424.36499114225995 117.18203019783854 # Ar
578 578 1 0.0 537.3708612382525 528.3072096620208 581.0927418580725 # Ar
579 579 1 0.0 388.5871350508865 38.628286169653016 376.4771562791284 # Ar
580 580 1 0.0 3.199434667248319 156.56356890785827 547.6442054160204 # Ar
581 581 1 0.0 383.9223341037773 279.9065016924474 266.65336097770535 # Ar
582 582 1 0.0 27.444858411225393 462.50608285849387 80.08412836121663 # Ar
583 583 1 0.0 418.8198244236728 491.3477033923726 220.89491449890295 # Ar
584 584 1 0.0 413.1799362399705 143.6390795562975 541.6804365620617 # Ar
585 585 1 0.0 2.4547500084807843 66.3376320530897 224.8007009756854 # Ar
586 586 1 0.0 96.85293317982648 77.75846201323833 77.98060027258981 # Ar
587 587 1 0.0 377.8434238168388 53.2060960840799 113.19269001268529 # Ar
588 588 1 0.0 392.61752147721097 199.63327444526325 377.5271768262869 # Ar
589 589 1 0.0 270.94973447717166 303.96651326830056 21.38108982784631 # Ar
590 590 1 0.0 345.92222386511196 491.71948469850616 116.74199847010208 # Ar
591 591 1 0.0 421.57755076476076 222.98265619682246 336.58881083527234 # Ar
592 592 1 0.0 487.3390348270834 313.7300417569917 557.536868981081 # Ar
593 593 1 0.0 389.84502714468357 194.64124155660141 97.25646742417285 # Ar
594 594 1 0.0 492.51610161846554 114.13274325064029 508.9790507413054 # Ar
595 595 1 0.0 193.5571289084891 32.951032500271445 126.18974326150493 # Ar
596 596 1 0.0 217.48866801063016 551.6628227846818 87.94906741843707 # Ar
597 597 1 0.0 1.9610738580672027 77.73884825212238 215.087179187931 # Ar
598 598 1 0.0 313.97235225186944 400.6432883513765 251.1888885562053 # Ar
599 599 1 0.0 338.168048013503 381.66733539918226 523.435536929113 # Ar
600 600 1 0.0 362.02952889760115 54.34492924694397 161.69191992256495 # Ar
601 601 1 0.0 43.748800284493726 164.44703786936526 369.83194423879365 # Ar
602 602 1 0.0 474.01815830490614 578.6772601604919 453.0500537879982 # Ar
603 603 1 0.0 219.66015969111095 43.87364825644703 349.3371031181639 # Ar
604 604 1 0.0 175.96107442052065 20.95701964145375 48.22773537925061 # Ar
605 605 1 0.0 43.68397298223408 253.5077244143354 311.97994040418644 # Ar
606 606 1 0.0 244.73433663150809 51.5512899041218 564.6806912398213 # Ar
607 607 1 0.0 172.1114870848618 356.9026823239229 452.63693751286746 # Ar
608 608 1 0.0 517.4511879551316 572.860938547329 542.1232676206097 # Ar
609 609 1 0.0 565.7398552938013 292.4736903397013 340.203580050047 # Ar
610 610 1 0.0 137.12544241397538 26.493993195569413 183.45401440185321 # Ar
611 611 1 0.0 586.2149592521761 567.798728279819 549.5151247929256 # Ar
612 612 1 0.0 586.2994634732105 155.01682692250887 125.87399106077953 # Ar
613 613 1 0.0 464.78718683613766 48.23267467116385 386.45332763833466 # Ar
614 614 1 0.0 72.48601055055653 506.1373716358609 563.1839921879823 # Ar
615 615 1 0.0 73.32198680673383 467.67228167590264 46.10150128077796 # Ar
616 616 1 0.0 517.7285119568818 109.00631912401391 365.028586043854 # Ar
617 617 1 0.0 124.05567096870242 186.64158520542304 11.673506300511729 # Ar
618 618 1 0.0 441.67723566118804 581.236665412387 482.20845670170013 # Ar
619 619 1 0.0 97.38618827684095 558.5896039318993 369.8158582381994 # Ar
620 620 1 0.0 227.42066881366935 373.9800908779649 461.9068920243404 # Ar
621 621 1 0.0 198.28583214871173 477.64798289110706 177.5690113398014 # Ar
622 622 1 0.0 77.7303330659244 396.46552656573084 36.010659994981424 # Ar
623 623 1 0.0 302.3579010434959 480.9105349711983 504.2937211708208 # Ar
624 624 1 0.0 474.8465899169793 194.77992347406737 404.6325809479553 # Ar
625 625 1 0.0 222.44612804861742 572.4439824216652 493.30517321950913 # Ar
626 626 1 0.0 222.88325796897473 368.2857328208324 357.27631672367517 # Ar
627 627 1 0.0 506.5486884954664 586.4372693744897 329.6103936081672 # Ar
628 628 1 0.0 166.69498954247516 254.58468164126077 410.52268484644594 # Ar
629 629 1 0.0 296.75097610493617 129.676652204779 532.0943765388433 # Ar
630 630 1 0.0 435.5048699432765 253.40652995110446 227.8831061552714 # Ar
631 631 1 0.0 190.2616032395472 169.01906430112297 146.72797839228318 # Ar
632 632 1 0.0 258.1493769276157 501.77914472831685 69.55219686545738 # Ar
633 633 1 0.0 251.305780679389 501.6424853176574 546.0087166981754 # Ar
634 634 1 0.0 547.0787821090245 568.2782349339652 286.67454573592556 # Ar
635 635 1 0.0 365.2310052529759 223.90764056059203 514.0325858545314 # Ar
636 636 1 0.0 290.6869878534983 374.99669711862504 132.96421844890972 # Ar
637 637 1 0.0 517.7444079666537 43.54478277892884 219.91933513938966 # Ar
638 638 1 0.0 454.8702887574818 26.600486842498427 407.1549553947352 # Ar
639 639 1 0.0 446.5659585263267 344.82551070591455 297.4120233859976 # Ar
640 640 1 0.0 148.14835338217665 37.72163703506638 136.85516261672186 # Ar
641 641 1 0.0 138.1615790244779 506.7019696106723 437.4030471388817 # Ar
642 642 1 0.0 234.09199734370532 334.72805394485823 117.8817199284969 # Ar
643 643 1 0.0 550.1709967774406 378.88570117736964 212.25785519859457 # Ar
644 644 1 0.0 90.80169930520799 134.86307662247708 420.1336453134797 # Ar
645 645 1 0.0 588.5401832189292 233.60547852395575 102.077407715098 # Ar
646 646 1 0.0 96.29957771063047 18.303312436030737 241.23787317295316 # Ar
647 647 1 0.0 2.4340207345371025 392.0679506407026 31.73441320920438 # Ar
648 648 1 0.0 33.91077177860075 130.50199143547502 477.96501984524605 # Ar
649 649 1 0.0 476.6091410470445 407.854831180303 287.2838279567119 # Ar
650 650 1 0.0 381.02306874289775 401.12305378712745 562.6045426579615 # Ar
651 651 1 0.0 62.58315196529502 31.279566771067675 155.76666693335048 # Ar
652 652 1 0.0 156.5728972753331 471.2899572780814 547.5272987139954 # Ar
653 653 1 0.0 331.6752580048449 371.44562657377253 185.8635350093925 # Ar
654 654 1 0.0 562.9806010174428 390.78805406468757 163.9649698963672 # Ar
655 655 1 0.0 305.8501458258976 100.8255840485997 16.122532982471522 # Ar
656 656 1 0.0 563.6849480949852 235.54798645723693 115.1217221150156 # Ar
657 657 1 0.0 171.05160221399052 475.11635752732093 415.36778458221494 # Ar
658 658 1 0.0 267.43311572695853 23.925659768197466 471.3377878681161 # Ar
659 659 1 0.0 384.67246712056567 125.0787050162814 159.55807710534998 # Ar
660 660 1 0.0 68.28396553722334 507.6954729266804 297.48226396386406 # Ar
661 661 1 0.0 398.207217475543 354.7941597556322 425.3424363694857 # Ar
662 662 1 0.0 470.88235845679515 84.29445212329324 236.36727933435307 # Ar
663 663 1 0.0 44.187243845860394 240.85805411869967 546.4668395965368 # Ar
664 664 1 0.0 238.87434761348547 65.46833525182626 185.15032197511803 # Ar
665 665 1 0.0 141.38617227939656 508.06171083155635 164.50901703727024 # Ar
666 666 1 0.0 84.48710616780087 327.1752731613924 49.651210835463644 # Ar
667 667 1 0.0 281.8710053185317 39.84138978530333 255.228699935382 # Ar
668 668 1 0.0 102.91520174796291 141.83319578296786 482.48878637182554 # Ar
669 669 1 0.0 387.0512919287449 489.66730266678485 334.56805520093303 # Ar
670 670 1 0.0 511.5601069094024 449.24944336468485 515.5200487474551 # Ar
671 671 1 0.0 55.221772984858475 302.7765604557321 21.69288446558131 # Ar
672 672 1 0.0 560.5852305708933 465.9071747643074 337.6948881257089 # Ar
673 673 1 0.0 143.54226596591525 494.51040408970107 439.6799565606662 # Ar
674 674 1 0.0 88.75622511269657 537.864446008628 539.3192024007229 # Ar
675 675 1 0.0 160.5154278496609 0.9529675892341679 364.3975794080097 # Ar
676 676 1 0.0 47.617748231590355 585.8549338245336 88.64447008847424 # Ar
677 677 1 0.0 456.74317560018346 138.13449039367157 162.6333398982802 # Ar
678 678 1 0.0 450.5258482753425 239.62152152625524 433.32875203715895 # Ar
679 679 1 0.0 83.52438556778073 245.76230131945394 249.58549759152814 # Ar
680 680 1 0.0 14.509645585378056 358.80226858093624 19.421003141916938 # Ar
681 681 1 0.0 150.23545762401673 15.41095330327741 198.38043438322993 # Ar
682 682 1 0.0 467.4042001692544 39.72593083873117 449.07085887811013 # Ar
683 683 1 0.0 146.79065213788041 240.9907478406169 179.1958891042184 # Ar
684 684 1 0.0 531.414621552947 542.6876255381064 502.6194268962257 # Ar
685 685 1 0.0 440.2761815212836 563.0127348939138 69.17366962512236 # Ar
686 686 1 0.0 233.1389909664933 161.86515442797247 155.86142412582166 # Ar
687 687 1 0.0 41.12017177999587 302.14933275506036 252.8507295801608 # Ar
688 688 1 0.0 50.72440910826509 299.58041578495784 529.6063267457142 # Ar
689 689 1 0.0 117.25900962204999 277.0416926379618 139.96673253472036 # Ar
690 690 1 0.0 385.44632505085224 15.465986598195055 522.5493820761267 # Ar
691 691 1 0.0 35.49284606168499 114.82850870712697 392.9858597476543 # Ar
692 692 1 0.0 297.86893632110247 108.3452529533621 478.7781802608175 # Ar
693 693 1 0.0 380.8763295913452 554.1266054673596 221.87567127028063 # Ar
694 694 1 0.0 447.2000629622887 313.7663124941915 570.2462687694199 # Ar
695 695 1 0.0 269.0261354525484 443.8244030358437 572.2147279519831 # Ar
696 696 1 0.0 534.1136150649861 545.8699942355046 409.9047487134848 # Ar
697 697 1 0.0 567.363299205183 197.73815691656034 120.42032940684716 # Ar
698 698 1 0.0 523.0054157422986 368.78972894181493 535.8358297557671 # Ar
699 699 1 0.0 584.1757774300452 478.85461487091686 582.6090709033444 # Ar
700 700 1 0.0 30.263797560795176 549.8302645272668 502.3806735087766 # Ar
701 701 1 0.0 408.22403974117486 335.7721419362747 50.83331402897366 # Ar
702 702 1 0.0 134.34447006934622 394.73927784734997 323.96063496462483 # Ar
703 703 1 0.0 280.38432056324996 306.1484866076438 431.48282495028855 # Ar
704 704 1 0.0 525.1299500784002 42.11185330215663 9.822489492549 # Ar
705 705 1 0.0 393.1831164880627 73.98657661425834 253.00148737588447 # Ar
706 706 1 0.0 4.266146074856613 586.2690062469031 386.81337108292354 # Ar
707 707 1 0.0 62.7740966347221 418.17389219347217 119.03695367135403 # Ar
708 708 1 0.0 333.1295930449004 146.878393665355 88.8613408734182 # Ar
709 709 1 0.0 75.2078517209849 307.07669451872744 255.44600962543592 # Ar
710 710 1 0.0 98.5659005849751 431.38492712399375 18.056249798946045 # Ar
711 711 1 0.0 484.8575029503338 244.54859623397692 190.445584000298 # Ar
712 712 1 0.0 16.5316149574695 486.47476329750964 374.5748729322974 # Ar
713 713 1 0.0 235.25744690087595 303.37292462288246 191.04908158137775 # Ar
714 714 1 0.0 414.95487358422935 552.561967426467 523.4382721630741 # Ar
715 715 1 0.0 559.9523197167204 104.66930549648089 72.73989020455866 # Ar
716 716 1 0.0 582.5271571771422 16.431332946380184 469.89909579106944 # Ar
717 717 1 0.0 564.205665571878 72.65230460955719 378.36910760274634 # Ar
718 718 1 0.0 548.5013478245662 192.8585340958206 319.0403602676518 # Ar
719 719 1 0.0 540.1217572067809 350.2444921461518 3.102397488601659 # Ar
720 720 1 0.0 537.2712953272418 46.67452699645885 182.38174677047766 # Ar
721 721 1 0.0 261.905108855027 374.7550401695009 248.13038335858533 # Ar
722 722 1 0.0 503.56459628251827 91.3615381314731 370.2509880299916 # Ar
723 723 1 0.0 536.9920269403702 154.29434492922076 225.4489981915354 # Ar
724 724 1 0.0 292.32902752037097 208.55696824636345 295.05775817947574 # Ar
725 725 1 0.0 318.9767052213357 339.4908649098208 199.5971827176819 # Ar
726 726 1 0.0 53.89145232850801 261.2794382516823 118.60180679071983 # Ar
727 727 1 0.0 409.5540528675408 568.4911116784524 460.69679909572346 # Ar
728 728 1 0.0 351.18294194371015 319.3199980527571 102.40809446398174 # Ar
729 729 1 0.0 400.67445933215487 425.92473282930115 293.3769683487458 # Ar
730 730 1 0.0 556.1682902471848 366.1503331700777 311.15296544016917 # Ar
731 731 1 0.0 465.14639069723086 537.2998339558931 225.59792579578874 # Ar
732 732 1 0.0 158.09230979334174 533.8019166937929 20.15325031195989 # Ar
733 733 1 0.0 223.8667645113595 291.4145077843954 146.7635104512247 # Ar
734 734 1 0.0 357.457743577017 211.39078620837697 523.1890883644375 # Ar
735 735 1 0.0 114.28477494729715 119.98466871347445 353.64002017728615 # Ar
736 736 1 0.0 230.34422011502704 538.9369662045256 349.4573259780556 # Ar
737 737 1 0.0 544.7906714369165 320.059533224518 523.6190137334286 # Ar
738 738 1 0.0 588.474569910494 354.27721914554445 436.0626165471175 # Ar
739 739 1 0.0 518.6750588224272 291.9877674940891 580.3533069650933 # Ar
740 740 1 0.0 510.10377227899846 492.3597524548225 30.477119529525414 # Ar
741 741 1 0.0 224.00676892614996 94.2924372569411 140.27006664501684 # Ar
742 742 1 0.0 92.67536729014118 495.51102115416626 375.6904758177871 # Ar
743 743 1 0.0 214.33786996297647 302.41975240421203 530.5340733373961 # Ar
744 744 1 0.0 372.7696125993853 86.44888977684575 523.3216144948051 # Ar
745 745 1 0.0 71.40892500540977 96.91419764239424 352.4800681026728 # Ar
746 746 1 0.0 563.2962226733237 239.98500489621364 448.67590554606693 # Ar
747 747 1 0.0 565.9066792459231 32.98286589900687 15.166755766048777 # Ar
748 748 1 0.0 94.83127093341749 471.45707606622 461.3170717059457 # Ar
749 749 1 0.0 118.64993918823659 249.65517567276004 6.408217546033374 # Ar
750 750 1 0.0 348.6544122931367 536.7272256889416 248.73544517979215 # Ar
751 751 1 0.0 561.3757302646189 393.4599336617917 97.71021855903807 # Ar
752 752 1 0.0 235.88739772430162 542.2576850343441 39.94651059239641 # Ar
753 753 1 0.0 272.31371314185895 535.6015589727215 99.79224143001821 # Ar
754 754 1 0.0 447.2576384151126 188.75094499301605 389.13773331303275 # Ar
755 755 1 0.0 581.9382844264779 80.46232328571953 155.36783324069623 # Ar
756 756 1 0.0 467.8540665195872 183.48381563022457 371.35278089220753 # Ar
757 757 1 0.0 315.6049895430177 141.36744700946147 405.59947606137 # Ar
758 758 1 0.0 154.49746500092823 460.9017170177597 507.27145652647397 # Ar
759 759 1 0.0 173.5023341127224 58.41033484208126 448.29022645688997 # Ar
760 760 1 0.0 360.47969502303806 556.0757491339064 44.73804555077256 # Ar
761 761 1 0.0 114.36623511947401 565.3279388709067 552.4595758321641 # Ar
762 762 1 0.0 108.09586622166512 564.0924331294824 389.4161784420834 # Ar
763 763 1 0.0 176.77271573423556 445.6305212142478 170.16336822915665 # Ar
764 764 1 0.0 127.46442522798503 143.25443302175358 456.37278066380674 # Ar
765 765 1 0.0 149.60635566378744 208.0910730050015 442.25090314973926 # Ar
766 766 1 0.0 588.0572953339124 456.0766658172989 516.2958281721448 # Ar
767 767 1 0.0 360.875021611119 536.1042961203077 413.30004750561795 # Ar
768 768 1 0.0 366.4288792269474 332.7661906780354 168.5483773678952 # Ar
769 769 1 0.0 347.06534778934554 112.57522019279008 196.65707088575542 # Ar
770 770 1 0.0 461.1209623455797 159.72730414642155 156.69831265860796 # Ar
771 771 1 0.0 181.0246486375912 214.71094930577556 435.54374853896866 # Ar
772 772 1 0.0 558.2657490332513 408.0795709638315 388.4711436382856 # Ar
773 773 1 0.0 511.3083201380191 585.3868890203802 135.7320411142824 # Ar
774 774 1 0.0 61.032582038659136 172.5445119368797 258.29241655212473 # Ar
775 775 1 0.0 247.07385564891575 90.19552243411123 188.9724903346869 # Ar
776 776 1 0.0 517.4124452495396 415.7576670625816 238.69332854899972 # Ar
777 777 1 0.0 11.962425263725729 85.63043973733492 489.4543776665071 # Ar
778 778 1 0.0 316.5187932769864 140.9920268928127 320.7440658064752 # Ar
779 779 1 0.0 403.99009332963067 202.05139740774356 322.8701923197492 # Ar
780 780 1 0.0 55.81529605728681 502.4909071662735 471.76328134339144 # Ar
781 781 1 0.0 346.85408264503934 380.3024293447705 362.2513892830722 # Ar
782 782 1 0.0 86.9850809096488 69.79469557735489 451.2677123366457 # Ar
783 783 1 0.0 31.89475190390177 588.1531777590574 281.4683958533832 # Ar
784 784 1 0.0 256.9232410048878 477.4183973872486 517.5419729670493 # Ar
785 785 1 0.0 334.9276736828254 552.269578314327 482.3362765175337 # Ar
786 786 1 0.0 48.83175453910472 249.26855944607138 355.76528676084655 # Ar
787 787 1 0.0 563.8895697573238 239.2030532253313 426.5428321671888 # Ar
788 788 1 0.0 529.5495213453327 136.37462900102233 378.51483298071474 # Ar
789 789 1 0.0 85.44488481977176 389.83835147576303 25.70227679157118 # Ar
790 790 1 0.0 312.11444095585654 60.58213974936751 321.71141554820883 # Ar
791 791 1 0.0 530.9617710429962 500.8241264221066 308.13031109631186 # Ar
792 792 1 0.0 401.0358730510229 487.09901940726184 171.79343650121285 # Ar
793 793 1 0.0 5.80822796867832 374.28980709760594 96.53564874592304 # Ar
794 794 1 0.0 308.93469781248467 363.43669450382134 381.325709271432 # Ar
795 795 1 0.0 297.1326076792354 108.98775082139267 187.4723352695718 # Ar
796 796 1 0.0 286.06432870496883 172.50924253001895 568.7505014886334 # Ar
797 797 1 0.0 274.64050001555506 275.84209335810124 254.81033579692138 # Ar
798 798 1 0.0 270.2804446586033 431.86088225189184 422.0284991736174 # Ar
799 799 1 0.0 481.687935582161 160.12620071830185 528.8158324329441 # Ar
800 800 1 0.0 196.31367557258267 310.43505750654066 371.4465743835162 # Ar
801 801 1 0.0 315.76411097192675 225.55026953411505 584.9617883835484 # Ar
802 802 1 0.0 228.01219194850327 562.9506669879019 558.7117882457201 # Ar
803 803 1 0.0 508.9142689546445 292.89921836147886 361.198290867253 # Ar
804 804 1 0.0 545.2271790659009 436.876345552974 285.4554629796892 # Ar
805 805 1 0.0 45.41067885166374 178.08876202222004 103.07896166925183 # Ar
806 806 1 0.0 367.82684335011555 550.1754066909486 575.254994454921 # Ar
807 807 1 0.0 343.7499066498183 486.80997138151355 376.97576203308654 # Ar
808 808 1 0.0 234.6236083257834 521.4534283545119 248.74795041102786 # Ar
809 809 1 0.0 563.0512396686498 479.30800800751115 29.858178626242253 # Ar
810 810 1 0.0 448.6861636887894 568.4027003908485 380.0766784477977 # Ar
811 811 1 0.0 521.0019645162444 417.4675251153508 15.161270382624801 # Ar
812 812 1 0.0 467.0891528909901 493.82650972764753 277.37572442176224 # Ar
813 813 1 0.0 538.1975982164483 180.68159094016102 429.8170086988374 # Ar
814 814 1 0.0 61.707414873804204 197.6417846501522 0.04677200314240301 # Ar
815 815 1 0.0 107.42535547131067 1.0021721977999376 313.6261597757355 # Ar
816 816 1 0.0 377.13368500599825 115.7681922361861 466.19395498367436 # Ar
817 817 1 0.0 11.083073011730919 106.04314016968476 576.3770795769049 # Ar
818 818 1 0.0 15.203692567943536 261.76741245662095 243.81959137755697 # Ar
819 819 1 0.0 369.2080443302144 343.53349489740924 55.90551656935333 # Ar
820 820 1 0.0 384.8374492323445 519.1280881138823 531.1723178065422 # Ar
821 821 1 0.0 423.1399027359505 378.86074702911435 86.67684969504192 # Ar
822 822 1 0.0 64.82542086362056 237.65231552015035 482.49767558071636 # Ar
823 823 1 0.0 391.4079355598689 154.0486666644231 239.22147059865583 # Ar
824 824 1 0.0 249.62147322882308 157.17201411131077 450.4415581902872 # Ar
825 825 1 0.0 504.9691888728928 443.6434538606146 136.40901537340446 # Ar
826 826 1 0.0 506.98461760705436 78.04694659944434 456.27323042142217 # Ar
827 827 1 0.0 308.22894007770515 339.6810908262073 435.012179275871 # Ar
828 828 1 0.0 249.5992702086327 180.99592187854083 525.461981673084 # Ar
829 829 1 0.0 422.3810112636394 489.36043069779356 519.4038909807188 # Ar
830 830 1 0.0 232.60454077891595 60.10990720938191 354.6781636254014 # Ar
831 831 1 0.0 164.1187077877011 341.8253918989504 549.5145211826538 # Ar
832 832 1 0.0 359.7779016645598 215.25770799606047 390.0061208345974 # Ar
833 833 1 0.0 224.56375590041773 36.735683711155595 216.12242525850982 # Ar
834 834 1 0.0 371.0670207292005 220.85648142278055 170.08664418993774 # Ar
835 835 1 0.0 368.24773243352473 26.288680653660478 453.8461335388655 # Ar
836 836 1 0.0 35.77501968972941 331.96981621745806 306.18993453829694 # Ar
837 837 1 0.0 205.91085923166983 286.9261695412966 506.2287279575657 # Ar
838 838 1 0.0 382.4140588118419 339.0145781234625 68.10004004119307 # Ar
839 839 1 0.0 301.54398864801976 507.4742485384314 308.2977554310737 # Ar
840 840 1 0.0 568.0290812468494 398.3652987868023 571.3509819788064 # Ar
841 841 1 0.0 261.30520802030145 41.18608284711089 101.95392034173787 # Ar
842 842 1 0.0 413.65336436630344 34.91547522333845 73.2359119527116 # Ar
843 843 1 0.0 134.04289419830818 491.46039966043514 347.97583971843693 # Ar
844 844 1 0.0 130.7324336866743 175.60664358007494 347.7359798126602 # Ar
845 845 1 0.0 585.2245937036582 75.82902905307188 471.15376510340883 # Ar
846 846 1 0.0 46.15762818566403 534.5869819209453 328.03180835680854 # Ar
847 847 1 0.0 300.90689247136936 98.7396190867351 294.05067602555994 # Ar
848 848 1 0.0 48.18497562215583 59.59660348382246 485.4241827693266 # Ar
849 849 1 0.0 225.44705805996844 532.036798944482 44.64053318034014 # Ar
850 850 1 0.0 94.20044268007629 202.36340214814186 325.2638363197773 # Ar
851 851 1 0.0 451.89709476923343 530.9813874551911 422.61383487304835 # Ar
852 852 1 0.0 310.82249135474706 389.01846021850355 177.9068341130284 # Ar
853 853 1 0.0 527.6390279386641 147.91648502626944 68.03461279258252 # Ar
854 854 1 0.0 408.3809187485093 553.9656371620598 408.44630690202814 # Ar
855 855 1 0.0 582.2382322209841 381.7467229962473 257.9289095848549 # Ar
856 856 1 0.0 8.958772346321938 296.6875211952142 335.565258902215 # Ar
857 857 1 0.0 156.4429835447096 424.47437561202713 245.0603323285377 # Ar
858 858 1 0.0 194.67643968580987 359.4091101980099 110.35662797752406 # Ar
859 859 1 0.0 446.69262608068215 10.179985238836387 442.5955061814122 # Ar
860 860 1 0.0 281.8436522318387 277.3136588989596 416.5053079520572 # Ar
861 861 1 0.0 310.5735114684819 491.81171780773417 507.2679692095579 # Ar
862 862 1 0.0 372.1633243117363 424.7939674915875 79.93583664095682 # Ar
863 863 1 0.0 533.0003142208087 87.50026290071304 343.0562627732927 # Ar
864 864 1 0.0 547.6139142276013 472.11585808819046 142.63063929397376 # Ar
865 865 1 0.0 455.81317230432734 277.1416105789811 201.55585513609788 # Ar
866 866 1 0.0 565.3192248991261 249.87767222471211 98.99868233080107 # Ar
867 867 1 0.0 354.20961515109985 255.90972541962273 573.87419431533 # Ar
868 868 1 0.0 523.1339668376738 366.7497491815373 150.36482763248938 # Ar
869 869 1 0.0 562.947750091927 324.8039040835229 386.05723122591814 # Ar
870 870 1 0.0 226.31590833116954 101.18668318613656 265.01684178386034 # Ar
871 871 1 0.0 71.34558864515427 6.95038171442125 340.7275056302658 # Ar
872 872 1 0.0 496.738164584476 177.1200361979884 346.9184894592785 # Ar
873 873 1 0.0 316.8671485111975 33.60985058979188 536.6389390214053 # Ar
874 874 1 0.0 231.18192824302318 62.589097343089406 189.9352276595737 # Ar
875 875 1 0.0 513.7151652931616 117.46662384688837 186.39304997148875 # Ar
876 876 1 0.0 547.0997256451844 116.85538778602593 190.9169329890579 # Ar
877 877 1 0.0 122.92388625530238 253.09607164158402 281.7109903351502 # Ar
878 878 1 0.0 461.8358516459609 582.6016697531331 574.7496484979696 # Ar
879 879 1 0.0 376.09458629472687 337.16342288356276 34.248952759165945 # Ar
880 880 1 0.0 459.41884785766905 312.0470146498438 179.39361169447014 # Ar
881 881 1 0.0 588.2652777398447 92.59714260740067 348.21101126340034 # Ar
882 882 1 0.0 571.82258077774 24.66909836091558 347.1925354986445 # Ar
883 883 1 0.0 429.8503794516569 271.4249762632555 157.85683719592882 # Ar
884 884 1 0.0 397.673912600608 382.7161486023228 426.30382023767845 # Ar
885 885 1 0.0 525.1650287939111 540.3355661667189 439.5429627064445 # Ar
886 886 1 0.0 493.70806674321096 58.43227749480281 296.8239472429589 # Ar
887 887 1 0.0 546.5387804838233 387.8902269879046 29.903814733939107 # Ar
888 888 1 0.0 224.57304753765368 348.5615191284168 307.9320439137829 # Ar
889 889 1 0.0 116.77448143696851 265.9997232582962 442.4971231096278 # Ar
890 890 1 0.0 562.1177439750248 325.57313868957266 369.65065171156675 # Ar
891 891 1 0.0 316.4711994851054 28.22523824746087 10.317130780697173 # Ar
892 892 1 0.0 549.561498680004 189.26705855047038 440.03340474856515 # Ar
893 893 1 0.0 130.942634273923 587.8438164799688 475.6457789663135 # Ar
894 894 1 0.0 313.70340931870703 544.3745567268495 122.67717267425043 # Ar
895 895 1 0.0 165.1956337755775 56.28114800653205 164.21653928117343 # Ar
896 896 1 0.0 116.10074407661703 546.4576035869583 56.70284317609808 # Ar
897 897 1 0.0 100.4584855436346 177.5207659152079 588.7497979231675 # Ar
898 898 1 0.0 255.85228902733326 408.19874190740705 340.9627393745377 # Ar
899 899 1 0.0 581.8408498819592 278.9532933407523 551.2478336653901 # Ar
900 900 1 0.0 67.94615077600606 205.31256796881868 303.9076411833885 # Ar
901 901 1 0.0 320.75447558795196 250.16982936167827 294.10863284263826 # Ar
902 902 1 0.0 12.663579015199833 508.248983104662 355.09740761151596 # Ar
903 903 1 0.0 353.79140331578935 475.66718690912734 174.93145136283871 # Ar
904 904 1 0.0 490.1469150767409 482.46845895175824 193.69291504708383 # Ar
905 905 1 0.0 449.339270105465 17.929498689155256 472.2131888264051 # Ar
906 906 1 0.0 496.03642598469287 242.69343183121646 396.21809139804 # Ar
907 907 1 0.0 541.8313105232263 205.4811459081341 371.082876046788 # Ar
908 908 1 0.0 108.94529272654324 443.3195166601075 79.75641675552394 # Ar
909 909 1 0.0 201.3458180602697 553.0056107845895 19.961481015143235 # Ar
910 910 1 0.0 121.27668805767192 322.8077604545238 520.5004380982649 # Ar
911 911 1 0.0 428.3653278142972 464.69045072120684 365.2792737916102 # Ar
912 912 1 0.0 447.66519247317973 175.75759084630644 155.54862263322647 # Ar
913 913 1 0.0 307.9724310149954 73.30395359351743 354.1269306534819 # Ar
914 914 1 0.0 62.07608165777624 460.5444735006411 469.906838744411 # Ar
915 915 1 0.0 302.4302822852301 461.51414412502345 95.50401682640651 # Ar
916 916 1 0.0 404.6234362286982 212.4737411859115 53.81266771904065 # Ar
917 917 1 0.0 441.3800839352088 1.2204160526600187 157.8592865403677 # Ar
918 918 1 0.0 166.73334236842612 409.9596436664944 313.63564125262064 # Ar
919 919 1 0.0 407.0786968022309 13.098462333594902 205.5911936991477 # Ar
920 920 1 0.0 308.4295137128158 318.7487146646633 542.2853174744296 # Ar
921 921 1 0.0 278.752044661086 267.73754341577927 148.01212693933417 # Ar
922 922 1 0.0 500.7778522343791 46.908839774823036 352.11759391381656 # Ar
923 923 1 0.0 348.9520162856814 138.13742645730972 259.4713126260913 # Ar
924 924 1 0.0 457.29647937050726 112.67682612788698 307.2100004648313 # Ar
925 925 1 0.0 396.4454816764812 487.1327491463212 424.6674276820937 # Ar
926 926 1 0.0 533.7203158921067 319.2072432235236 579.8599905818414 # Ar
927 927 1 0.0 41.82681046169565 234.4640494239431 288.9617317010565 # Ar
928 928 1 0.0 17.363502218998992 407.076457961385 481.34006726412935 # Ar
929 929 1 0.0 572.2208402443231 83.05626298822887 391.78418483311293 # Ar
930 930 1 0.0 157.32543769138957 208.64528807301346 290.4511862547271 # Ar
931 931 1 0.0 416.5193579491744 476.57144882746695 136.14730667762407 # Ar
932 932 1 0.0 370.3505116406376 293.1391479458025 173.54192212972185 # Ar
933 933 1 0.0 300.9473981222325 178.74485607814165 299.6875487349227 # Ar
934 934 1 0.0 397.8435448381748 498.8589330381569 382.1469839794392 # Ar
935 935 1 0.0 424.09529044262945 313.2513584471608 503.5754737415337 # Ar
936 936 1 0.0 346.1603913499448 177.01615248397852 394.58876561143285 # Ar
937 937 1 0.0 131.9134204125305 423.38709276669687 35.88112895234885 # Ar
938 938 1 0.0 493.34576382049846 1.9261987286550997 219.4052937945641 # Ar
939 939 1 0.0 127.85098030265041 220.85190432909826 471.6932022034569 # Ar
940 940 1 0.0 236.75167664140915 414.5517790317056 232.49242468093294 # Ar
941 941 1 0.0 438.07493688139493 389.93831701913825 278.10994990441543 # Ar
942 942 1 0.0 357.74361603111896 64.09786086794735 579.8954984357289 # Ar
943 943 1 0.0 341.2987664518695 286.84527078548166 450.21941410181074 # Ar
944 944 1 0.0 484.4695359048704 553.8590427418824 10.518828690115523 # Ar
945 945 1 0.0 413.81058724303847 435.55276339017973 302.94236861666275 # Ar
946 946 1 0.0 197.02189067136786 41.6122548787453 136.23612721085777 # Ar
947 947 1 0.0 550.3103379088401 63.2603504677397 392.77514927379286 # Ar
948 948 1 0.0 347.83378740138266 440.04779122297384 540.7943091956839 # Ar
949 949 1 0.0 4.017379725287122 339.85616175347747 388.5067048981313 # Ar
950 950 1 0.0 368.7439873663167 240.19488219372724 343.2868478365574 # Ar
951 951 1 0.0 531.5918187352567 289.1968165453754 435.06688828643627 # Ar
952 952 1 0.0 33.16403487473129 83.17103256299164 382.34394883661236 # Ar
953 953 1 0.0 183.3045849310618 69.37971769865382 342.4550599385917 # Ar
954 954 1 0.0 123.03613331984643 85.70766398759507 402.61188367542474 # Ar
955 955 1 0.0 288.1100923835223 297.8335184691577 12.260809551271247 # Ar
956 956 1 0.0 365.1239414848818 330.6271552662145 236.4617568036056 # Ar
957 957 1 0.0 438.44073932093085 205.1796117396329 515.2292754182163 # Ar
958 958 1 0.0 8.783130342290415 563.9615499219624 21.850477511988267 # Ar
959 959 1 0.0 84.41028266221088 430.24465081846853 111.87295790255135 # Ar
960 960 1 0.0 459.64662367313406 188.91776983829376 88.89560191679949 # Ar
961 961 1 0.0 337.3565307658913 420.84654751111015 427.75159477117774 # Ar
962 962 1 0.0 188.38254926081714 452.7933432138696 508.5086372527212 # Ar
963 963 1 0.0 25.930114138291316 317.13585029162664 320.80374344300674 # Ar
964 964 1 0.0 109.36731144578287 74.91509186943573 481.9899678361187 # Ar
965 965 1 0.0 440.825355862961 405.2271589209592 531.2739636375134 # Ar
966 966 1 0.0 28.133354446408728 31.60526730288565 483.3987946502275 # Ar
967 967 1 0.0 76.0940414190305 396.3926590260005 286.65391983852464 # Ar
968 968 1 0.0 14.246351645688303 292.4641313289935 108.30833425826228 # Ar
969 969 1 0.0 17.4230450075021 314.9649085261105 79.90365125372989 # Ar
970 970 1 0.0 417.26114155917907 30.6892504983925 113.94484403967665 # Ar
971 971 1 0.0 422.5193827503005 539.112216371741 299.7711682830832 # Ar
972 972 1 0.0 324.23962008170537 300.77705345689145 82.83086905363974 # Ar
973 973 1 0.0 43.68131142699919 257.0499870718366 488.2766510098773 # Ar
974 974 1 0.0 0.5768810651590437 270.90831220268973 236.4533263346278 # Ar
975 975 1 0.0 345.9981460230372 485.6685429471157 462.2740348541266 # Ar
976 976 1 0.0 377.7889474223427 112.40164877237702 479.43247332595723 # Ar
977 977 1 0.0 244.32181450822577 370.76816793599437 460.4419909970689 # Ar
978 978 1 0.0 184.86661149590927 460.36385358591116 363.8453658028427 # Ar
979 979 1 0.0 518.6422432163113 93.08937631692048 477.0029268706073 # Ar
980 980 1 0.0 137.797007924465 413.2964050676767 402.35060166866117 # Ar
981 981 1 0.0 303.6590286973979 452.297975919999 570.7113361628342 # Ar
982 982 1 0.0 16.708455421888118 408.62328888225187 110.01370395093925 # Ar
983 983 1 0.0 581.2371525286887 546.9982602198 517.2946296295994 # Ar
984 984 1 0.0 77.58993115874286 277.32122006555346 365.8165926951306 # Ar
985 985 1 0.0 512.4872495454377 155.83322619606423 425.7148046969738 # Ar
986 986 1 0.0 416.3045937064152 418.95146290730645 405.61084862290545 # Ar
987 987 1 0.0 301.24982247119357 389.0133334471455 117.74680735619266 # Ar
988 988 1 0.0 250.28251396035608 348.5743517810605 471.4549400757284 # Ar
989 989 1 0.0 84.819737371129 202.56547015131306 456.6895454262357 # Ar
990 990 1 0.0 150.8748290442909 253.3616184342693 425.8834991768547 # Ar
991 991 1 0.0 213.4656839433316 377.39930275052893 15.225427065539382 # Ar
992 992 1 0.0 356.047676913208 12.249720449210251 86.3990304086258 # Ar
993 993 1 0.0 285.40121059430186 367.12312245334505 339.68649922999583 # Ar
994 994 1 0.0 162.65527627098027 399.53175970677904 150.0924962374302 # Ar
995 995 1 0.0 495.0869656179161 72.90820332041689 251.14200688486818 # Ar
996 996 1 0.0 588.6460970420374 411.4393789967823 489.2805671774403 # Ar
997 997 1 0.0 301.8312654461053 178.12214299953527 541.6623955638904 # Ar
998 998 1 0.0 93.69703250036964 5.413257797640765 523.7335549613108 # Ar
999 999 1 0.0 325.6302644466288 323.44696135954376 481.29538176350746 # Ar
1000 1000 1 0.0 476.0573905604877 270.77822467952825 510.2993675857238 # Ar
1001 1001 1 0.0 242.68862106424916 114.80951993338266 75.51552333259602 # Ar
1002 1002 1 0.0 578.8575746419546 188.74133998524877 193.1100720855204 # Ar
1003 1003 1 0.0 486.0757921530313 351.35180976627936 489.9723524876048 # Ar
1004 1004 1 0.0 300.9489116794351 355.44724523772555 23.23547294168017 # Ar
1005 1005 1 0.0 570.7993880700027 211.61687493776657 316.0953855047832 # Ar
1006 1006 1 0.0 131.59444497183836 262.5727019554336 462.72821626997745 # Ar
1007 1007 1 0.0 476.5332419987575 74.31761302586852 457.75648127731813 # Ar
1008 1008 1 0.0 301.93324780472136 349.9595054295003 210.40791613486283 # Ar
1009 1009 1 0.0 51.21115459327793 298.3706816345512 350.0228364916718 # Ar
1010 1010 1 0.0 132.30349779564304 268.99080931565794 207.97087696995013 # Ar
1011 1011 1 0.0 365.7341369811721 537.2243139840408 124.29287613745302 # Ar
1012 1012 1 0.0 224.98991588594785 24.755810829369096 177.95129408054348 # Ar
1013 1013 1 0.0 377.0336709100854 152.3820756439342 118.54574025912281 # Ar
1014 1014 1 0.0 151.14096661289383 217.82951124750406 367.9529125904326 # Ar
1015 1015 1 0.0 80.62239986519688 343.60231070230213 288.0102313776273 # Ar
1016 1016 1 0.0 190.92192648494202 165.65299677481616 220.84029739669194 # Ar
1017 1017 1 0.0 217.04638875685805 281.1666185336205 68.11101663404251 # Ar
1018 1018 1 0.0 147.03544262506065 247.63718623003362 478.5345139460754 # Ar
1019 1019 1 0.0 121.47115372649094 374.5127795465078 456.5841340166434 # Ar
1020 1020 1 0.0 156.74915725848578 486.7471188257766 193.5983208778533 # Ar
1021 1021 1 0.0 36.37659384432534 115.87886634633061 447.02044072133646 # Ar
1022 1022 1 0.0 84.77196789120599 151.0368537585643 57.76570308805968 # Ar
1023 1023 1 0.0 49.2794869666416 130.81682376178895 384.54322949175 # Ar
1024 1024 1 0.0 368.4298679476888 346.17719030317164 543.1661056355363 # Ar
1025 1025 1 0.0 425.9576513660813 574.7971635592311 377.3984556141309 # Ar
1026 1026 1 0.0 105.22779195994784 435.0980410348923 63.38289867131975 # Ar
1027 1027 1 0.0 112.66067578043724 346.59464219097896 365.44827806391646 # Ar
1028 1028 1 0.0 156.98031395569865 580.4993968052665 338.90781713720503 # Ar
1029 1029 1 0.0 231.8753372293545 579.46755819245 503.05422667569167 # Ar
1030 1030 1 0.0 0.7079305346960283 294.5922869268785 99.62069993932089 # Ar
1031 1031 1 0.0 426.93245632389016 564.3193156344203 529.654576770083 # Ar
1032 1032 1 0.0 156.18257534594997 278.6401390783756 11.167567109392548 # Ar
1033 1033 1 0.0 239.27481146751526 360.94866832883184 192.33685719225826 # Ar
1034 1034 1 0.0 483.5110785979282 74.83490482372649 417.6941476809349 # Ar
1035 1035 1 0.0 142.04655383056863 14.524383755308492 268.32164118130066 # Ar
1036 1036 1 0.0 33.703094129026084 252.04993928075208 101.44833866052353 # Ar
1037 1037 1 0.0 242.4350943985143 391.95518011918836 369.3996256772154 # Ar
1038 1038 1 0.0 147.56588352998048 397.96801220734784 314.0980519721963 # Ar
1039 1039 1 0.0 200.28968004097504 557.7353834519297 509.46607719823095 # Ar
1040 1040 1 0.0 424.16537249461595 531.2559707004997 77.31725522045087 # Ar
1041 1041 1 0.0 94.05594288610482 339.7917343497834 303.6178898192614 # Ar
1042 1042 1 0.0 416.57420561076117 502.2235891756274 110.79509678525407 # Ar
1043 1043 1 0.0 536.5292195896194 73.94758484183002 149.76834977477859 # Ar
1044 1044 1 0.0 436.306522050528 224.65103584062268 33.4331477668804 # Ar
1045 1045 1 0.0 514.7221445630719 109.58452545196862 382.6652333568487 # Ar
1046 1046 1 0.0 267.2332997643595 462.42855208281566 172.2537245660092 # Ar
1047 1047 1 0.0 228.86983860175232 87.72497199294325 184.11059738807964 # Ar
1048 1048 1 0.0 493.1128575175658 65.74374363170121 4.3534457736292325 # Ar
1049 1049 1 0.0 58.32682010166359 308.1620865959588 182.08146862694556 # Ar
1050 1050 1 0.0 479.0477677881598 143.16629466131195 44.95490643949801 # Ar
1051 1051 1 0.0 257.23053861219773 68.48284428172622 394.17406825376963 # Ar
1052 1052 1 0.0 348.4619133300724 291.6949208178369 344.4135959281134 # Ar
1053 1053 1 0.0 227.46538870667845 182.85252771390114 500.8407255668701 # Ar
1054 1054 1 0.0 211.72273125871843 232.61533261920704 158.8851378104473 # Ar
1055 1055 1 0.0 149.5458493373161 368.46116323777903 234.33888978451674 # Ar
1056 1056 1 0.0 281.31134953553465 114.26516599257734 137.45595853547778 # Ar
1057 1057 1 0.0 362.098070846027 470.11622693544336 67.14165612395105 # Ar
1058 1058 1 0.0 502.478412783587 71.04470646498275 408.853920183074 # Ar
1059 1059 1 0.0 146.71705618717652 94.816042320875 217.156851810572 # Ar
1060 1060 1 0.0 298.95209303459393 528.1750188054323 145.8674695314876 # Ar
1061 1061 1 0.0 244.49208665773054 396.6467040596733 283.6630187942024 # Ar
1062 1062 1 0.0 378.60975363846535 412.4409008631372 263.05109984541457 # Ar
1063 1063 1 0.0 534.2029685174637 452.5920703102408 49.674359916100215 # Ar
1064 1064 1 0.0 395.90021377409704 330.5546174254031 502.8694552257305 # Ar
1065 1065 1 0.0 583.5126702873811 197.06811293677265 458.0543991830257 # Ar
1066 1066 1 0.0 418.286019105462 357.8986924496539 376.192213070428 # Ar
1067 1067 1 0.0 340.3781361964698 280.2434735977664 340.5384699018697 # Ar
1068 1068 1 0.0 583.1941691440194 512.310279279024 125.28114461764059 # Ar
1069 1069 1 0.0 80.51587020739962 41.822825240175675 231.30581929516586 # Ar
1070 1070 1 0.0 250.67415328654693 477.6682453933493 302.7507241729881 # Ar
1071 1071 1 0.0 462.7590500074625 303.04377472101396 228.05423469121368 # Ar
1072 1072 1 0.0 543.5932244896717 203.99125482052906 349.55815530754387 # Ar
1073 1073 1 0.0 437.7084012225134 578.7698913346975 9.932866869636252 # Ar
1074 1074 1 0.0 582.338950874289 226.1159856713414 517.6124426287174 # Ar
1075 1075 1 0.0 329.13460661231585 506.5143826492122 352.7881845065074 # Ar
1076 1076 1 0.0 121.44135669568672 263.6282384617944 272.8157209527571 # Ar
1077 1077 1 0.0 189.3353146306121 66.88884169737473 285.37397976958005 # Ar
1078 1078 1 0.0 373.54518615754716 182.48876461614708 158.08229684546555 # Ar
1079 1079 1 0.0 69.50981879793105 270.0614400227448 314.6504512596322 # Ar
1080 1080 1 0.0 433.92146412220893 361.2101850629109 93.71985697715184 # Ar
1081 1081 1 0.0 84.56337907554011 486.86751930786124 506.3435202808531 # Ar
1082 1082 1 0.0 40.80658569210638 500.38436352289386 72.46349312204623 # Ar
1083 1083 1 0.0 324.16659746655364 190.32157809082844 470.16600826731724 # Ar
1084 1084 1 0.0 244.87581071445473 563.5331787479954 506.8259735029761 # Ar
1085 1085 1 0.0 412.3506064143332 256.34151831220095 197.73712330611693 # Ar
1086 1086 1 0.0 16.00118020275666 490.4535557243562 112.37788914871908 # Ar
1087 1087 1 0.0 261.86138313348187 526.125349936057 560.9891709817358 # Ar
1088 1088 1 0.0 199.51850999712138 337.50346371795143 342.6865579679636 # Ar
1089 1089 1 0.0 409.0970584861936 467.0162848779854 30.01962237308562 # Ar
1090 1090 1 0.0 484.00144209306274 554.4633927053311 163.61581449048845 # Ar
1091 1091 1 0.0 452.7180859472656 466.06868830786965 485.837411552261 # Ar
1092 1092 1 0.0 271.6093527945573 94.6569936418642 146.81774100125526 # Ar
1093 1093 1 0.0 154.98678911567873 43.7145691893453 414.1076875858049 # Ar
1094 1094 1 0.0 419.3970636146297 28.05758840915928 201.5051868291019 # Ar
1095 1095 1 0.0 539.9025788549657 33.800268082501624 96.29703825746786 # Ar
1096 1096 1 0.0 515.8212664483979 296.90941755469305 191.90485122096823 # Ar
1097 1097 1 0.0 243.24805546911352 230.10875998987842 285.76727893144596 # Ar
1098 1098 1 0.0 534.31330423458 289.1644463453398 478.6792199024145 # Ar
1099 1099 1 0.0 167.02841526372617 42.4246104143755 495.3037504436099 # Ar
1100 1100 1 0.0 426.36574703716644 200.88285722952483 108.47604493708734 # Ar
1101 1101 1 0.0 555.208249187407 200.7910811335927 112.19923472357935 # Ar
1102 1102 1 0.0 124.77714149064239 485.8445625887671 39.92188582671833 # Ar
1103 1103 1 0.0 545.20125539383 100.3197881566077 581.7460705957313 # Ar
1104 1104 1 0.0 438.27902986661053 564.9036381265997 192.6887707141792 # Ar
1105 1105 1 0.0 550.384465997221 138.838826772189 484.0117693863 # Ar
1106 1106 1 0.0 254.60152112945437 349.6411773830152 0.4244204892403252 # Ar
1107 1107 1 0.0 35.7607714949965 43.628708100768264 351.67985760420584 # Ar
1108 1108 1 0.0 89.48149769060109 243.10641350380664 479.4492026042508 # Ar
1109 1109 1 0.0 588.5435640109692 497.8499243715439 30.15448199915956 # Ar
1110 1110 1 0.0 508.0924439034709 4.445664739590243 549.0274788529875 # Ar
1111 1111 1 0.0 379.98351725006336 1.4035742233128585 529.3988183754573 # Ar
1112 1112 1 0.0 352.3871166342729 197.4201967137037 157.37737729630783 # Ar
1113 1113 1 0.0 298.0704880529969 513.3817597361056 465.84856455534816 # Ar
1114 1114 1 0.0 253.70816996508609 177.1258117293469 251.16448637870315 # Ar
1115 1115 1 0.0 19.14724391955711 187.63747733945945 362.4532609842029 # Ar
1116 1116 1 0.0 416.53700174719756 144.31995185964297 456.9578587219658 # Ar
1117 1117 1 0.0 581.9843883084872 324.4597173944389 448.9509770036465 # Ar
1118 1118 1 0.0 480.30520376402234 340.4128003135535 95.96788141528968 # Ar
1119 1119 1 0.0 132.7817386729369 100.98203594784775 492.25261518424514 # Ar
1120 1120 1 0.0 111.04620465146122 156.36790834993286 410.818487742454 # Ar
1121 1121 1 0.0 133.294891370417 131.13667020288796 573.6646578552806 # Ar
1122 1122 1 0.0 255.0167994771354 298.3995020030951 487.224629342026 # Ar
1123 1123 1 0.0 168.1685899029158 297.5560753661116 172.03961782332544 # Ar
1124 1124 1 0.0 35.93405151957867 232.190880029876 148.3471038078228 # Ar
1125 1125 1 0.0 81.81407826785832 380.23531121253654 541.4422261846277 # Ar
1126 1126 1 0.0 323.6908408446802 0.4295559708646331 331.9433598546987 # Ar
1127 1127 1 0.0 204.8940556468741 232.92361993806904 219.7645050367736 # Ar
1128 1128 1 0.0 107.89043340220965 327.15899913260927 270.6715714594727 # Ar
1129 1129 1 0.0 509.3934403968907 206.92824133964666 483.34991224073815 # Ar
1130 1130 1 0.0 258.85743730486513 74.63748154668195 65.71580913782307 # Ar
1131 1131 1 0.0 581.9840546761615 353.1534576278282 270.52060227996475 # Ar
1132 1132 1 0.0 169.15207479506824 73.77194521574006 481.1083464114883 # Ar
1133 1133 1 0.0 554.7705473209503 428.2323751276256 548.0886563410513 # Ar
1134 1134 1 0.0 558.2082600095268 395.2566369374638 226.02379873971333 # Ar
1135 1135 1 0.0 497.4269370886008 322.0459921630955 210.4121187813412 # Ar
1136 1136 1 0.0 355.53434425043434 483.18273568776834 435.92285563449184 # Ar
1137 1137 1 0.0 488.22556063747663 525.8883218936081 501.00305023286376 # Ar
1138 1138 1 0.0 562.831458092828 493.89141846303175 220.77075323779277 # Ar
1139 1139 1 0.0 54.327624301560796 157.46688884956876 420.64084519321324 # Ar
1140 1140 1 0.0 84.39268436220047 8.293339230473688 80.37771131113333 # Ar
1141 1141 1 0.0 288.6522166052513 80.43266284860259 370.4088311675562 # Ar
1142 1142 1 0.0 293.7737351765266 317.7817010654882 231.10884767861322 # Ar
1143 1143 1 0.0 419.8582806361476 540.8273017316516 325.7514337612922 # Ar
1144 1144 1 0.0 116.42171519152852 168.71824646910136 374.80802570518364 # Ar
1145 1145 1 0.0 563.0303564054303 296.3530220433744 181.1423109892063 # Ar
1146 1146 1 0.0 473.0106813451966 545.4083778654353 130.7137740733845 # Ar
1147 1147 1 0.0 529.4537513102612 202.9031899586795 525.9252871163752 # Ar
1148 1148 1 0.0 95.19923456068518 1.3337835453942777 243.36011700293355 # Ar
1149 1149 1 0.0 547.6127038886448 433.3400486069248 77.5052327007901 # Ar
1150 1150 1 0.0 108.00657191593021 277.45233539292155 99.91086112515606 # Ar
1151 1151 1 0.0 345.4833441633558 480.9440703607886 136.23681153508238 # Ar
1152 1152 1 0.0 36.71959428770283 587.147477532617 270.00032480335665 # Ar
1153 1153 1 0.0 559.1256816419741 160.7413779022918 478.4159643937205 # Ar
1154 1154 1 0.0 371.5131133025752 191.3814390373939 338.15404255766873 # Ar
1155 1155 1 0.0 413.1857488740513 137.00263758391597 244.34075403793838 # Ar
1156 1156 1 0.0 268.5701368757971 273.41808969714754 131.30805476855764 # Ar
1157 1157 1 0.0 203.43973807323906 326.9710426914944 564.4376123578359 # Ar
1158 1158 1 0.0 336.1752405008911 499.5745647882662 480.62925549312854 # Ar
1159 1159 1 0.0 559.7528658482064 522.5628239178291 498.5933288788692 # Ar
1160 1160 1 0.0 23.60290066288286 90.90514971079463 530.822995080606 # Ar
1161 1161 1 0.0 4.221575004016698 195.00824047611832 407.90809619351666 # Ar
1162 1162 1 0.0 424.35601769922823 362.54981071564276 329.694405957001 # Ar
1163 1163 1 0.0 445.0041825625033 548.7541375218445 233.80033873475136 # Ar
1164 1164 1 0.0 509.906630424602 187.13837278387092 506.91750186338936 # Ar
1165 1165 1 0.0 240.9695821001434 0.1960648348455077 341.35413159888463 # Ar
1166 1166 1 0.0 207.90132606283257 239.22256485879055 539.0278419460514 # Ar
1167 1167 1 0.0 316.8770051727094 306.2720765436058 330.7565978849193 # Ar
1168 1168 1 0.0 187.52126753818 382.852772998532 561.3399220393609 # Ar
1169 1169 1 0.0 295.4641383375581 137.1954596903947 551.2747165495128 # Ar
1170 1170 1 0.0 344.3169492657806 145.30863487452555 457.5719692609857 # Ar
1171 1171 1 0.0 91.30332483420732 63.74293797886116 135.22712423325262 # Ar
1172 1172 1 0.0 40.7925663059637 299.9979643979943 5.372082663791243 # Ar
1173 1173 1 0.0 172.0848354039588 311.6555402855104 352.0189905660864 # Ar
1174 1174 1 0.0 464.805736377252 246.10210981361882 262.5697503737884 # Ar
1175 1175 1 0.0 17.305055140380496 342.77212268610697 135.47274590206084 # Ar
1176 1176 1 0.0 469.40205482563954 467.0701069036735 401.182655969272 # Ar
1177 1177 1 0.0 270.4182383626556 144.10212540943996 99.9900799417559 # Ar
1178 1178 1 0.0 204.95527714949068 74.92397619908454 182.74197703164137 # Ar
1179 1179 1 0.0 499.1220859749297 220.548743262394 282.9403445049998 # Ar
1180 1180 1 0.0 158.57150995144283 322.9971332894458 550.7811412637667 # Ar
1181 1181 1 0.0 177.82417915171484 401.91386456859016 464.8520254567869 # Ar
1182 1182 1 0.0 308.3474910386334 518.8146890189857 40.50764096411061 # Ar
1183 1183 1 0.0 442.53509839528306 206.15031340034065 507.6937390581005 # Ar
1184 1184 1 0.0 308.4160037401774 46.461639388181695 449.0836601298243 # Ar
1185 1185 1 0.0 577.2976443513461 340.09336548938495 393.4671761853961 # Ar
1186 1186 1 0.0 216.17471342495944 80.58394217724829 201.3092824871147 # Ar
1187 1187 1 0.0 240.32438486353797 194.32549599995818 131.93864037334683 # Ar
1188 1188 1 0.0 415.22793419080733 527.4714702298618 169.38340400245147 # Ar
1189 1189 1 0.0 59.77132835088785 26.593783242886737 522.7612728274631 # Ar
1190 1190 1 0.0 464.8811289951316 17.297684765270535 35.518751589568964 # Ar
1191 1191 1 0.0 504.57281964637656 395.45179540046263 535.2801388746238 # Ar
1192 1192 1 0.0 233.49949361224236 135.59698360061984 84.46319150798848 # Ar
1193 1193 1 0.0 290.0396897245814 552.2562560145525 120.07635608902977 # Ar
1194 1194 1 0.0 388.767458329209 115.56890398916427 483.0449218599672 # Ar
1195 1195 1 0.0 494.84409362773954 544.2337024046441 179.80906192240917 # Ar
1196 1196 1 0.0 276.4800830625359 295.72185848048554 117.17550496550933 # Ar
1197 1197 1 0.0 166.46593235187387 235.05692964572043 111.34206146867355 # Ar
1198 1198 1 0.0 530.2679647145908 175.13055645853407 68.72894619687015 # Ar
1199 1199 1 0.0 483.8047376728754 442.0419387457622 33.85694980934165 # Ar
1200 1200 1 0.0 339.7320990194105 60.05360364965495 333.0594402608003 # Ar
1201 1201 1 0.0 454.6122963935718 220.0334197495747 252.64785975119685 # Ar
1202 1202 1 0.0 570.3353219030944 576.392696294508 233.44619321998502 # Ar
1203 1203 1 0.0 63.28473491185704 86.41054595165112 409.87862269883135 # Ar
1204 1204 1 0.0 275.61803062948934 284.3204642996672 517.1171423824371 # Ar
1205 1205 1 0.0 154.35555809195603 292.7819293671874 287.2086237487114 # Ar
1206 1206 1 0.0 560.4240423824031 297.75827139610806 258.83877553422406 # Ar
1207 1207 1 0.0 344.3238848563601 490.59325253603896 387.4819910180915 # Ar
1208 1208 1 0.0 338.23628873352436 351.29194303158084 558.9737298108298 # Ar
1209 1209 1 0.0 541.4364267323148 299.97063388344145 319.75199263123363 # Ar
1210 1210 1 0.0 401.2636673419381 243.08388004083832 221.745766538836 # Ar
1211 1211 1 0.0 385.45961679099406 363.4274836953375 408.6873537130417 # Ar
1212 1212 1 0.0 468.2585416591356 53.58392853013724 138.06519217079642 # Ar
1213 1213 1 0.0 524.7498288766474 446.4630617569014 450.8325485392914 # Ar
1214 1214 1 0.0 159.87443925670956 258.57442857109226 374.3721105020766 # Ar
1215 1215 1 0.0 569.0855273607232 441.08041360766816 582.6703363217927 # Ar
1216 1216 1 0.0 554.7726287138039 35.87045627662768 409.6715656761342 # Ar
1217 1217 1 0.0 549.7384286509894 356.75762652751183 541.2666870102199 # Ar
1218 1218 1 0.0 328.2082305078672 198.99189315620885 53.44905581351671 # Ar
1219 1219 1 0.0 147.2137401009748 265.9757237365365 546.9584226044656 # Ar
1220 1220 1 0.0 58.0490665355762 514.8198411330076 269.8873799672057 # Ar
1221 1221 1 0.0 256.5165305340203 419.49945073831384 574.0642837964737 # Ar
1222 1222 1 0.0 177.8055884008876 52.895782319611165 345.5289020648573 # Ar
1223 1223 1 0.0 65.62623500661225 99.97328679993994 94.04606093147788 # Ar
1224 1224 1 0.0 197.57615781478873 171.27472184385869 275.86061504934423 # Ar
1225 1225 1 0.0 449.1775654729625 274.9743255988714 330.53811642163635 # Ar
1226 1226 1 0.0 71.97094062462637 340.51080069330146 149.23494554855938 # Ar
1227 1227 1 0.0 253.9827802187664 32.15336659767305 168.1320194612154 # Ar
1228 1228 1 0.0 94.14873660674594 549.7141342435068 99.04350410799591 # Ar
1229 1229 1 0.0 307.0137208978285 213.72088977040974 94.7920011157397 # Ar
1230 1230 1 0.0 86.41201410793234 475.73659916285857 130.88873409806106 # Ar
1231 1231 1 0.0 232.1722806222221 247.7126901316683 469.0307814155708 # Ar
1232 1232 1 0.0 579.5805613720844 173.84954468334502 235.36918366694456 # Ar
1233 1233 1 0.0 14.344154507896208 70.20293281400455 498.429794504636 # Ar
1234 1234 1 0.0 563.6891910347467 364.3177820342152 91.32243692107305 # Ar
1235 1235 1 0.0 134.3320394289153 422.99844451678973 95.82440893999217 # Ar
1236 1236 1 0.0 460.1380867398622 83.05654004851864 364.90019331437793 # Ar
1237 1237 1 0.0 51.45042151788876 153.40245961715445 344.16191133380886 # Ar
1238 1238 1 0.0 557.1331131527885 449.5677256864634 205.69266886444777 # Ar
1239 1239 1 0.0 224.49176044081224 220.5037327798187 336.07738435251895 # Ar
1240 1240 1 0.0 387.5791084359101 463.4296959326249 466.0855942601276 # Ar
1241 1241 1 0.0 23.091502611310155 241.32459463885996 388.50350733870994 # Ar
1242 1242 1 0.0 546.6365787607915 374.3011998630514 105.01832764931417 # Ar
1243 1243 1 0.0 502.53527703016056 9.769820104825719 120.22128303899382 # Ar
1244 1244 1 0.0 47.666345379898 157.91297707570666 391.50424093019313 # Ar
1245 1245 1 0.0 79.26956617276457 47.382187262607566 196.742188867109 # Ar
1246 1246 1 0.0 373.38117878156606 370.67922731259404 371.72847666819166 # Ar
1247 1247 1 0.0 161.86308731071898 263.7055576264425 330.1389169954913 # Ar
1248 1248 1 0.0 565.729841362483 292.40526811528144 313.7761095828517 # Ar
1249 1249 1 0.0 1.585904038352755 512.9963630979537 280.6937147723742 # Ar
1250 1250 1 0.0 476.29472611280664 245.20323708507365 112.71569192004146 # Ar
1251 1251 1 0.0 192.43417009490219 279.30537089177125 55.37565214811099 # Ar
1252 1252 1 0.0 363.3809870261579 412.8099831701118 8.392380865636193 # Ar
1253 1253 1 0.0 250.22980808555477 470.3181144919852 577.390267638083 # Ar
1254 1254 1 0.0 413.38937986860117 121.89670580919831 498.41665078744865 # Ar
1255 1255 1 0.0 257.2041862813021 416.8576260572436 530.7626537589261 # Ar
1256 1256 1 0.0 362.05983222097547 172.28370079935124 586.5431438499738 # Ar
1257 1257 1 0.0 339.92884475584424 313.02034692795934 514.514664727894 # Ar
1258 1258 1 0.0 330.42967795534184 424.8548073701234 191.96834105338075 # Ar
1259 1259 1 0.0 180.03788833018243 361.171211593542 516.3723605565598 # Ar
1260 1260 1 0.0 280.41498826863614 462.9635932327209 61.257144684825874 # Ar
1261 1261 1 0.0 562.8811329203927 353.36108402677934 103.79195966226139 # Ar
1262 1262 1 0.0 377.86743929937336 285.08410589491444 199.08041262435512 # Ar
1263 1263 1 0.0 71.48677421739634 470.87842564043433 380.86039489434603 # Ar
1264 1264 1 0.0 534.6075809706514 26.887722661003703 165.13653040373083 # Ar
1265 1265 1 0.0 426.93672795938306 216.65675036912376 295.0586169788125 # Ar
1266 1266 1 0.0 137.7007435268697 491.9394139697353 475.3462828192611 # Ar
1267 1267 1 0.0 544.0166514293912 380.17755396590263 346.4496020759953 # Ar
1268 1268 1 0.0 568.3908283788247 548.6870925091024 57.49903071547263 # Ar
1269 1269 1 0.0 498.2225809920922 318.7452525657114 204.84584687530733 # Ar
1270 1270 1 0.0 146.08737177235363 102.45092228091234 428.94347491918546 # Ar
1271 1271 1 0.0 395.3305343225868 562.828179678033 470.5442608879503 # Ar
1272 1272 1 0.0 274.1901989816692 501.2431352831149 4.555500440291366 # Ar
1273 1273 1 0.0 347.55618542401027 37.70514732482988 64.35303598693942 # Ar
1274 1274 1 0.0 467.09180864535426 157.82691616323265 444.7605286054871 # Ar
1275 1275 1 0.0 239.84546595330596 36.735841268079476 516.5458369226285 # Ar
1276 1276 1 0.0 252.18599509019666 526.1321575346815 101.80125788698547 # Ar
1277 1277 1 0.0 297.86442471552266 296.9648344927992 131.90527729098991 # Ar
1278 1278 1 0.0 182.55442943662874 232.62615955135055 370.3899757281803 # Ar
1279 1279 1 0.0 351.3801897234597 46.79717647087207 295.08663698155397 # Ar
1280 1280 1 0.0 281.1547181868121 218.9524595979608 123.24525369080311 # Ar
1281 1281 1 0.0 250.85023540982795 295.41829671107854 323.984257783088 # Ar
1282 1282 1 0.0 114.46012741716656 150.5471847234802 134.2133873941539 # Ar
1283 1283 1 0.0 572.7907174042718 72.58839656306367 425.3209367041028 # Ar
1284 1284 1 0.0 140.29270952493977 347.13422889475646 542.551630203707 # Ar
1285 1285 1 0.0 234.5723177051002 0.5408865859795259 582.1231814113913 # Ar
1286 1286 1 0.0 319.37471434070846 450.5764497083754 458.888743830092 # Ar
1287 1287 1 0.0 547.1351565482308 277.36855232989376 311.9127638742699 # Ar
1288 1288 1 0.0 151.92990655546234 524.647827486216 70.79274110675252 # Ar
1289 1289 1 0.0 107.15968895023299 471.9038098971675 148.98538243118566 # Ar
1290 1290 1 0.0 215.9233219754503 555.6529677206324 339.8845848091068 # Ar
1291 1291 1 0.0 413.05001382974575 80.24760555596649 57.7397825419017 # Ar
1292 1292 1 0.0 558.4516869393547 93.92672818758136 171.70985187899296 # Ar
1293 1293 1 0.0 265.8765531833357 478.02213331367324 54.028373504296596 # Ar
1294 1294 1 0.0 22.570898757148704 0.0987820721523743 246.2294226793479 # Ar
1295 1295 1 0.0 300.57317901790395 524.2933604063132 195.12659453772278 # Ar
1296 1296 1 0.0 464.71196736947337 292.2093450054009 189.22403556219035 # Ar
1297 1297 1 0.0 400.3779673502439 566.4257855184791 572.9823804914262 # Ar
1298 1298 1 0.0 387.63510417237046 407.08312584147416 54.83227600626038 # Ar
1299 1299 1 0.0 228.20093314292862 454.8599497290047 99.75501009699103 # Ar
1300 1300 1 0.0 514.1315586050663 84.72173247981577 78.4678373866984 # Ar
1301 1301 1 0.0 577.746744236391 354.62698426833396 422.82545364683915 # Ar
1302 1302 1 0.0 241.72986253567885 335.328546474068 565.5472140661226 # Ar
1303 1303 1 0.0 112.8714363513167 394.3695858342704 585.513396319767 # Ar
1304 1304 1 0.0 144.3876913647122 291.098149304947 186.63415739253833 # Ar
1305 1305 1 0.0 278.316847054828 357.3179594829252 522.013153712006 # Ar
1306 1306 1 0.0 557.1402494669675 92.40414279499745 235.67304776972983 # Ar
1307 1307 1 0.0 585.9156492237945 139.38055044124283 262.1633636801127 # Ar
1308 1308 1 0.0 166.09822103604242 302.51744332708097 12.397591422419708 # Ar
1309 1309 1 0.0 342.52350893222683 556.252575892391 203.6338071922682 # Ar
1310 1310 1 0.0 489.86424406451795 344.2349335341915 499.80034928987345 # Ar
1311 1311 1 0.0 478.19933336141213 203.2199695300571 362.66174429032435 # Ar
1312 1312 1 0.0 529.0063708550244 166.72791944686364 23.47199191738094 # Ar
1313 1313 1 0.0 573.9239122953828 445.2038919178719 419.8545167909936 # Ar
1314 1314 1 0.0 311.8569486354076 497.35341621467114 115.89590061747657 # Ar
1315 1315 1 0.0 295.4117787848417 407.28531251694073 465.448656263472 # Ar
1316 1316 1 0.0 116.87704954430038 384.5467351011084 488.68900008877216 # Ar
1317 1317 1 0.0 491.510471842407 46.0437081913043 172.17120186889375 # Ar
1318 1318 1 0.0 564.3351496586879 522.3371389117139 387.0789060986142 # Ar
1319 1319 1 0.0 29.426547841584927 572.854607917243 412.3399957010941 # Ar
1320 1320 1 0.0 139.70508432383428 18.463837825805044 298.54978345867477 # Ar
1321 1321 1 0.0 551.1647120149331 248.17869473865787 7.734982004395598 # Ar
1322 1322 1 0.0 11.716678717671671 64.4944682528342 462.62580001618653 # Ar
1323 1323 1 0.0 269.4794570264982 423.6229173010241 552.6509410178983 # Ar
1324 1324 1 0.0 538.5651288073739 391.32285548704215 457.94411747920077 # Ar
1325 1325 1 0.0 505.8146643346715 76.55302101616515 237.65692884092493 # Ar
1326 1326 1 0.0 264.3619003047399 588.3454144892826 490.62015351004334 # Ar
1327 1327 1 0.0 70.1265303546682 383.5232312358763 325.2636052741108 # Ar
1328 1328 1 0.0 569.9071703336327 226.86794488999192 68.28246991194939 # Ar
1329 1329 1 0.0 576.282955082299 210.43182454910468 267.63347370475634 # Ar
1330 1330 1 0.0 124.18147257840926 441.09430048547466 122.42376974390045 # Ar
1331 1331 1 0.0 342.28468912241635 413.1219890361349 147.91411744286398 # Ar
1332 1332 1 0.0 442.61600734261714 530.8383822047148 314.31874460370085 # Ar
1333 1333 1 0.0 282.97281256919837 559.3727137099569 290.1150466068375 # Ar
1334 1334 1 0.0 158.95962532283292 525.0163264830284 498.628294886165 # Ar
1335 1335 1 0.0 510.0560305472822 12.108707257135357 228.83290122712648 # Ar
1336 1336 1 0.0 201.04963905536198 277.89287455215464 27.182416197200162 # Ar
1337 1337 1 0.0 192.49441542676826 260.4361993445916 401.67408617909206 # Ar
1338 1338 1 0.0 448.7473871671165 168.46909491395434 183.56828182261793 # Ar
1339 1339 1 0.0 200.94278775133895 102.71053850236417 19.55541876606148 # Ar
1340 1340 1 0.0 515.0928104988758 292.1070015559548 118.01963756811496 # Ar
1341 1341 1 0.0 389.1182124833571 217.93316779754193 308.57589209631396 # Ar
1342 1342 1 0.0 339.36222105944023 33.7783992370786 127.37885710187534 # Ar
1343 1343 1 0.0 7.7358765627898185 571.809567596015 579.2604913985712 # Ar
1344 1344 1 0.0 149.65709722569167 494.3532786002749 301.03123143773416 # Ar
1345 1345 1 0.0 146.0599023377055 34.030289004327535 341.0292763077694 # Ar
1346 1346 1 0.0 176.7417324586082 116.99948417685378 279.61795213517905 # Ar
1347 1347 1 0.0 122.73578877954539 335.06768770148494 423.2917592481233 # Ar
1348 1348 1 0.0 82.07823085831868 304.1250580599993 471.43966722822273 # Ar
1349 1349 1 0.0 76.47028129402509 74.92797696712854 560.8537085808675 # Ar
1350 1350 1 0.0 311.71262078742785 340.4899062698508 76.39650061208765 # Ar
1351 1351 1 0.0 358.178231069276 482.7907336020329 7.379387010084863 # Ar
1352 1352 1 0.0 535.511401273732 311.6857323988606 100.06883838122349 # Ar
1353 1353 1 0.0 56.00167189493033 567.043832296735 260.88299207769103 # Ar
1354 1354 1 0.0 556.8907801022845 425.0363851271336 237.5194637657703 # Ar
1355 1355 1 0.0 528.2628065890267 572.3641758836378 402.1971660300797 # Ar
1356 1356 1 0.0 83.39819117565884 471.7519036447381 425.2924888263769 # Ar
1357 1357 1 0.0 295.53504263227853 58.00764487866922 277.80010230844437 # Ar
1358 1358 1 0.0 553.5710485500542 520.7604678057044 122.13243526939908 # Ar
1359 1359 1 0.0 231.2072247762833 425.4585834356517 578.8705877005801 # Ar
1360 1360 1 0.0 550.7909470036396 265.7744842486539 195.70602253496907 # Ar
1361 1361 1 0.0 484.5774747801285 36.19697139250812 487.8878051476564 # Ar
1362 1362 1 0.0 561.3057077055331 582.7158207043994 207.08370554904795 # Ar
1363 1363 1 0.0 519.0099376657197 366.16235512146585 283.9848876598298 # Ar
1364 1364 1 0.0 120.49505722528944 65.86119568012354 177.34848069316632 # Ar
1365 1365 1 0.0 350.5257052969698 384.5590665252879 204.94702726797536 # Ar
1366 1366 1 0.0 126.47516623451396 569.9578842512382 425.71653835100705 # Ar
1367 1367 1 0.0 59.651932446695 169.62782485446886 28.190596572953133 # Ar
1368 1368 1 0.0 28.581526896625874 413.2338169105726 310.6466580029157 # Ar
1369 1369 1 0.0 427.5597537845801 142.30277602910357 72.99853513796954 # Ar
1370 1370 1 0.0 262.9605582816087 422.4812555297502 235.11574839943518 # Ar
1371 1371 1 0.0 476.5242019968565 510.38118389408214 377.96133157026605 # Ar
1372 1372 1 0.0 226.14420071975198 563.6300339875909 445.66557621657705 # Ar
1373 1373 1 0.0 75.11249675346943 497.3877831545793 363.7625504448801 # Ar
1374 1374 1 0.0 97.6042636328784 415.4681279464419 512.980414755509 # Ar
1375 1375 1 0.0 426.5339893102573 214.1490620909062 119.96117329198097 # Ar
1376 1376 1 0.0 295.20703167688265 327.8790667413703 206.1324449790571 # Ar
1377 1377 1 0.0 136.7618683900489 136.7640754681516 289.3492061817506 # Ar
1378 1378 1 0.0 112.79202678920771 308.14750834925024 174.9323437635486 # Ar
1379 1379 1 0.0 327.99268258544845 481.133915990521 529.9744662692783 # Ar
1380 1380 1 0.0 468.3290931799324 193.47994591524298 22.606096252157283 # Ar
1381 1381 1 0.0 461.43106110702195 342.41562226145044 247.63513486891645 # Ar
1382 1382 1 0.0 491.64202474758656 501.6858934041686 501.9882995179431 # Ar
1383 1383 1 0.0 175.5979539108229 123.34127628669226 410.05930547771857 # Ar
1384 1384 1 0.0 193.51965527724866 29.173970116031892 564.4106072555386 # Ar
1385 1385 1 0.0 52.64446846088667 437.5019752245032 78.54850045223061 # Ar
1386 1386 1 0.0 335.3721043667135 210.24457994092901 535.1750353914244 # Ar
1387 1387 1 0.0 46.937092632134195 57.56512881579584 312.44302603765095 # Ar
1388 1388 1 0.0 129.02870607453372 136.3822337856524 307.9091916597449 # Ar
1389 1389 1 0.0 404.65036591350986 291.6945493950099 192.8224415696587 # Ar
1390 1390 1 0.0 363.84140095760955 257.9097418268211 271.5259873613979 # Ar
1391 1391 1 0.0 81.24942485300554 62.70619023847629 579.2491524489551 # Ar
1392 1392 1 0.0 360.4256308957527 517.4955256717004 247.7942952689458 # Ar
1393 1393 1 0.0 231.5476419299537 244.87545819777566 90.6210069294759 # Ar
1394 1394 1 0.0 518.5654893207793 401.09958066901834 389.43359801644425 # Ar
1395 1395 1 0.0 322.0566905010468 464.41333452980365 123.55148657949682 # Ar
1396 1396 1 0.0 62.12005603301139 296.8172111878908 66.00824377630936 # Ar
1397 1397 1 0.0 420.79893697624453 79.97412483701186 215.18930729580515 # Ar
1398 1398 1 0.0 353.8231446295043 201.19253433040706 67.01974473978345 # Ar
1399 1399 1 0.0 550.2776585616792 119.54791287576629 129.64628122636566 # Ar
1400 1400 1 0.0 351.8222439323713 579.6975547978057 450.9613270347339 # Ar
1401 1401 1 0.0 355.3186370275965 565.0837017044918 446.59344724521674 # Ar
1402 1402 1 0.0 65.60143476241528 119.55251644296924 329.32145175350763 # Ar
1403 1403 1 0.0 235.21646501571334 587.2463637913605 278.7268216996149 # Ar
1404 1404 1 0.0 90.88394539359102 566.0427388687829 179.1472096926834 # Ar
1405 1405 1 0.0 568.3359442591748 100.29205254871239 373.3899271855474 # Ar
1406 1406 1 0.0 415.9426362451664 497.33254808413574 37.41640759926505 # Ar
1407 1407 1 0.0 118.30957743042677 276.87263586849457 330.2258365103565 # Ar
1408 1408 1 0.0 187.43321158306745 135.71815076211894 128.3473517445959 # Ar
1409 1409 1 0.0 580.4495702745761 401.63108314686934 568.1111837806296 # Ar
1410 1410 1 0.0 158.7599808994915 146.73820461023493 339.95136174454575 # Ar
1411 1411 1 0.0 542.2306543673118 52.35743469430366 328.7571559619071 # Ar
1412 1412 1 0.0 164.24056746893515 510.53175782983465 461.5322713365949 # Ar
1413 1413 1 0.0 202.8619784814523 63.96547387374961 554.184027255859 # Ar
1414 1414 1 0.0 110.86932719993708 424.75197474845845 46.58470894368298 # Ar
1415 1415 1 0.0 335.831411890604 395.03394802358764 390.51402295578805 # Ar
1416 1416 1 0.0 247.21150637990496 294.96210406576574 578.4187657969309 # Ar
1417 1417 1 0.0 201.9378263473591 48.841139954144786 303.8451650341341 # Ar
1418 1418 1 0.0 314.35870674128057 124.87701667075501 568.1801106681131 # Ar
1419 1419 1 0.0 412.0881227698044 386.6844005381957 279.8336026175702 # Ar
1420 1420 1 0.0 464.0062186914528 106.29080726503791 276.1194715023861 # Ar
1421 1421 1 0.0 21.12288565784396 148.66545784801048 517.9936825367387 # Ar
1422 1422 1 0.0 139.41034272865622 171.01449244313775 578.5793941630188 # Ar
1423 1423 1 0.0 450.2618749056395 474.45293081184957 409.25863233063 # Ar
1424 1424 1 0.0 194.80610120081028 245.49440764951262 161.45148217935628 # Ar
1425 1425 1 0.0 549.7638594622692 280.64927420904996 508.87327225257064 # Ar
1426 1426 1 0.0 383.3257518295525 311.48529415018885 23.23482419532131 # Ar
1427 1427 1 0.0 302.3132883545249 388.7831361652858 310.7532432672038 # Ar
1428 1428 1 0.0 55.92692670676399 394.07698056583365 518.5147673220648 # Ar
1429 1429 1 0.0 588.3281319102699 231.81649733861346 557.8206378404296 # Ar
1430 1430 1 0.0 69.18607253354149 211.1984977477295 552.9966436306331 # Ar
1431 1431 1 0.0 67.9178416158814 499.02252132449894 173.46131046208546 # Ar
1432 1432 1 0.0 107.6985347285612 228.8655545431565 372.1096892212708 # Ar
1433 1433 1 0.0 114.40385076381783 415.96200657438357 472.37901510668905 # Ar
1434 1434 1 0.0 363.4099245574999 231.74118274221405 124.26117829284065 # Ar
1435 1435 1 0.0 9.955349505404374 326.6367598554947 534.7303073720134 # Ar
1436 1436 1 0.0 446.31461639253513 486.86611379166544 19.940999404701543 # Ar
1437 1437 1 0.0 490.99748907813006 209.4212084165654 4.999285445436604 # Ar
1438 1438 1 0.0 304.13322934663904 137.625718667862 448.9564041168279 # Ar
1439 1439 1 0.0 51.212716868729764 307.43740770991525 22.366170645419324 # Ar
1440 1440 1 0.0 445.56859512993736 244.28013563033187 382.62103211335426 # Ar
1441 1441 1 0.0 461.24995034306454 100.07231184209269 297.11878734258295 # Ar
1442 1442 1 0.0 25.905098263124692 76.84047481508901 224.42303745781152 # Ar
1443 1443 1 0.0 45.12958034005277 517.1541449752311 189.7237923245886 # Ar
1444 1444 1 0.0 415.13359630873697 379.3999752892085 174.21780259854427 # Ar
1445 1445 1 0.0 46.949792282168936 539.7861892164416 384.75531154036366 # Ar
1446 1446 1 0.0 290.91778716646263 139.71148146456164 192.69579221289996 # Ar
1447 1447 1 0.0 182.42600330689947 270.21042418745765 473.17732334066847 # Ar
1448 1448 1 0.0 511.7019726423745 76.33454951572034 9.804293723874814 # Ar
1449 1449 1 0.0 510.4089572440248 544.8394636830083 447.3660745018449 # Ar
1450 1450 1 0.0 339.89805489938715 325.40344569641337 395.6293797264929 # Ar
1451 1451 1 0.0 162.8228795891551 367.1112718338153 27.501329375553983 # Ar
1452 1452 1 0.0 419.20279688352366 349.8318604589079 374.5660210324521 # Ar
1453 1453 1 0.0 362.2242282015159 43.007704007315326 282.1789528288886 # Ar
1454 1454 1 0.0 246.56038138707288 338.0237858024781 116.34797665380192 # Ar
1455 1455 1 0.0 321.1736304313548 284.27408420174976 364.00347519695794 # Ar
1456 1456 1 0.0 57.52111079444426 155.03673525299223 561.6966109013235 # Ar
1457 1457 1 0.0 374.9600755991245 509.71482644315245 68.43526085911921 # Ar
1458 1458 1 0.0 309.816302990225 125.73687297694813 149.31930329345715 # Ar
1459 1459 1 0.0 461.2657448872336 578.1781950428225 332.7717137011554 # Ar
1460 1460 1 0.0 278.60178575127816 532.1431059838085 525.9830108291751 # Ar
1461 1461 1 0.0 509.1992614500262 262.8572246772548 570.5026512361302 # Ar
1462 1462 1 0.0 263.93198281483893 449.97126548589074 468.35979389270983 # Ar
1463 1463 1 0.0 389.6917531147793 81.28359771068584 74.8685696955503 # Ar
1464 1464 1 0.0 175.75101211441626 509.0049547432516 290.0897118045279 # Ar
1465 1465 1 0.0 90.01159254075591 239.49363517827751 154.28455473279894 # Ar
1466 1466 1 0.0 385.48036929204915 404.562685860843 218.7937874315567 # Ar
1467 1467 1 0.0 10.578786015521162 391.278844732868 7.232992503530794 # Ar
1468 1468 1 0.0 98.57996239061558 91.79650167567648 547.1002901441008 # Ar
1469 1469 1 0.0 19.93581309449565 497.0288334156648 133.92353784292274 # Ar
1470 1470 1 0.0 511.2109473241086 113.37548500508088 130.5352811086674 # Ar
1471 1471 1 0.0 53.31696716974347 102.0249089062268 373.230740802404 # Ar
1472 1472 1 0.0 290.8502515870802 579.6777946624208 30.865546772670534 # Ar
1473 1473 1 0.0 285.01848127822166 257.14795484165194 408.76592403500507 # Ar
1474 1474 1 0.0 505.11277017464363 405.4145464418621 118.60592345321234 # Ar
1475 1475 1 0.0 516.09758544772 384.9386963934055 570.4982472882892 # Ar
1476 1476 1 0.0 321.83507253782597 404.7796585462797 176.13475284131584 # Ar
1477 1477 1 0.0 469.81524942634746 10.547264921469578 234.73370613050434 # Ar
1478 1478 1 0.0 249.85173204425993 527.186960374127 97.1368597968015 # Ar
1479 1479 1 0.0 576.9816633313022 537.8982779656657 583.7915694868256 # Ar
1480 1480 1 0.0 78.88406292467205 480.62729494521164 266.54434926963586 # Ar
1481 1481 1 0.0 400.3558203580677 527.3159636100773 396.58279387402763 # Ar
1482 1482 1 0.0 129.515617717166 413.1634446328075 420.6746543296094 # Ar
1483 1483 1 0.0 288.6629411121841 336.25069202825136 201.45743645473846 # Ar
1484 1484 1 0.0 455.5136587358698 566.608459644871 523.3725620817864 # Ar
1485 1485 1 0.0 387.7893015944734 128.45707554025057 317.3877357427122 # Ar
1486 1486 1 0.0 74.6039007110213 495.00259688085254 183.85538737104224 # Ar
1487 1487 1 0.0 339.2117447867456 571.2231150908954 279.664959694739 # Ar
1488 1488 1 0.0 527.3624771610439 63.354827712020125 115.43672465950172 # Ar
1489 1489 1 0.0 312.8251445952186 356.3995814962459 74.74083521894404 # Ar
1490 1490 1 0.0 552.8985586577284 19.468753271445134 441.76941416118956 # Ar
1491 1491 1 0.0 294.3598682552095 134.36609713962696 186.6149743973592 # Ar
1492 1492 1 0.0 225.1803250447792 274.73710230187964 526.3017419979936 # Ar
1493 1493 1 0.0 58.80270240384958 377.8518681102917 278.0569979668652 # Ar
1494 1494 1 0.0 476.7758312118066 154.17703148773205 266.34030433969554 # Ar
1495 1495 1 0.0 235.8609689244416 231.59785733504495 145.25225507888945 # Ar
1496 1496 1 0.0 495.47476672686105 278.79511307290727 331.70267145477857 # Ar
1497 1497 1 0.0 187.97010351602012 275.1568902002755 402.6044790896677 # Ar
1498 1498 1 0.0 228.23137720610384 56.0812835270476 419.0064864151826 # Ar
1499 1499 1 0.0 532.8937394345805 12.533519837884974 107.10040039554366 # Ar
1500 1500 1 0.0 394.0640165134545 228.17412288562025 65.84533922974191 # Ar
1501 1501 1 0.0 269.27039877093495 277.84391023670355 441.9509637108118 # Ar
1502 1502 1 0.0 81.3782305885181 463.1289089300648 275.37783925774016 # Ar
1503 1503 1 0.0 287.13429870775906 587.567189065173 422.9862982398334 # Ar
1504 1504 1 0.0 211.33047796855715 345.9661892022418 447.5784849075623 # Ar
1505 1505 1 0.0 381.4021538377018 437.5515660275045 275.14122577018986 # Ar
1506 1506 1 0.0 186.2084436483862 81.2987677412562 261.5716725554024 # Ar
1507 1507 1 0.0 86.05527122000727 178.84139361346683 358.0919046490896 # Ar
1508 1508 1 0.0 123.13862176165705 531.667784159992 145.19020091697223 # Ar
1509 1509 1 0.0 368.7751540177023 23.574174508393575 262.073641332334 # Ar
1510 1510 1 0.0 328.46982695396946 579.4048242526682 91.02744280115834 # Ar
1511 1511 1 0.0 167.7107380046385 326.13602443945166 339.40575810337367 # Ar
1512 1512 1 0.0 253.1056740584205 469.72235359145265 32.24028570057143 # Ar
1513 1513 1 0.0 376.45245138159055 383.5770689296833 326.25433426537796 # Ar
1514 1514 1 0.0 260.01501776503187 422.333070799323 253.80253930054488 # Ar
1515 1515 1 0.0 521.7875570661538 251.14610541054387 202.65070587028666 # Ar
1516 1516 1 0.0 565.1431840859241 299.8263233457246 165.39313973334612 # Ar
1517 1517 1 0.0 49.95279778936877 438.32655747566366 209.47594185403707 # Ar
1518 1518 1 0.0 347.01265574405846 423.12051833350904 234.97128566628743 # Ar
1519 1519 1 0.0 420.5732574489712 109.93239673359273 223.74163758994243 # Ar
1520 1520 1 0.0 376.79677803874563 427.3718025363274 419.3364495508258 # Ar
1521 1521 1 0.0 89.75227711707461 351.4343196338844 48.836684236476366 # Ar
1522 1522 1 0.0 138.5304367047551 237.6799412262402 406.663711878308 # Ar
1523 1523 1 0.0 311.4229458736292 1.3022918713313678 241.76496277054986 # Ar
1524 1524 1 0.0 317.54496802441747 285.2610249458289 113.43615600965042 # Ar
1525 1525 1 0.0 508.0138381034342 296.352968515211 485.2391967939747 # Ar
1526 1526 1 0.0 564.7246863405948 398.190772762507 553.1268824487103 # Ar
1527 1527 1 0.0 533.2621707248724 531.1283502086859 317.27865316451425 # Ar
1528 1528 1 0.0 112.71476260157374 498.0602421656227 241.82075565922557 # Ar
1529 1529 1 0.0 576.588047616928 252.32359777937103 547.7029048779871 # Ar
1530 1530 1 0.0 353.1061742954334 291.15345390249587 485.74560301604555 # Ar
1531 1531 1 0.0 472.79087637032006 198.7201423618703 28.006934498250082 # Ar
1532 1532 1 0.0 109.10759958807738 414.16265279043165 362.7829446670268 # Ar
1533 1533 1 0.0 184.48913579490917 221.42520565040255 349.38835771762166 # Ar
1534 1534 1 0.0 384.2281388244806 205.89003099243823 395.47854178353884 # Ar
1535 1535 1 0.0 11.060749744668636 128.75309746053574 164.12349505877572 # Ar
1536 1536 1 0.0 523.4039436520583 378.6770185053198 64.30306947394773 # Ar
1537 1537 1 0.0 393.2652221648388 324.1448927333644 414.29917177697155 # Ar
1538 1538 1 0.0 95.8903705063193 420.5386209442002 48.621019834077785 # Ar
1539 1539 1 0.0 197.6702405486311 122.07752674475643 532.096849117929 # Ar
1540 1540 1 0.0 467.69019269624164 54.9650996056313 225.87611905135404 # Ar
1541 1541 1 0.0 34.310469170951556 389.2655504238332 63.75390644205196 # Ar
1542 1542 1 0.0 540.4435044733453 64.37305427410612 488.37001143599986 # Ar
1543 1543 1 0.0 110.00613824941057 289.65064679721877 282.95938500090654 # Ar
1544 1544 1 0.0 330.2534605036433 295.2751990232997 256.9536152710471 # Ar
1545 1545 1 0.0 21.486972988457357 442.25832747683023 583.7075033952729 # Ar
1546 1546 1 0.0 256.7951688552353 359.2189374489862 240.69906321392412 # Ar
1547 1547 1 0.0 71.99453697193634 27.084730684273644 428.58922454025634 # Ar
1548 1548 1 0.0 111.71574487841612 246.98194273283443 281.33523139805214 # Ar
1549 1549 1 0.0 58.9958305854051 160.21149108144687 565.9718431381581 # Ar
1550 1550 1 0.0 269.50059315950966 61.09094109439863 404.6809383909912 # Ar
1551 1551 1 0.0 386.6182193757901 35.156583128784995 433.0324139381629 # Ar
1552 1552 1 0.0 18.715593374581477 496.6157390756364 515.5441594314073 # Ar
1553 1553 1 0.0 266.31299173409417 427.6528190757686 253.59051572386255 # Ar
1554 1554 1 0.0 115.76625682275288 99.89442374647574 219.3328399435024 # Ar
1555 1555 1 0.0 497.1315871383282 421.8491886994133 407.81929500941214 # Ar
1556 1556 1 0.0 260.3052713396137 465.72780638359467 127.0160161555487 # Ar
1557 1557 1 0.0 28.516850262082112 326.45995190657953 353.3004614313064 # Ar
1558 1558 1 0.0 367.8569359891264 74.90460513715769 12.140064909413523 # Ar
1559 1559 1 0.0 88.63476093286306 457.7105724845732 29.328141594566556 # Ar
1560 1560 1 0.0 245.34453851833695 136.56785733234372 535.2939766398634 # Ar
1561 1561 1 0.0 24.30506557360694 212.7344406102379 489.5128717748688 # Ar
1562 1562 1 0.0 414.94174855921364 191.2739531717596 53.75558850102404 # Ar
1563 1563 1 0.0 392.78100170153994 358.62049884238627 44.366248496570165 # Ar
1564 1564 1 0.0 181.591241758993 83.65368649633538 265.0849811025242 # Ar
1565 1565 1 0.0 223.70874589412614 564.4436531517837 147.51256272932403 # Ar
1566 1566 1 0.0 499.415080875876 452.62716733948236 266.76328411333077 # Ar
1567 1567 1 0.0 506.47240471819833 576.6563383985155 582.3681299106936 # Ar
1568 1568 1 0.0 158.36753917833525 511.6920917888953 263.9593859717323 # Ar
1569 1569 1 0.0 325.88688121169633 350.573686793391 0.278982296271667 # Ar
1570 1570 1 0.0 82.44076178492259 480.7022005064143 218.0371942733529 # Ar
1571 1571 1 0.0 250.68215021146577 172.72927193328704 139.4049168402365 # Ar
1572 1572 1 0.0 444.8477545984993 421.44032010893005 415.23083736701733 # Ar
1573 1573 1 0.0 172.76103768728075 93.63280449496763 505.5297966917655 # Ar
1574 1574 1 0.0 459.61596402488095 570.4975561910187 268.8139345494611 # Ar
1575 1575 1 0.0 580.5186712071578 521.9610156692534 125.30045248838944 # Ar
1576 1576 1 0.0 35.96834703126907 319.7194423278148 357.5846896764572 # Ar
1577 1577 1 0.0 526.4469668955833 492.09812538339935 96.55240408861995 # Ar
1578 1578 1 0.0 382.57139176973857 61.07455116482919 173.55847258566664 # Ar
1579 1579 1 0.0 389.9480044849025 576.8605040304135 339.84660498117717 # Ar
1580 1580 1 0.0 12.138490046068817 491.6761488176897 22.185012642527578 # Ar
1581 1581 1 0.0 136.36893554338027 43.944951262250804 162.0927555630824 # Ar
1582 1582 1 0.0 342.3746907429171 105.43483900712418 139.05613233169552 # Ar
1583 1583 1 0.0 497.8566566334691 283.20358623823756 558.9857457183776 # Ar
1584 1584 1 0.0 226.6533599214994 300.2838961801555 199.21915196873948 # Ar
1585 1585 1 0.0 451.8356443952186 259.9168791606853 220.48155350022415 # Ar
1586 1586 1 0.0 226.29842056793711 90.68329673785581 374.3611718905386 # Ar
1587 1587 1 0.0 469.0117427435372 46.17668222461843 348.1403777601209 # Ar
1588 1588 1 0.0 545.7366067909136 411.2934949513701 506.5658728063627 # Ar
1589 1589 1 0.0 311.6828534444813 88.42703363647912 548.2036603617261 # Ar
1590 1590 1 0.0 238.74427615182498 217.4711422727082 264.7068633770006 # Ar
1591 1591 1 0.0 127.53078571667221 391.50144550970515 319.89353456641027 # Ar
1592 1592 1 0.0 215.94014832829967 14.856290842749477 309.44310864279447 # Ar
1593 1593 1 0.0 137.88865492999375 459.74894977258106 305.5320265526965 # Ar
1594 1594 1 0.0 442.9992025604434 62.32740806182634 187.87919903810553 # Ar
1595 1595 1 0.0 372.075387216433 378.1040652649298 112.05704462883823 # Ar
1596 1596 1 0.0 268.0090846677558 460.1306686190802 24.555851225227197 # Ar
1597 1597 1 0.0 450.0017460035516 133.2598863815465 266.7637422205117 # Ar
1598 1598 1 0.0 405.5224327659082 558.8974439944185 262.73301715501196 # Ar
1599 1599 1 0.0 199.20851310393846 355.55599156617217 580.136379235839 # Ar
1600 1600 1 0.0 263.34723070739705 566.5174687044491 337.6922195564494 # Ar
1601 1601 1 0.0 338.1633895438254 194.63028889486003 68.24921630490613 # Ar
1602 1602 1 0.0 222.08863511846064 314.7935675336414 44.3821193110203 # Ar
1603 1603 1 0.0 182.94439363219684 436.0294946288917 13.727814465697287 # Ar
1604 1604 1 0.0 60.332732689595616 126.68902719720256 80.22840619299375 # Ar
1605 1605 1 0.0 4.165229643761005 237.20505498794975 73.61691893186193 # Ar
1606 1606 1 0.0 115.32421280455233 451.5427800608695 559.9793366302187 # Ar
1607 1607 1 0.0 310.6668148099971 187.03889489928275 462.8403850208278 # Ar
1608 1608 1 0.0 468.73130370454004 74.7363750850467 162.51374446950183 # Ar
1609 1609 1 0.0 408.4605542661088 156.9359014367296 482.3422607967433 # Ar
1610 1610 1 0.0 251.20633856510958 393.0383717602947 452.9104458416863 # Ar
1611 1611 1 0.0 369.09594856330307 509.24724540660895 20.982878481724313 # Ar
1612 1612 1 0.0 48.16559509519634 182.80177662045324 25.25007085131318 # Ar
1613 1613 1 0.0 115.53259747207206 25.992220344599815 205.91785601526794 # Ar
1614 1614 1 0.0 478.29951668200545 265.32312794882824 54.2246850849223 # Ar
1615 1615 1 0.0 128.94153836524114 383.5990642722894 587.0741242904811 # Ar
1616 1616 1 0.0 450.3788794591347 305.03273814383226 268.46436859822245 # Ar
1617 1617 1 0.0 137.66770567730052 277.0435302113942 270.05234682810084 # Ar
1618 1618 1 0.0 371.8841074032209 54.88014214767786 107.52887831643498 # Ar
1619 1619 1 0.0 560.7453223070522 407.9310786585463 406.00362914608274 # Ar
1620 1620 1 0.0 409.54925409054385 145.92391766937735 199.41585798703224 # Ar
1621 1621 1 0.0 397.28278505717583 99.41725385260638 587.0755500589092 # Ar
1622 1622 1 0.0 124.69409896202572 396.58083823909874 371.277798227621 # Ar
1623 1623 1 0.0 413.68631521094454 232.4922503666463 400.69720907107995 # Ar
1624 1624 1 0.0 152.25211580836987 263.2874944574231 289.436172066425 # Ar
1625 1625 1 0.0 556.8589439328579 251.47296926339905 244.20424134932438 # Ar
1626 1626 1 0.0 480.6701173477336 554.1607284638125 547.0093874103072 # Ar
1627 1627 1 0.0 328.0334095857688 291.18956467912375 119.33964709263104 # Ar
1628 1628 1 0.0 43.18762475971121 377.89279462673363 487.75868134877675 # Ar
1629 1629 1 0.0 10.484642404990021 107.13931940869249 57.6401087771644 # Ar
1630 1630 1 0.0 235.435684092071 181.20774542169846 406.9720410953971 # Ar
1631 1631 1 0.0 353.307827304418 393.6298761049454 181.95015002931677 # Ar
1632 1632 1 0.0 16.231925344118213 164.21071217252165 554.6060359967126 # Ar
1633 1633 1 0.0 299.83698589677005 205.7217221665293 296.98233505679843 # Ar
1634 1634 1 0.0 521.2633919025325 228.42964923441443 422.0234997269084 # Ar
1635 1635 1 0.0 335.0172759352809 395.13583224890914 561.3055608180389 # Ar
1636 1636 1 0.0 333.5694758353372 4.634429486411683 508.2836898630763 # Ar
1637 1637 1 0.0 68.54397714914191 6.404785013968173 286.53344411148396 # Ar
1638 1638 1 0.0 375.9421056586516 502.0957978105664 195.6465348590272 # Ar
1639 1639 1 0.0 364.6369962766233 120.62766177252409 29.82367512495108 # Ar
1640 1640 1 0.0 320.0369728484026 175.9699594052772 70.13606408163817 # Ar
1641 1641 1 0.0 205.50045550791023 431.50979348339837 402.71278256161463 # Ar
1642 1642 1 0.0 149.09551506408513 304.86005061376756 347.2543709138028 # Ar
1643 1643 1 0.0 535.4199786287252 577.3870317939237 3.364211706355399 # Ar
1644 1644 1 0.0 103.30060452574486 1.086824966938344 488.8168993861668 # Ar
1645 1645 1 0.0 159.3663021015883 145.10424581233147 212.3460733529169 # Ar
1646 1646 1 0.0 566.573588658217 588.4886220016248 407.2970624041519 # Ar
1647 1647 1 0.0 410.19948785947156 150.8138581899309 259.8842199182552 # Ar
1648 1648 1 0.0 355.27883875857935 139.44905604142568 132.82824731958584 # Ar
1649 1649 1 0.0 418.42782753206114 464.9712472224999 572.11403488847 # Ar
1650 1650 1 0.0 493.72954899010637 236.7136128399005 373.26144678036445 # Ar
1651 1651 1 0.0 321.82114954223596 346.86092827571593 364.92922248302716 # Ar
1652 1652 1 0.0 375.91786547114486 111.28792066702351 91.27308174158297 # Ar
1653 1653 1 0.0 303.2610868071257 85.12782026078906 187.44830041774665 # Ar
1654 1654 1 0.0 122.59697192528898 572.4948216723694 141.9581006848242 # Ar
1655 1655 1 0.0 253.7689316964232 281.7081126193955 388.4864862804776 # Ar
1656 1656 1 0.0 410.3271375000978 376.7668837917413 100.39447037476819 # Ar
1657 1657 1 0.0 223.8504024638302 63.64844314803297 170.78196915369455 # Ar
1658 1658 1 0.0 94.33350161680963 474.15864633152194 575.5149196523071 # Ar
1659 1659 1 0.0 478.2890172193331 509.0891267466406 533.1878948432582 # Ar
1660 1660 1 0.0 460.72371759748756 181.4385077080816 537.7052330629102 # Ar
1661 1661 1 0.0 440.35670991321285 263.7148704262658 558.3814239883808 # Ar
1662 1662 1 0.0 147.85369397917216 160.78576591174306 386.7633894223026 # Ar
1663 1663 1 0.0 486.1745872744531 78.87411000253039 207.66370024066865 # Ar
1664 1664 1 0.0 58.7380771337957 71.84860459848616 82.07943498756632 # Ar
1665 1665 1 0.0 118.0100170584302 313.6773211742984 341.7538691787576 # Ar
1666 1666 1 0.0 536.6209210231301 510.69553286220065 378.8688271126936 # Ar
1667 1667 1 0.0 56.29704347731366 536.237146150029 40.75770738326366 # Ar
1668 1668 1 0.0 259.1876881592688 335.45469932236904 279.5729801869867 # Ar
1669 1669 1 0.0 163.35002425439455 573.8948595810178 489.4369485112159 # Ar
1670 1670 1 0.0 484.40909281469436 224.68479182405176 422.28154490924544 # Ar
1671 1671 1 0.0 173.1293881116441 99.9946731527005 307.43849016268877 # Ar
1672 1672 1 0.0 92.0676777441935 215.88294956199192 11.796050356128719 # Ar
1673 1673 1 0.0 347.8715481616368 332.8569447202568 330.47353876128534 # Ar
1674 1674 1 0.0 124.82012814463984 527.7880381255175 30.29378822945195 # Ar
1675 1675 1 0.0 235.67368340872258 127.66792543754914 374.586729819544 # Ar
1676 1676 1 0.0 54.46755537011406 79.89715036700188 336.22495802717924 # Ar
1677 1677 1 0.0 416.9219500379485 415.63577659001044 500.8982485496635 # Ar
1678 1678 1 0.0 173.08952185610886 207.4340403515255 170.6248908182402 # Ar
1679 1679 1 0.0 60.74963076459711 356.34862456298487 208.2899538164758 # Ar
1680 1680 1 0.0 155.84949010428056 148.03689478249976 175.86918759118782 # Ar
1681 1681 1 0.0 466.3974125532053 236.59602992782436 34.93288622525424 # Ar
1682 1682 1 0.0 223.2930331211892 160.5790038507414 495.4836445316388 # Ar
1683 1683 1 0.0 95.50144459382194 86.68152285880817 3.57587417621601 # Ar
1684 1684 1 0.0 94.24840907061485 225.88576465495663 561.2459360552361 # Ar
1685 1685 1 0.0 25.0670774254031 286.3499931104 305.5423367474746 # Ar
1686 1686 1 0.0 246.05552738534408 188.21621455199548 545.6544196723789 # Ar
1687 1687 1 0.0 58.71650680137595 424.9612266587426 272.3184867107409 # Ar
1688 1688 1 0.0 247.33462156671786 30.78237769197543 552.3067096864495 # Ar
1689 1689 1 0.0 113.36573222838473 422.43491384408344 524.2417168710895 # Ar
1690 1690 1 0.0 358.7721528337945 544.4317165606398 512.5039306689993 # Ar
1691 1691 1 0.0 449.81944282901435 252.29952753994107 527.9986515145278 # Ar
1692 1692 1 0.0 4.972486288637416 158.98054016601785 345.97828180650447 # Ar
1693 1693 1 0.0 495.3652649021596 372.69016886567067 493.41536949080523 # Ar
1694 1694 1 0.0 96.95376500150918 286.15086882805826 21.671574306542333 # Ar
1695 1695 1 0.0 256.30039174014286 550.1925861185854 261.16730015510456 # Ar
1696 1696 1 0.0 57.24328095510769 566.2322216910289 237.19527537450733 # Ar
1697 1697 1 0.0 574.5865953953094 170.73975978046144 468.49447962139874 # Ar
1698 1698 1 0.0 170.22759305571643 562.3521793897295 92.75804291177872 # Ar
1699 1699 1 0.0 433.51924060245324 142.1070917428718 482.5122679352219 # Ar
1700 1700 1 0.0 238.98793450608898 518.8874784856749 366.9158488432872 # Ar
1701 1701 1 0.0 185.57394167290607 336.30384313553924 242.16885693119403 # Ar
1702 1702 1 0.0 105.87165829869987 517.8851654027493 157.83011337971539 # Ar
1703 1703 1 0.0 280.09435736432795 91.01099527741874 380.3386282915155 # Ar
1704 1704 1 0.0 444.72594551608177 229.49783596907605 430.54327229092894 # Ar
1705 1705 1 0.0 285.87329828559615 154.50005141449603 421.9593618789101 # Ar
1706 1706 1 0.0 165.70357418661482 15.623984170628184 151.99297413887714 # Ar
1707 1707 1 0.0 304.70098745034767 121.06511041067427 256.34768556663977 # Ar
1708 1708 1 0.0 422.614218055108 262.1431182300952 110.87863253508026 # Ar
1709 1709 1 0.0 34.71655556481363 404.49190707048285 577.6568119754818 # Ar
1710 1710 1 0.0 502.3627428425813 433.8776288090143 345.73957896084056 # Ar
1711 1711 1 0.0 535.977076925309 235.9920343617668 57.86533940428166 # Ar
1712 1712 1 0.0 388.84036114898174 546.2157377109663 532.1370017829041 # Ar
1713 1713 1 0.0 258.5066637644506 109.45869046212287 394.2971138354287 # Ar
1714 1714 1 0.0 107.87732558326357 143.8419000314852 464.88924391302294 # Ar
1715 1715 1 0.0 486.94739341915994 321.20382938814544 89.36470105819598 # Ar
1716 1716 1 0.0 464.07555273592493 497.1240975539692 564.6931442674688 # Ar
1717 1717 1 0.0 185.16132931711607 580.6590892482766 240.98046258711685 # Ar
1718 1718 1 0.0 404.34305611532716 272.00107311531235 120.54242622633241 # Ar
1719 1719 1 0.0 146.47440823524775 100.4930477057404 322.7093833671621 # Ar
1720 1720 1 0.0 3.0925950077781112 273.1942859841152 172.08086745319483 # Ar
1721 1721 1 0.0 160.80010996006615 230.91302482296155 353.9983313013447 # Ar
1722 1722 1 0.0 69.75443661906093 209.11337954500425 363.08184080764147 # Ar
1723 1723 1 0.0 502.2092606092225 10.789366462545296 442.1594314586033 # Ar
1724 1724 1 0.0 418.51246927284 339.442825437199 54.026438939870054 # Ar
1725 1725 1 0.0 574.7886016333931 376.4172799035577 333.8345324988932 # Ar
1726 1726 1 0.0 374.35336825630594 145.2136878641443 274.3221804083119 # Ar
1727 1727 1 0.0 237.71283324131218 325.3714725924957 515.5418255060358 # Ar
1728 1728 1 0.0 436.02191168908973 493.23395133421883 566.4774009912369 # Ar
1729 1729 1 0.0 447.4397930197433 498.1808788964044 587.0821507224018 # Ar
1730 1730 1 0.0 308.4455673947325 11.204529069894766 252.08216375124107 # Ar
1731 1731 1 0.0 575.6195570730166 404.4467359366435 114.4214304511137 # Ar
1732 1732 1 0.0 122.6108094642442 544.4495005694607 492.41003655547433 # Ar
1733 1733 1 0.0 583.0298316105325 114.59036166210868 26.548222059769053 # Ar
1734 1734 1 0.0 540.5369493537806 353.2528842144719 486.56256948896413 # Ar
1735 1735 1 0.0 423.7786427364399 275.7941159656799 573.5362107850559 # Ar
1736 1736 1 0.0 15.892292028875675 250.47740933083114 460.74955130719746 # Ar
1737 1737 1 0.0 252.53186154319852 430.6531631144124 543.7884310931609 # Ar
1738 1738 1 0.0 566.5446980542587 535.2323187670657 161.09731571812264 # Ar
1739 1739 1 0.0 474.5691767653417 295.5499860492994 548.2070608659386 # Ar
1740 1740 1 0.0 388.636649287991 396.5308406331302 568.9929453611181 # Ar
1741 1741 1 0.0 403.88481076829345 347.87170776061356 214.05842492604782 # Ar
1742 1742 1 0.0 121.51130110498853 274.5989193755843 212.48126423967412 # Ar
1743 1743 1 0.0 558.5744365098761 333.80850526628313 332.42423202510236 # Ar
1744 1744 1 0.0 414.11251743103895 20.83228117659395 514.4269205364646 # Ar
1745 1745 1 0.0 49.04771611575021 190.2131136319554 373.58049470130464 # Ar
1746 1746 1 0.0 221.07280147090756 440.6340787297018 120.52508380626776 # Ar
1747 1747 1 0.0 509.97065292912663 207.94940226962063 506.02177118400834 # Ar
1748 1748 1 0.0 66.92750261773787 275.7082745538394 389.7005197082314 # Ar
1749 1749 1 0.0 500.18678600388233 67.16237084245016 167.8594826235094 # Ar
1750 1750 1 0.0 361.20779729480716 99.89061445952463 516.8218463688462 # Ar
1751 1751 1 0.0 553.4658058421116 437.3205671372612 43.207406386990286 # Ar
1752 1752 1 0.0 335.04841292062406 488.1091329259132 457.00576634935 # Ar
1753 1753 1 0.0 455.903064709299 90.76722602255647 212.91626842790785 # Ar
1754 1754 1 0.0 350.43600630774563 144.86876861350643 21.029815434255674 # Ar
1755 1755 1 0.0 244.62398253981576 498.6015406708897 75.35954041213725 # Ar
1756 1756 1 0.0 42.59399049881624 300.6595031524616 208.11404682927707 # Ar
1757 1757 1 0.0 381.0673055935116 310.4719352248614 469.99647639952735 # Ar
1758 1758 1 0.0 9.882402257457326 90.97897963827756 41.77076455136234 # Ar
1759 1759 1 0.0 340.3367805571531 335.92507951352496 197.98400150883504 # Ar
1760 1760 1 0.0 297.41349232747297 375.6293693209357 45.158916910126386 # Ar
1761 1761 1 0.0 359.57107241275025 220.6260535901503 19.544874367284258 # Ar
1762 1762 1 0.0 493.75786086993844 82.21220023901552 523.069536847368 # Ar
1763 1763 1 0.0 162.33793275760686 518.0646620232686 13.78416272319702 # Ar
1764 1764 1 0.0 545.347743752379 336.4505283019072 326.599115158775 # Ar
1765 1765 1 0.0 450.92149868516947 423.45967923007635 86.74656386581779 # Ar
1766 1766 1 0.0 548.582741908269 143.3861362155481 215.88035843111354 # Ar
1767 1767 1 0.0 297.3071441829997 560.1647703715992 267.1868859920263 # Ar
1768 1768 1 0.0 453.0660128793965 151.71140846276722 324.62558598200445 # Ar
1769 1769 1 0.0 5.742001327146131 339.52779703594376 126.63566701156945 # Ar
1770 1770 1 0.0 409.32941891497944 230.62574728155585 430.1592665404049 # Ar
1771 1771 1 0.0 480.127958232479 491.00392405418796 445.67546062923526 # Ar
1772 1772 1 0.0 315.4775230965426 63.427983823359384 124.76945057587895 # Ar
1773 1773 1 0.0 55.6098091036763 415.3661320535835 55.06715797549032 # Ar
1774 1774 1 0.0 509.29989800517814 554.6326151917859 335.2500628305576 # Ar
1775 1775 1 0.0 357.0930500578731 46.710383360974646 319.03078996913285 # Ar
1776 1776 1 0.0 159.75617426149583 21.66932676511859 18.16026895707865 # Ar
1777 1777 1 0.0 166.6815612821962 94.23226217785916 415.9698228254175 # Ar
1778 1778 1 0.0 566.2169620342383 574.7043495935983 38.482756058415056 # Ar
1779 1779 1 0.0 251.01871095374088 461.74984713395924 350.5471333232593 # Ar
1780 1780 1 0.0 271.30817897516056 71.96469858584449 516.9106354836671 # Ar
1781 1781 1 0.0 354.08445094448166 423.5870221669424 144.40424194684203 # Ar
1782 1782 1 0.0 14.275506415829703 559.5781467576917 269.4241875974109 # Ar
1783 1783 1 0.0 77.38816220189247 28.745108002243562 233.3856863467572 # Ar
1784 1784 1 0.0 466.3834066195986 179.28733047233283 358.4762977156145 # Ar
1785 1785 1 0.0 533.7424476003256 432.27177102981807 7.054296777075681 # Ar
1786 1786 1 0.0 460.55634955215646 199.92388099127174 253.09437249678223 # Ar
1787 1787 1 0.0 293.4465102908119 103.92096355509139 461.5184941325311 # Ar
1788 1788 1 0.0 70.25787271759569 227.84265775678458 86.36154745928037 # Ar
1789 1789 1 0.0 105.73718299381817 444.76498160692387 226.6230844242178 # Ar
1790 1790 1 0.0 271.5216575478408 424.14009902533263 54.15565685631116 # Ar
1791 1791 1 0.0 315.85096298135505 273.91505420861904 119.67506517593584 # Ar
1792 1792 1 0.0 555.0476527048239 17.860261395944324 440.76097179217754 # Ar
1793 1793 1 0.0 266.5134390259119 269.0416862407682 118.43617070455979 # Ar
1794 1794 1 0.0 179.95057645663294 60.76239042158546 70.53039089648043 # Ar
1795 1795 1 0.0 300.7759272471043 34.380457625568376 33.53827800015587 # Ar
1796 1796 1 0.0 358.28268257197954 207.14271946975123 413.31495832683186 # Ar
1797 1797 1 0.0 14.715169459900325 492.09074385449753 187.48316447473414 # Ar
1798 1798 1 0.0 476.6480902724979 209.6753840790506 74.55990273649638 # Ar
1799 1799 1 0.0 322.9465847507262 485.02150266733776 370.49451111046454 # Ar
1800 1800 1 0.0 421.7379422264069 86.15761407507915 473.12962902940194 # Ar
1801 1801 1 0.0 21.881162122724305 471.454076184536 212.34966351479605 # Ar
1802 1802 1 0.0 559.2451223797993 232.8696523299131 338.4229497774477 # Ar
1803 1803 1 0.0 560.9511419705307 25.886418318320484 560.2461762316175 # Ar
1804 1804 1 0.0 482.539249545806 370.6601377591891 574.7628503390761 # Ar
1805 1805 1 0.0 190.1714624873499 125.16848095942282 324.26941542795464 # Ar
1806 1806 1 0.0 441.81848680936986 399.95833060257536 568.505476160653 # Ar
1807 1807 1 0.0 36.64682441169652 33.83497707337003 183.22980853961616 # Ar
1808 1808 1 0.0 276.72822724060217 92.24209995891236 321.56337249691273 # Ar
1809 1809 1 0.0 284.7287870290782 476.04528656976635 212.71720200126816 # Ar
1810 1810 1 0.0 405.47718746467365 427.1899814355423 522.5529539237101 # Ar
1811 1811 1 0.0 281.8685685929311 579.1096756734872 482.64631911769004 # Ar
1812 1812 1 0.0 448.8966371303403 582.4464730338384 231.56682017735022 # Ar
1813 1813 1 0.0 322.9575538983694 382.5919309800177 359.13423985905166 # Ar
1814 1814 1 0.0 337.2220454354583 232.29395424164454 79.7850562529017 # Ar
1815 1815 1 0.0 141.318416304369 438.8446074791813 469.4511162094723 # Ar
1816 1816 1 0.0 373.85232380342586 355.43182277807784 204.3884580770502 # Ar
1817 1817 1 0.0 504.76147190786185 112.16693112836987 500.00956857303623 # Ar
1818 1818 1 0.0 93.71372277560974 326.0418189448505 25.916127088935806 # Ar
1819 1819 1 0.0 59.608836013352125 316.1332013443211 49.43643299627851 # Ar
1820 1820 1 0.0 193.19485478530473 10.43872453334878 481.20077054243114 # Ar
1821 1821 1 0.0 264.35621544741286 457.81051507484347 493.7173163603385 # Ar
1822 1822 1 0.0 462.25023502704846 472.1817858104059 584.6078473807423 # Ar
1823 1823 1 0.0 338.96645058099983 395.44674515331747 0.6185641794302495 # Ar
1824 1824 1 0.0 545.4383691968314 260.816750466861 438.7931037493461 # Ar
1825 1825 1 0.0 231.8014231671633 95.01247143806741 202.41586719588562 # Ar
1826 1826 1 0.0 48.85649175439776 558.1006023404882 441.2893364764861 # Ar
1827 1827 1 0.0 340.3651109119283 555.2563722870743 169.02858313672476 # Ar
1828 1828 1 0.0 99.35957436976256 208.0854914302205 544.5521482852286 # Ar
1829 1829 1 0.0 64.59653038247393 120.04997698076019 433.6712779908121 # Ar
1830 1830 1 0.0 218.89085333472886 317.4634288256465 314.0912400450123 # Ar
1831 1831 1 0.0 137.79883980165673 573.6087099562493 531.8485342498326 # Ar
1832 1832 1 0.0 89.8856996631414 443.7647413582456 425.9458269555764 # Ar
1833 1833 1 0.0 351.53714607539683 113.09879891895051 301.27231849144584 # Ar
1834 1834 1 0.0 535.0156721461248 435.4747675072888 73.57685341750681 # Ar
1835 1835 1 0.0 100.28019923993402 307.1032186543238 118.04027362241708 # Ar
1836 1836 1 0.0 269.5747971333383 319.44710015275695 535.0232873994124 # Ar
1837 1837 1 0.0 386.0498167588153 538.6341063059311 572.9234165749548 # Ar
1838 1838 1 0.0 165.67505209304971 432.4912631428583 116.26263617686402 # Ar
1839 1839 1 0.0 347.7203289974295 328.8395168002056 584.4539487965741 # Ar
1840 1840 1 0.0 53.483624511503415 289.65312790549285 110.92494060939889 # Ar
1841 1841 1 0.0 0.8112024134939453 575.584200108229 326.02804426950496 # Ar
1842 1842 1 0.0 110.69179676284112 352.0526489401917 203.99667675168973 # Ar
1843 1843 1 0.0 500.41875535539435 160.2252648850345 578.3882651780622 # Ar
1844 1844 1 0.0 259.5689680090269 243.30496049350123 423.0816367969054 # Ar
1845 1845 1 0.0 172.54754485391584 547.7120273308536 41.870660037500095 # Ar
1846 1846 1 0.0 124.7317254908558 108.64048095355933 205.90305644617155 # Ar
1847 1847 1 0.0 27.7228340196156 260.25247986514506 328.6581740265774 # Ar
1848 1848 1 0.0 484.64822208542284 320.79666691701937 204.61822444408514 # Ar
1849 1849 1 0.0 321.6079736296801 247.10043475429768 315.43638389383364 # Ar
1850 1850 1 0.0 254.7243773932086 209.7757128141641 105.40667753634263 # Ar
1851 1851 1 0.0 50.568121546275776 250.57571670341642 562.8027257944644 # Ar
1852 1852 1 0.0 579.6544071851752 203.53095539768705 70.6190568776688 # Ar
1853 1853 1 0.0 107.35088000265573 566.0893441695578 363.19808953952327 # Ar
1854 1854 1 0.0 423.87487191581226 145.7492379432078 82.1384699924986 # Ar
1855 1855 1 0.0 43.86799791155493 515.9487692855735 209.95668530861568 # Ar
1856 1856 1 0.0 583.5663391824295 497.0419381050795 20.113265796916274 # Ar
1857 1857 1 0.0 389.72619258551936 45.453398150865354 497.0060725577935 # Ar
1858 1858 1 0.0 55.994552969531696 397.9895176895396 228.70709446248875 # Ar
1859 1859 1 0.0 491.90505956324904 187.0976842320277 106.77593112702313 # Ar
1860 1860 1 0.0 53.522511764902276 129.08354316926736 532.0284591310326 # Ar
1861 1861 1 0.0 112.63469812169082 281.06752282350044 505.32916786557803 # Ar
1862 1862 1 0.0 555.0961202988326 140.4374461081661 492.5187143303479 # Ar
1863 1863 1 0.0 109.49953130490029 467.6951327097124 169.30711253652993 # Ar
1864 1864 1 0.0 266.53553347735317 288.0128086361851 268.62307019553623 # Ar
1865 1865 1 0.0 35.292499984786794 537.3010029512075 490.54093582840727 # Ar
1866 1866 1 0.0 478.20889851971737 573.3644136777554 419.54703847796054 # Ar
1867 1867 1 0.0 195.6061046233536 452.6090130809815 69.3460522760918 # Ar
1868 1868 1 0.0 509.0389402032742 449.2877286800477 24.888983277101776 # Ar
1869 1869 1 0.0 280.4706132303136 175.6129564369131 306.73843388867897 # Ar
1870 1870 1 0.0 411.160225686369 303.86712997479606 109.69664709265625 # Ar
1871 1871 1 0.0 133.87520241451156 370.51528293125926 56.650987181072864 # Ar
1872 1872 1 0.0 0.4887668671973012 497.9867152940352 247.73465341206196 # Ar
1873 1873 1 0.0 434.34307948017306 111.85364151295622 176.28669101487253 # Ar
1874 1874 1 0.0 498.6194269540442 455.0146253695918 365.5030925329675 # Ar
1875 1875 1 0.0 4.248883696917586 278.08390287210693 176.1519156402501 # Ar
1876 1876 1 0.0 48.29661991534637 238.10448159587398 7.1301257371005216 # Ar
1877 1877 1 0.0 388.2744274453458 545.16900431216 224.198589666799 # Ar
1878 1878 1 0.0 553.4004188548366 64.31875366674228 200.0066770597228 # Ar
1879 1879 1 0.0 44.97053140289896 55.88487272490216 429.3802696765696 # Ar
1880 1880 1 0.0 154.41458599394198 445.21887234097164 29.229620279529794 # Ar
1881 1881 1 0.0 582.1396649559734 466.33187625732086 22.280592842335604 # Ar
1882 1882 1 0.0 581.0013209359092 114.46944466285454 579.5412555010366 # Ar
1883 1883 1 0.0 545.4196263282112 111.95122407357506 402.79866726194024 # Ar
1884 1884 1 0.0 447.53303571408344 380.41125056356793 486.8222891461071 # Ar
1885 1885 1 0.0 509.03205790107427 11.801679333303987 203.13415043039558 # Ar
1886 1886 1 0.0 508.65403807862145 385.374954936103 116.79443941243773 # Ar
1887 1887 1 0.0 466.37919919647584 334.0100513650873 419.60717748479254 # Ar
1888 1888 1 0.0 274.89996919756584 337.77420719339375 333.78347706754903 # Ar
1889 1889 1 0.0 167.9784724741743 425.8995317396028 275.20777891200015 # Ar
1890 1890 1 0.0 163.93495001496072 159.64536081724543 524.9950774363788 # Ar
1891 1891 1 0.0 394.34728152678133 573.0164120468996 484.65588280327154 # Ar
1892 1892 1 0.0 279.66090844564854 238.1404706977597 275.9524624115577 # Ar
1893 1893 1 0.0 322.98825392155976 441.33407887193846 263.7050081254537 # Ar
1894 1894 1 0.0 218.47194934016665 43.219013372776615 341.9778442726156 # Ar
1895 1895 1 0.0 291.5913710184213 489.9628437883996 218.81260541753758 # Ar
1896 1896 1 0.0 527.3232739757065 186.0591252704214 562.4737054652063 # Ar
1897 1897 1 0.0 486.12626229288725 321.54320539597546 98.99160669297093 # Ar
1898 1898 1 0.0 496.8830693807772 339.1790711624879 271.48592419056047 # Ar
1899 1899 1 0.0 339.616465686895 408.1146895198324 196.69034319965778 # Ar
1900 1900 1 0.0 203.1948856752793 59.810438622601986 508.3526524792609 # Ar
1901 1901 1 0.0 217.68382741130756 161.57970532130022 185.58244637454624 # Ar
1902 1902 1 0.0 557.8796458605962 452.0010642541083 398.4188372109196 # Ar
1903 1903 1 0.0 486.39889701722024 202.38625451591838 96.77432986023074 # Ar
1904 1904 1 0.0 142.26224462238451 501.18695900342544 17.153103845294634 # Ar
1905 1905 1 0.0 505.886550611011 66.64988654738464 462.5804621582781 # Ar
1906 1906 1 0.0 371.46878901778155 103.78014074646214 457.696802883021 # Ar
1907 1907 1 0.0 12.781512124945895 538.7050270831814 295.80621759411395 # Ar
1908 1908 1 0.0 32.1700629483094 225.2820576650287 281.0328785728506 # Ar
1909 1909 1 0.0 193.99045503175523 344.54514274410303 39.18825375124179 # Ar
1910 1910 1 0.0 217.97943237894944 455.31229330933047 140.47253315809385 # Ar
1911 1911 1 0.0 413.65515117696333 530.3531411673938 161.4479137237186 # Ar
1912 1912 1 0.0 83.06760764169121 459.73715740269984 523.3618236939724 # Ar
1913 1913 1 0.0 401.74861267852566 61.03115870195749 407.7701333592537 # Ar
1914 1914 1 0.0 395.3974392965762 349.56879446610867 163.60490756160783 # Ar
1915 1915 1 0.0 462.734689952095 564.072963308726 248.45213840517272 # Ar
1916 1916 1 0.0 408.22865786611277 203.86927890581052 528.9163870249696 # Ar
1917 1917 1 0.0 546.3471017449706 28.270814256615658 474.41366550283885 # Ar
1918 1918 1 0.0 409.05426938078784 105.68320194201696 459.3200881823363 # Ar
1919 1919 1 0.0 392.3343544094931 177.9771299455742 105.36693025400406 # Ar
1920 1920 1 0.0 162.99599221777487 210.99582880301114 536.7955346354119 # Ar
1921 1921 1 0.0 366.0808563750235 314.27315151738514 275.8422053955788 # Ar
1922 1922 1 0.0 444.35984351275744 193.66159694641738 419.8814352258109 # Ar
1923 1923 1 0.0 131.55468620345977 221.08625810241026 131.40846778661282 # Ar
1924 1924 1 0.0 164.45977308102303 342.1206840472702 495.84281381287053 # Ar
1925 1925 1 0.0 74.51636610596475 214.2945301633612 542.168489983307 # Ar
1926 1926 1 0.0 541.7561387434522 147.92953602315072 288.98478168247146 # Ar
1927 1927 1 0.0 102.27819197086988 407.7100173815713 449.1495296591507 # Ar
1928 1928 1 0.0 236.68872111815648 269.63299179151 232.04922754257808 # Ar
1929 1929 1 0.0 161.8365807863362 42.10172421208852 192.7819346296215 # Ar
1930 1930 1 0.0 550.7625594512631 263.04792400287363 5.162168163062849 # Ar
1931 1931 1 0.0 302.8640937894047 524.9986569456081 208.0248927289745 # Ar
1932 1932 1 0.0 276.10706125655884 29.55570698740248 303.8732759684802 # Ar
1933 1933 1 0.0 562.4720126464641 480.03461949010887 74.38729685825564 # Ar
1934 1934 1 0.0 528.3361449038076 518.4570356624428 48.56908143663599 # Ar
1935 1935 1 0.0 246.13615747101187 399.17498983153877 219.8020995335991 # Ar
1936 1936 1 0.0 215.0608201257466 63.55087238438459 497.9995389980064 # Ar
1937 1937 1 0.0 80.52219737652085 152.30045255055265 92.72095442085616 # Ar
1938 1938 1 0.0 169.49984919336185 332.7235493013838 102.99069989694966 # Ar
1939 1939 1 0.0 479.55602792365534 59.94342362933123 412.24220289006036 # Ar
1940 1940 1 0.0 75.7324877992209 435.5641529508895 471.75366994795365 # Ar
1941 1941 1 0.0 252.20635748424547 470.5994307877746 230.01269455326124 # Ar
1942 1942 1 0.0 205.65287845862198 378.0821485358888 56.76109471007278 # Ar
1943 1943 1 0.0 67.51086630737474 267.87803296322784 256.13929773371234 # Ar
1944 1944 1 0.0 62.45675407586268 232.43891879216164 56.815966261110866 # Ar
1945 1945 1 0.0 326.8043353355098 242.8382887651007 247.26780517222312 # Ar
1946 1946 1 0.0 540.4456973122452 503.7653367571141 378.10548837987466 # Ar
1947 1947 1 0.0 327.2463727644606 58.489885967981344 171.5856973030998 # Ar
1948 1948 1 0.0 45.869926880138266 194.21381566043485 79.3915610087878 # Ar
1949 1949 1 0.0 128.80039452864528 203.04742950231383 212.3393172165936 # Ar
1950 1950 1 0.0 187.24642890556268 485.911756768141 63.188177842419044 # Ar
1951 1951 1 0.0 157.18274598395342 0.17807078478592245 480.74520800204374 # Ar
1952 1952 1 0.0 384.47932026872394 359.06304821456206 319.7829321103953 # Ar
1953 1953 1 0.0 535.6237686780185 204.26942866503717 387.733420669856 # Ar
1954 1954 1 0.0 526.0025826156924 294.76190769843475 171.9843495229402 # Ar
1955 1955 1 0.0 256.62174778742184 110.85595684826662 451.2668758942268 # Ar
1956 1956 1 0.0 22.628403055266986 443.76538101464763 375.43751274297205 # Ar
1957 1957 1 0.0 136.69797869285108 193.55823235034111 131.87191919317993 # Ar
1958 1958 1 0.0 294.47110613156923 549.6968333295482 314.91115937488945 # Ar
1959 1959 1 0.0 254.02423905552084 143.92822133072664 493.99967584147544 # Ar
1960 1960 1 0.0 237.19971525697977 138.65041148453577 533.10626132771 # Ar
1961 1961 1 0.0 535.2938973828732 258.78644554529114 314.6860718178343 # Ar
1962 1962 1 0.0 457.9222545280971 104.91263392295326 264.1006142697697 # Ar
1963 1963 1 0.0 402.0882184346803 529.3500700598048 489.9831852069529 # Ar
1964 1964 1 0.0 328.4393947380023 73.63686883516164 521.7986726744406 # Ar
1965 1965 1 0.0 518.5976263613945 156.4376157695815 292.865954783096 # Ar
1966 1966 1 0.0 454.9448260162461 421.40807215898445 245.70306423588855 # Ar
1967 1967 1 0.0 248.27401943785992 281.86045847812454 180.35487172428358 # Ar
1968 1968 1 0.0 292.449407744587 66.68996308238003 53.86596756210525 # Ar
1969 1969 1 0.0 511.7623826333772 309.71635133435444 388.5142736766038 # Ar
1970 1970 1 0.0 197.7544914408719 51.305027611195065 393.41541604216644 # Ar
1971 1971 1 0.0 320.5176769060923 133.0978868748261 389.8250266594352 # Ar
1972 1972 1 0.0 54.22262956963331 254.5616244621167 79.13761225320047 # Ar
1973 1973 1 0.0 229.7195460170588 113.04531215935086 353.0731459893749 # Ar
1974 1974 1 0.0 572.1296073582562 12.611665870511787 453.26527940071094 # Ar
1975 1975 1 0.0 491.938280827691 380.8421882116398 33.730412761992206 # Ar
1976 1976 1 0.0 297.7662738337747 95.31351566856173 390.257091738217 # Ar
1977 1977 1 0.0 310.8844539448793 365.10484739218936 259.1999921268021 # Ar
1978 1978 1 0.0 234.75933821650352 1.5711259376769535 98.01443601526569 # Ar
1979 1979 1 0.0 189.725793356445 434.34351750952777 68.7010005691955 # Ar
1980 1980 1 0.0 107.82966306936056 221.77017273118102 512.129700224414 # Ar
1981 1981 1 0.0 562.2697842736445 471.4257453065936 465.9996668394262 # Ar
1982 1982 1 0.0 410.1255341721203 400.5238208282042 290.4901640637135 # Ar
1983 1983 1 0.0 117.35849288502042 475.4286398935931 191.91627753684375 # Ar
1984 1984 1 0.0 119.99807986434688 249.08353687820127 297.14307188864154 # Ar
1985 1985 1 0.0 367.7894942862517 355.58615603205925 188.27653730552356 # Ar
1986 1986 1 0.0 481.9640366330075 178.14484636086948 192.03846719933435 # Ar
1987 1987 1 0.0 4.2551827438547605 185.90603606455926 76.07077524396533 # Ar
1988 1988 1 0.0 553.4804766811347 415.1471797749556 25.467467903130235 # Ar
1989 1989 1 0.0 344.9155522549572 13.26072005201396 322.99083145148205 # Ar
1990 1990 1 0.0 317.9606872542532 444.7563487800852 26.200038001465984 # Ar
1991 1991 1 0.0 346.0399715494567 531.4702680352996 462.6819770161054 # Ar
1992 1992 1 0.0 322.08021113270763 158.74918020263448 412.67578932491824 # Ar
1993 1993 1 0.0 147.2987314667127 574.159110039009 437.0590806082245 # Ar
1994 1994 1 0.0 392.36820202346297 350.534874684822 278.86996577012775 # Ar
1995 1995 1 0.0 478.8887771251673 52.556837148659056 151.27909588153508 # Ar
1996 1996 1 0.0 403.6299165713915 318.3194548948434 62.24934596855757 # Ar
1997 1997 1 0.0 551.0000348239258 505.6468545449781 475.96113908456243 # Ar
1998 1998 1 0.0 148.28370741033243 153.48966830265152 152.12995012795665 # Ar
1999 1999 1 0.0 582.398494823047 19.64124587995686 261.2191538414797 # Ar
2000 2000 1 0.0 24.701701886957142 101.40378223034489 528.5471612582057 # Ar
