LAMMPS data file -- atom_style full -- generated by chemfiles
150 atoms
0 bonds
0 angles
0 dihedrals
0 impropers
2 atom types
0 bond types
0 angle types
0 dihedral types
0 improper types
0.00000000 733.808041 xlo xhi
0.00000000 733.808041 ylo yhi
0.00000000 733.808041 zlo zhi

# Pair Coeffs
# 1 Ar
# 2 Ar+

Masses

1 39.948 # Ar
2 39.948 # Ar+

Atoms # full

1 1 1 0.0 218.40749701611958 536.1762224078074 288.3299603353919 # Ar
2 2 1 0.0 210.88399649821397 80.30847150810843 723.0894719518772 # Ar
3 3 1 0.0 13.228381004194695 169.1322062484984 255.3980639853162 # Ar
4 4 1 0.0 351.55356723284797 276.5559916037394 130.9464840610084 # Ar
5 5 1 0.0 584.6960507166614 632.5307485659021 316.54303652750156 # Ar
6 6 1 0.0 431.39788384433274 13.147351613369583 15.571181314382754 # Ar
7 7 1 0.0 415.65108273372056 403.07093562201896 382.4120183774361 # Ar
8 8 1 0.0 443.14221629373753 490.27601671999537 213.6543435868733 # Ar
9 9 1 0.0 77.56057753880127 227.90126626395036 473.46079108240957 # Ar
10 10 1 0.0 117.310007925555 629.4717260735388 74.38327878679145 # Ar
11 11 1 0.0 519.9672324144079 286.34924979074225 315.458524857215 # Ar
12 12 1 0.0 481.7300288357722 395.00645356932205 53.4724653791098 # Ar
13 13 1 0.0 308.1641258485682 153.40807410996405 87.32069754552298 # Ar
14 14 1 0.0 665.7719088488913 342.3711217643447 728.6731311137578 # Ar
15 15 1 0.0 454.2334288958198 657.839377632426 576.0862593792448 # Ar
16 16 1 0.0 608.3139881920686 202.52485436518657 97.80536929256283 # Ar
17 17 1 0.0 533.5887102776278 481.1606646247349 29.00834397249933 # Ar
18 18 1 0.0 659.4322268174741 337.89849024607275 251.43914540119954 # Ar
19 19 1 0.0 207.3119142965992 242.60075180440626 395.5619627243632 # Ar
20 20 1 0.0 1.29820959647227 458.04606833256054 613.8492450024079 # Ar
21 21 1 0.0 719.814577816749 286.9982626396131 312.92944466334075 # Ar
22 22 1 0.0 74.46786401564242 541.4746425706504 488.4035872701072 # Ar
23 23 1 0.0 668.9060874838403 92.89327854252592 227.69819798180637 # Ar
24 24 1 0.0 625.0329585322899 447.5311191978937 222.90200126864224 # Ar
25 25 1 0.0 97.65406863224095 155.27235532260647 125.09964515120018 # Ar
26 26 1 0.0 55.059398809910725 661.5295625920932 156.05456739329512 # Ar
27 27 1 0.0 144.13142135515585 13.26487164197168 122.95887887600531 # Ar
28 28 1 0.0 84.07076737843126 131.72203281914017 104.50607891494104 # Ar
29 29 1 0.0 108.49972182299774 635.8935840098458 39.13906172101866 # Ar
30 30 1 0.0 216.25153545545592 624.7428584894543 285.7866125444445 # Ar
31 31 1 0.0 147.53197227645796 164.2899992483708 457.5120306163289 # Ar
32 32 1 0.0 591.731828542744 75.482838817153 329.2523934016458 # Ar
33 33 1 0.0 426.26488221973716 434.8862235538215 315.7564048098119 # Ar
34 34 1 0.0 205.22908274839654 38.753050411405894 500.75851439199727 # Ar
35 35 1 0.0 156.321163764231 205.40232208931118 665.5501263490304 # Ar
36 36 1 0.0 535.5163204206685 72.19550315780549 536.3989897126123 # Ar
37 37 1 0.0 413.70108957089275 457.0325197346682 179.01315509767522 # Ar
38 38 1 0.0 500.5682089684746 536.1148223542704 95.71425053688236 # Ar
39 39 1 0.0 91.0232754795051 74.97765373732278 113.82029118388452 # Ar
40 40 1 0.0 13.528350326265183 485.814913090862 351.56388775334875 # Ar
41 41 1 0.0 545.7964964034187 273.65546775256087 254.0123864809562 # Ar
42 42 1 0.0 527.3227188595657 261.67588480915015 421.407430213223 # Ar
43 43 1 0.0 412.8577125856048 362.31656612721645 240.7551231044691 # Ar
44 44 1 0.0 51.31013985142402 292.2640637356374 199.71548165376973 # Ar
45 45 1 0.0 636.4696402342706 100.05484319946844 505.33016353302315 # Ar
46 46 1 0.0 702.6238673537888 546.8802999330384 506.020642829261 # Ar
47 47 1 0.0 475.9603560306706 329.5989640362127 583.0575410672178 # Ar
48 48 1 0.0 36.156213957640915 266.2663816123235 469.4317346846366 # Ar
49 49 1 0.0 373.33146055957747 645.2493224645544 537.8465526839735 # Ar
50 50 1 0.0 678.0019753766574 329.6021435262279 286.29914145499754 # Ar
51 51 1 0.0 263.75500251579456 583.627570885402 8.792167399060325 # Ar
52 52 1 0.0 453.27783723611526 609.4666910330661 60.88178013593335 # Ar
53 53 1 0.0 712.541653698144 522.8731590434388 225.28894492699598 # Ar
54 54 1 0.0 586.3541477089009 28.044873508472293 175.4755912310524 # Ar
55 55 1 0.0 296.3045808792016 355.1518801242862 412.68119602660676 # Ar
56 56 1 0.0 48.517229166705626 83.26831028632661 176.9389093215222 # Ar
57 57 1 0.0 257.8664756422628 321.24849523228386 730.2488227738756 # Ar
58 58 1 0.0 235.93153567681878 476.58918156794425 414.2178700644121 # Ar
59 59 1 0.0 592.0324822010971 329.75176712608055 135.13017207694008 # Ar
60 60 1 0.0 18.064193015731448 46.11127632919565 413.0695380283771 # Ar
61 61 1 0.0 299.6357014826549 589.664526216142 108.16441162613089 # Ar
62 62 1 0.0 612.0846709527751 13.851902154529952 151.63513860770195 # Ar
63 63 1 0.0 377.6238307834693 613.72005086245 123.06671188242174 # Ar
64 64 1 0.0 674.6560041123009 274.50860002362305 354.4796574754797 # Ar
65 65 1 0.0 546.208501957555 196.78363338103247 233.49331357604137 # Ar
66 66 1 0.0 28.27651046164235 619.4761434293056 493.4138835374449 # Ar
67 67 1 0.0 22.45478316701312 610.6025861280424 263.63591486319774 # Ar
68 68 1 0.0 307.9474060970773 448.74100501543967 537.4199715023314 # Ar
69 69 1 0.0 425.8282641952062 686.9895038921172 121.49191182838571 # Ar
70 70 1 0.0 369.60867135406045 128.65233846453316 699.4908716348287 # Ar
71 71 1 0.0 6.134361538623298 66.74648464117008 166.41896372173335 # Ar
72 72 1 0.0 343.6933697731186 560.5029389794547 486.69569347268344 # Ar
73 73 1 0.0 104.7654133477519 685.8271973189436 198.1368721007 # Ar
74 74 1 0.0 501.9511866316396 604.6740665261046 550.9148440515282 # Ar
75 75 1 0.0 315.7519404879218 555.9928744214118 552.0454081242668 # Ar
76 76 1 0.0 444.0417455697653 715.3433968029063 537.2739772695647 # Ar
77 77 1 0.0 365.6111371708054 675.8539830278584 350.28025797635735 # Ar
78 78 1 0.0 48.178220967059 690.578927173375 585.7074360076851 # Ar
79 79 1 0.0 528.2465291939601 513.0032314027694 207.52997342337395 # Ar
80 80 1 0.0 204.33317437570253 95.88034294886532 620.5375955094348 # Ar
81 81 1 0.0 338.2619825749027 585.3783744233725 121.33544607932849 # Ar
82 82 1 0.0 102.51527388341698 86.02495828341381 531.9035062587462 # Ar
83 83 1 0.0 423.0623441660168 539.9685133606291 393.76157697035364 # Ar
84 84 1 0.0 589.8343207479027 676.594596849258 62.54608240037753 # Ar
85 85 1 0.0 509.5296951452388 290.0832533660829 533.1703293282451 # Ar
86 86 1 0.0 494.24100793002486 251.7674302188268 97.16526094372597 # Ar
87 87 1 0.0 190.53405667155823 309.58429857811456 422.8291547022972 # Ar
88 88 1 0.0 22.161209313825168 588.9422341518286 551.8076260704197 # Ar
89 89 1 0.0 694.0670571791999 12.080718211426626 337.0787111602674 # Ar
90 90 1 0.0 432.98049091055015 674.8730781976662 488.8773114579484 # Ar
91 91 1 0.0 300.83480514307263 445.3429848317207 703.7685700976344 # Ar
92 92 1 0.0 39.28709011625146 648.3244033611854 77.96979954799855 # Ar
93 93 1 0.0 327.3957825395034 125.04241638594613 366.1851396699791 # Ar
94 94 1 0.0 457.49164612244823 69.63061231432165 573.762670235302 # Ar
95 95 1 0.0 424.01837842269845 367.740730622323 267.1914528789861 # Ar
96 96 1 0.0 645.061212593172 655.5324717033649 486.1728338080888 # Ar
97 97 1 0.0 525.8333095608202 121.47318565473118 427.6718660998945 # Ar
98 98 1 0.0 207.40369270920098 41.062232059986634 394.22559820754697 # Ar
99 99 1 0.0 123.04664072416108 185.14958800121232 637.9053565483549 # Ar
100 100 1 0.0 603.5096522186116 615.365213071735 12.106790640477138 # Ar
101 101 1 0.0 196.50183906500155 325.3601502945078 468.95367415914956 # Ar
102 102 1 0.0 182.36436954340897 716.157075639333 68.35301428788053 # Ar
103 103 1 0.0 399.1717383979421 645.3594862205282 34.56344651314993 # Ar
104 104 1 0.0 315.7521428497842 197.69020825177313 289.268019992725 # Ar
105 105 1 0.0 19.516831352167817 518.1779430861524 335.7852731762853 # Ar
106 106 1 0.0 718.25133529956 254.81670672726793 640.8103375155763 # Ar
107 107 1 0.0 87.27157251089218 323.46102353091396 128.15048768833495 # Ar
108 108 1 0.0 72.65013895470393 717.6355797855099 690.81646880807 # Ar
109 109 1 0.0 360.0735572874168 571.0505056971305 527.4161604122901 # Ar
110 110 1 0.0 350.9242965742703 181.48759737992847 98.71082999170466 # Ar
111 111 1 0.0 34.393747288817124 248.21260688983938 57.62938912776148 # Ar
112 112 1 0.0 116.6784427697038 537.9809223113559 560.304596120154 # Ar
113 113 2 0.0 341.0808279350341 40.181485158868355 60.854104310038345 # Ar+
114 114 2 0.0 224.58256325878733 585.2788017349991 558.6816033840163 # Ar+
115 115 2 0.0 46.03638930801453 100.52905219853606 72.11850922598958 # Ar+
116 116 2 0.0 234.68035856419033 671.1380270297175 124.62898594051542 # Ar+
117 117 2 0.0 97.36303436938276 379.18627122190634 695.1685406679321 # Ar+
118 118 2 0.0 433.11115366675085 207.89201266769 618.8180162367956 # Ar+
119 119 2 0.0 676.3704977251574 215.14752837068005 670.1488444690932 # Ar+
120 120 2 0.0 425.6530609593163 291.52220340353745 648.4924962842534 # Ar+
121 121 2 0.0 400.82176121729555 277.51341373602077 239.8496196434393 # Ar+
122 122 2 0.0 208.33791225517624 205.98905440909851 424.2848078295225 # Ar+
123 123 2 0.0 64.97049236706121 617.3911255092003 255.6001510582348 # Ar+
124 124 2 0.0 44.9982208992745 114.69463542867611 693.3451711698675 # Ar+
125 125 2 0.0 382.4892123663787 34.53887740964323 261.14167861619774 # Ar+
126 126 2 0.0 641.2423937285856 720.630185696484 57.02933075781794 # Ar+
127 127 2 0.0 492.38350469296375 437.5800461820019 532.3456832360306 # Ar+
128 128 2 0.0 192.17490867959518 275.32992219157705 547.8102685276856 # Ar+
129 129 2 0.0 106.32117215139357 430.5465280204986 632.4541965163418 # Ar+
130 130 2 0.0 584.1141519178644 658.1631298317482 508.63795571565475 # Ar+
131 131 2 0.0 452.8240701447512 629.0143637296794 578.7211682169138 # Ar+
132 132 2 0.0 452.6632555204809 213.513671903642 320.1916319828019 # Ar+
133 133 2 0.0 80.72153959721777 53.01883614308048 109.47788446433414 # Ar+
134 134 2 0.0 496.079925480736 151.63635157913168 296.0105882368316 # Ar+
135 135 2 0.0 309.17831958511164 346.09787571050634 252.68733496850626 # Ar+
136 136 2 0.0 108.06808231408844 614.0588373670493 581.5409033911496 # Ar+
137 137 2 0.0 481.7134554407315 275.2821471291719 60.04047683265018 # Ar+
138 138 2 0.0 690.7065494791724 415.2212153201797 284.7224769620204 # Ar+
139 139 2 0.0 603.8338252065048 427.56573573245527 77.1244792062693 # Ar+
140 140 2 0.0 86.05409949549453 297.99011383086923 281.57703012571625 # Ar+
141 141 2 0.0 325.2135442489476 0.5928893873264466 390.12009101307297 # Ar+
142 142 2 0.0 204.29102846636576 510.7691647327704 267.2920834830957 # Ar+
143 143 2 0.0 314.9752365420173 403.55806028637096 595.0758431295719 # Ar+
144 144 2 0.0 252.18796231481213 560.8382643490316 331.0110191459054 # Ar+
145 145 2 0.0 196.82344704368265 288.8371304938691 521.697103420738 # Ar+
146 146 2 0.0 389.0921750265051 595.9882702112744 57.94358112428204 # Ar+
147 147 2 0.0 60.94972579742922 250.9973660886069 509.3918406886337 # Ar+
148 148 2 0.0 341.2670952254447 462.31618116293527 71.41137918292438 # Ar+
149 149 2 0.0 56.864841237414815 431.41666966750466 224.4302395053596 # Ar+
150 150 2 0.0 611.9269723261784 555.5165146835183 482.68012017843324 # Ar+
