LAMMPS data file -- atom_style full -- generated by chemfiles
150 atoms
0 bonds
0 angles
0 dihedrals
0 impropers
2 atom types
0 bond types
0 angle types
0 dihedral types
0 improper types
0.00000000 1393.14072 xlo xhi
0.00000000 1393.14072 ylo yhi
0.00000000 1393.14072 zlo zhi

# Pair Coeffs
# 1 Ar
# 2 Ar+

Masses

1 39.948 # Ar
2 39.948 # Ar+

Atoms # full

1 1 1 0.0 505.70584460211614 716.8040636437089 119.33863457511251 # Ar
2 2 1 0.0 1085.3620686443635 849.193404722102 749.2894445011835 # Ar
3 3 1 0.0 989.4377136077761 915.3587139015347 1282.1061982631877 # Ar
4 4 1 0.0 414.477573986866 367.9113361121769 523.052160673193 # Ar
5 5 1 0.0 587.6158541496702 819.7700199082142 771.6097511156487 # Ar
6 6 1 0.0 116.52087565671525 92.17156687181391 943.9115789117366 # Ar
7 7 1 0.0 977.9853571538778 548.6695400196842 906.2385762454028 # Ar
8 8 1 0.0 83.44233826051509 1168.2403644727506 367.75011195941596 # Ar
9 9 1 0.0 1149.187760128712 733.3555455326627 480.0681200563253 # Ar
10 10 1 0.0 607.3228892975665 160.1149681550907 278.2779583393574 # Ar
11 11 1 0.0 901.0323389253319 1228.4420880921675 396.3882605980525 # Ar
12 12 1 0.0 691.3018535700446 437.3700739934273 829.4290861352857 # Ar
13 13 1 0.0 965.0552294539772 694.5267813667416 571.6220521086536 # Ar
14 14 1 0.0 655.6965721147684 93.6053225980273 1171.9117037291066 # Ar
15 15 1 0.0 784.5237077840435 841.7924273520696 298.1913341241224 # Ar
16 16 1 0.0 1379.363617542763 14.713948632603769 630.8235287891906 # Ar
17 17 1 0.0 1390.527008527227 1027.732489371798 651.9299922029995 # Ar
18 18 1 0.0 1000.0010887794264 930.8873240559177 172.77897858779824 # Ar
19 19 1 0.0 171.03720881503247 123.76807283516371 668.4643071525722 # Ar
20 20 1 0.0 512.1143455179698 590.2676128678165 999.8529216536792 # Ar
21 21 1 0.0 1328.9360322432522 195.78806232863752 1019.1379781491642 # Ar
22 22 1 0.0 371.8610991679468 601.4229265009384 1162.1979095838876 # Ar
23 23 1 0.0 375.7360467037617 176.33326795784407 1145.293351771498 # Ar
24 24 1 0.0 1023.923099650303 521.4210950615321 99.30633211938435 # Ar
25 25 1 0.0 1096.7562555231061 1134.4616233446561 268.58652058645026 # Ar
26 26 1 0.0 305.6093780324833 27.421977190972314 379.04243722335497 # Ar
27 27 1 0.0 418.44052712234793 382.19001641833006 687.3510876841715 # Ar
28 28 1 0.0 1351.1574546451598 467.29349156448654 765.0955801490976 # Ar
29 29 1 0.0 1233.8965680708027 1090.9018119280056 234.26827857414074 # Ar
30 30 1 0.0 864.3125078084952 818.8461625460889 1134.2722934309493 # Ar
31 31 1 0.0 435.712247367465 446.82564584276287 632.7888639089716 # Ar
32 32 1 0.0 70.08389957110478 986.1873905804745 455.8124639920415 # Ar
33 33 1 0.0 293.19942395589004 1257.564461779125 581.9696380250159 # Ar
34 34 1 0.0 1389.40301837546 327.25443572067826 1345.0620942579872 # Ar
35 35 1 0.0 1047.1369346244862 162.39442587991417 1350.7874070057558 # Ar
36 36 1 0.0 1221.9070814426505 97.44473960695058 718.2174125039091 # Ar
37 37 1 0.0 152.92348483030014 460.9777096503741 839.0940621981251 # Ar
38 38 1 0.0 879.102331983781 521.5765739971067 74.91986440320494 # Ar
39 39 1 0.0 411.3878117428149 430.22040057648394 1162.4075455044956 # Ar
40 40 1 0.0 423.47032769000407 1235.0824024545875 767.3916903930092 # Ar
41 41 1 0.0 1294.0962555467902 425.8349665705148 95.06314936172464 # Ar
42 42 1 0.0 352.2396134471027 961.8644826116318 794.5584009033543 # Ar
43 43 1 0.0 1376.7844302006783 87.0377438994453 1365.771143278512 # Ar
44 44 1 0.0 193.5924069356961 118.91042697752366 82.22831081921876 # Ar
45 45 1 0.0 545.6586295877654 1312.47215405114 602.5815995847487 # Ar
46 46 1 0.0 180.77750545963443 1080.7933581131351 259.4082337535461 # Ar
47 47 1 0.0 198.08323287989484 1214.500348397651 1332.4318936562047 # Ar
48 48 1 0.0 835.7895376916333 73.95931337870698 333.09268040700493 # Ar
49 49 1 0.0 932.4855310492941 57.84117015218015 636.3957860774042 # Ar
50 50 1 0.0 956.411579307685 450.58825184812133 732.9623661613413 # Ar
51 51 1 0.0 1084.1069435377542 868.8251938275899 224.9409967343439 # Ar
52 52 1 0.0 729.4676517937514 503.551237945442 841.8939981844068 # Ar
53 53 1 0.0 304.31935121522747 584.3550594701356 528.8848283456989 # Ar
54 54 1 0.0 76.84469339309092 986.7498070049246 990.7619414841839 # Ar
55 55 1 0.0 1118.6373333649306 1319.44431701716 336.78635417560326 # Ar
56 56 1 0.0 911.7258112826167 67.10232154998388 1199.3731583416118 # Ar
57 57 1 0.0 1150.8193307319882 64.80809641137625 766.224241868409 # Ar
58 58 1 0.0 73.87448067663713 341.90636026116067 855.4455721964637 # Ar
59 59 1 0.0 1202.922678843498 507.74811555952186 763.3261229881293 # Ar
60 60 1 0.0 432.60299636953897 877.144483703107 718.6972261739018 # Ar
61 61 1 0.0 643.4006623427871 659.3402741411439 357.64827306516213 # Ar
62 62 1 0.0 1299.6612963722355 1219.105184194885 101.83408325675363 # Ar
63 63 1 0.0 80.38347048491948 488.32446221296544 920.1178852768168 # Ar
64 64 1 0.0 621.8947921127806 1357.0396187934207 1269.025504961416 # Ar
65 65 1 0.0 361.9575029327004 1370.3918100257883 856.1614702214519 # Ar
66 66 1 0.0 620.387938652576 617.8895923302199 346.8251956877272 # Ar
67 67 1 0.0 419.2463174122008 208.59819207490065 1010.1156247089995 # Ar
68 68 1 0.0 1374.9732907862726 291.6061995743452 679.0827750050057 # Ar
69 69 1 0.0 1242.270774396984 108.92717962678263 479.7946115322286 # Ar
70 70 1 0.0 315.03420628647245 646.8492990999656 257.39206005231694 # Ar
71 71 1 0.0 541.4083381601604 114.54805759838695 802.9424924987511 # Ar
72 72 1 0.0 357.00669293167186 707.8247653423654 1332.653406597678 # Ar
73 73 1 0.0 1183.9997514214413 1071.8675443820837 747.2236087164346 # Ar
74 74 2 0.0 899.1839578708682 1271.041728164326 1356.6240247610995 # Ar+
75 75 2 0.0 1281.2995553508342 1306.9971515512955 7.335708604672931 # Ar+
76 76 2 0.0 854.8833782555909 805.0388718435836 1232.1513753673655 # Ar+
77 77 2 0.0 1348.37432594573 1319.57230526401 1094.1910625190485 # Ar+
78 78 2 0.0 84.55866457290378 1077.8303333862211 1298.3253717092036 # Ar+
79 79 2 0.0 1199.4124750548638 1034.2903580401364 67.9564305646783 # Ar+
80 80 2 0.0 897.468739045951 762.5251229263499 613.2952957585709 # Ar+
81 81 2 0.0 281.59719394508033 375.0446708818676 406.0527129236649 # Ar+
82 82 2 0.0 745.9569665562883 881.7908519692903 646.479674279559 # Ar+
83 83 2 0.0 244.10561387355986 821.6327522992391 41.02267126328328 # Ar+
84 84 2 0.0 419.97778864366245 1221.8160220061955 300.9540448437775 # Ar+
85 85 2 0.0 825.4144586100381 867.7371825621193 503.85104662056835 # Ar+
86 86 2 0.0 353.4465704623272 663.5987196434148 986.518030948345 # Ar+
87 87 2 0.0 858.036828419714 414.2045220985327 937.9238612191224 # Ar+
88 88 2 0.0 274.2437484835451 437.07857613054887 790.152729183013 # Ar+
89 89 2 0.0 395.68993266907773 974.8982866770483 326.7709138547099 # Ar+
90 90 2 0.0 1248.5860506359936 14.21940996151303 829.1684662286026 # Ar+
91 91 2 0.0 1291.0759075330402 1269.8844930181665 534.7162877574507 # Ar+
92 92 2 0.0 217.09796830591995 1194.3136722849829 487.4199603772204 # Ar+
93 93 2 0.0 711.3839083955398 422.96566983348487 946.128862040695 # Ar+
94 94 2 0.0 113.00052378663078 190.5174893597026 1020.384120145616 # Ar+
95 95 2 0.0 810.5174911532496 593.8384303472953 1013.728700276908 # Ar+
96 96 2 0.0 655.961953199496 135.00581697949434 562.7184742115526 # Ar+
97 97 2 0.0 884.7636287853513 1076.8824379702467 436.73327801842817 # Ar+
98 98 2 0.0 1139.7515266467371 618.6806981086457 749.6286348159994 # Ar+
99 99 2 0.0 448.2781728867697 51.296198717787426 1340.0906558774827 # Ar+
100 100 2 0.0 773.9376003205049 1291.1848489904821 563.9876985407651 # Ar+
101 101 2 0.0 13.809309237752649 468.11556802067616 945.2483606297535 # Ar+
102 102 2 0.0 206.70598975325868 424.2243400052526 517.8682510095051 # Ar+
103 103 2 0.0 740.5376395379902 540.6370682989622 733.2699606484006 # Ar+
104 104 2 0.0 410.9653750511401 84.70228033221528 771.6068949065532 # Ar+
105 105 2 0.0 768.6688771002973 366.25120915575974 1131.9905528466554 # Ar+
106 106 2 0.0 67.50952864644749 818.6713626990404 880.3019395036075 # Ar+
107 107 2 0.0 550.8710044403553 1050.3125175092966 93.83594155567236 # Ar+
108 108 2 0.0 1284.937588988968 750.5965908743398 876.6348787412699 # Ar+
109 109 2 0.0 747.7630607874311 1204.3079059883776 1121.1990532836494 # Ar+
110 110 2 0.0 562.1306978299824 1385.4030262366014 1308.5755998421637 # Ar+
111 111 2 0.0 731.1529064473785 288.0256400897968 486.8960926091119 # Ar+
112 112 2 0.0 73.90516989108403 1210.666846572075 716.0717201807875 # Ar+
113 113 2 0.0 1094.3100007910048 1081.3220891021301 403.70106891988115 # Ar+
114 114 2 0.0 425.67044559568336 57.64911504177598 260.8763971249005 # Ar+
115 115 2 0.0 1125.099490339982 435.67594762295306 11.879755312480368 # Ar+
116 116 2 0.0 480.27021642534106 1326.1479379967618 214.37106293004967 # Ar+
117 117 2 0.0 762.7281096265608 1331.7815283771693 84.56256649710907 # Ar+
118 118 2 0.0 1191.4921887113792 84.23194137676529 1049.454837135607 # Ar+
119 119 2 0.0 639.7816072412761 1042.7326834219898 262.8533424137191 # Ar+
120 120 2 0.0 699.0507039036759 467.21938723117364 204.75947296295504 # Ar+
121 121 2 0.0 642.2084053492893 750.1455644995551 1303.6543599897013 # Ar+
122 122 2 0.0 229.9060240442725 415.11433684048615 1222.6328628012864 # Ar+
123 123 2 0.0 367.0664201309482 761.7002268240393 604.3495878961273 # Ar+
124 124 2 0.0 744.2144479969546 1134.3606129763264 768.2332166416298 # Ar+
125 125 2 0.0 387.51584630959576 69.24877649094154 761.5429958568917 # Ar+
126 126 2 0.0 1012.5156688169096 1036.5688515407442 1189.1301285139025 # Ar+
127 127 2 0.0 757.8073256169237 607.6898202350267 762.4608003149431 # Ar+
128 128 2 0.0 90.96584329455821 832.156754525593 111.61950736811437 # Ar+
129 129 2 0.0 28.898549442882086 331.9080217756996 633.1122051454029 # Ar+
130 130 2 0.0 1217.2242255279227 768.2315237125381 334.1912513398742 # Ar+
131 131 2 0.0 1103.9678763593752 1089.2717533466184 1246.0716566735011 # Ar+
132 132 2 0.0 1023.9475352752399 472.69780307480073 539.1493442706003 # Ar+
133 133 2 0.0 216.40242894414126 223.55649091592156 463.87295170832874 # Ar+
134 134 2 0.0 294.0686701713851 764.2246801496578 1257.2600170643268 # Ar+
135 135 2 0.0 1006.7796530772729 857.068787689548 1031.1627316911058 # Ar+
136 136 2 0.0 110.76825647313858 442.6530922204606 515.7225002973084 # Ar+
137 137 2 0.0 1217.109626335377 639.0112372253593 430.45106200498566 # Ar+
138 138 2 0.0 697.4941416866704 467.7810888703369 437.7710709525272 # Ar+
139 139 2 0.0 858.2715283855958 986.7150923381855 535.3732932077525 # Ar+
140 140 2 0.0 1065.563171940659 1149.614573252694 889.0992525956003 # Ar+
141 141 2 0.0 414.83313565772426 551.9491185743287 697.4582099098874 # Ar+
142 142 2 0.0 1168.054024646357 698.5666991168015 822.9841089422443 # Ar+
143 143 2 0.0 364.7132351133017 408.8853387884085 604.7607047555676 # Ar+
144 144 2 0.0 102.62881828716476 106.22982615977052 27.89349090523273 # Ar+
145 145 2 0.0 660.8058934290322 780.2520687332586 899.352189873405 # Ar+
146 146 2 0.0 799.8207016914556 145.6502037870005 1210.1776451588655 # Ar+
147 147 2 0.0 455.46367298800925 992.7098727524412 278.466820162509 # Ar+
148 148 2 0.0 679.9890553495444 486.1822980613463 342.9167011087487 # Ar+
149 149 2 0.0 212.1433407238351 1097.810463866536 1142.2900304973102 # Ar+
150 150 2 0.0 992.1743421393276 224.71456758538648 1233.9772207579235 # Ar+
