LAMMPS data file -- atom_style full -- generated by chemfiles
150 atoms
0 bonds
0 angles
0 dihedrals
0 impropers
2 atom types
0 bond types
0 angle types
0 dihedral types
0 improper types
0.00000000 1393.14072 xlo xhi
0.00000000 1393.14072 ylo yhi
0.00000000 1393.14072 zlo zhi

# Pair Coeffs
# 1 Ar
# 2 Ar+

Masses

1 39.948 # Ar
2 39.948 # Ar+

Atoms # full

1 1 1 0.0 640.9799086168746 1082.985832510276 1273.844031990002 # Ar
2 2 1 0.0 1274.1317517852856 1159.2410980437253 1121.0477389275939 # Ar
3 3 1 0.0 588.7352715679181 1211.6777138417526 282.48418546189305 # Ar
4 4 1 0.0 1185.3426799946549 206.4443739411734 684.6146425705434 # Ar
5 5 1 0.0 405.4767431508116 858.5474765445795 658.1199161133786 # Ar
6 6 1 0.0 842.0730156464459 902.8771717415863 1033.7877352604735 # Ar
7 7 1 0.0 659.6239375978604 1126.9306758589246 223.50695310446048 # Ar
8 8 1 0.0 1111.7750733880528 24.812561871854427 157.7205356135202 # Ar
9 9 1 0.0 1343.3124943311923 1270.002116048703 1035.2304547911988 # Ar
10 10 1 0.0 878.9875292527232 498.27335272721785 691.2641990184067 # Ar
11 11 1 0.0 22.1829231776844 18.853426771075434 484.63867334504164 # Ar
12 12 1 0.0 1377.8643924425935 921.5202643703549 1173.4702652964593 # Ar
13 13 1 0.0 874.4885802424966 931.7766936754153 738.0906356537861 # Ar
14 14 1 0.0 302.1764356687927 102.71072749207761 452.42748482937986 # Ar
15 15 1 0.0 1159.235764459438 144.71895372485244 496.1340883956126 # Ar
16 16 1 0.0 37.53668570955642 857.0216515549148 991.8087455112743 # Ar
17 17 1 0.0 397.5167568312254 935.120964251075 787.5072193117027 # Ar
18 18 1 0.0 179.26271281287222 1157.5065116712271 428.16396471282167 # Ar
19 19 1 0.0 1028.8497192879083 760.7348402192582 541.0710017542907 # Ar
20 20 1 0.0 82.98989377313478 239.44709810592593 920.5660011794298 # Ar
21 21 1 0.0 852.6876527288216 626.9147423375333 562.5918880244913 # Ar
22 22 1 0.0 314.76251172621795 1079.0059107281113 1202.7609183724799 # Ar
23 23 1 0.0 1334.56438718251 353.70151608633427 263.38917049259936 # Ar
24 24 1 0.0 105.92678275527605 274.41121623999595 1365.270382507785 # Ar
25 25 1 0.0 1348.6076067699225 1143.6821124077765 857.6318726267715 # Ar
26 26 1 0.0 99.17513491235287 542.1102588727571 47.69205546322142 # Ar
27 27 1 0.0 103.84507889498637 430.9117493263314 1118.1320507884548 # Ar
28 28 1 0.0 1331.495991186461 128.55227373338076 431.88425663110763 # Ar
29 29 1 0.0 815.0911523011856 164.61795842693104 81.65900460418575 # Ar
30 30 1 0.0 120.375595867613 538.4323067186851 244.13002784010862 # Ar
31 31 1 0.0 710.7132280831739 820.9134193317105 1261.7429832675525 # Ar
32 32 1 0.0 1272.3397281648888 1104.6251871934867 1324.611137417157 # Ar
33 33 1 0.0 1085.614291366301 906.9569179741658 534.9947563223016 # Ar
34 34 1 0.0 98.76253329811466 376.2755035419016 920.0588721828526 # Ar
35 35 1 0.0 1218.7151676079707 271.7147033039036 1070.8150308154497 # Ar
36 36 1 0.0 1245.7510959905753 654.0414305288541 9.348495542483146 # Ar
37 37 1 0.0 289.82529423435295 846.540553760622 110.77728571290254 # Ar
38 38 1 0.0 964.0174700246818 1093.7252456869555 1051.748102557138 # Ar
39 39 1 0.0 248.2399367744409 137.37688165905595 1165.1272962145945 # Ar
40 40 1 0.0 788.0137628340204 84.80342227182207 174.6454247859845 # Ar
41 41 1 0.0 288.87208683023164 887.0166566701782 1220.2010828951359 # Ar
42 42 1 0.0 1184.4574404096845 745.0334603083695 259.5378549539594 # Ar
43 43 1 0.0 746.8929875303179 632.6317892010021 597.0088831675916 # Ar
44 44 1 0.0 599.0636449930104 853.8382430687127 937.0551194544947 # Ar
45 45 1 0.0 1045.567491528458 792.1657326974029 863.3554791838864 # Ar
46 46 1 0.0 276.2079690206433 692.658859689741 1007.1913859320978 # Ar
47 47 1 0.0 134.60083496556865 135.7616039989906 237.032874400539 # Ar
48 48 1 0.0 110.67886628010575 367.52227983728915 1044.3835877898298 # Ar
49 49 1 0.0 142.2350085012897 969.195981239166 385.9577041574501 # Ar
50 50 1 0.0 212.71615817486088 877.5033204048781 88.45794202929984 # Ar
51 51 1 0.0 664.0454630344344 499.1725000152096 96.90649988122273 # Ar
52 52 1 0.0 717.0113592639348 1385.1907155493268 1056.4707288725651 # Ar
53 53 1 0.0 1174.3581802841932 331.6168835073007 754.4786204731608 # Ar
54 54 1 0.0 1062.3827715496043 620.8001802085694 350.7088389677585 # Ar
55 55 1 0.0 115.279135400568 980.2769835371731 248.5458197487272 # Ar
56 56 1 0.0 468.6881879132273 1236.4219728807889 231.95022776275593 # Ar
57 57 1 0.0 153.83679757609224 460.70168381630856 1370.6637432907455 # Ar
58 58 1 0.0 81.86346872949001 884.8704072699451 1138.9448053733747 # Ar
59 59 1 0.0 857.3445642824029 336.8366902152003 1002.5023027398603 # Ar
60 60 1 0.0 444.3501941748179 177.4916826848278 1245.8225419842825 # Ar
61 61 1 0.0 306.556950297063 892.1660015912868 216.89377116166898 # Ar
62 62 1 0.0 1197.7531760675447 774.012368145334 1046.5714496530657 # Ar
63 63 1 0.0 760.4616006509422 561.5198865245653 976.8664369906146 # Ar
64 64 1 0.0 382.9604541122295 1390.3858667191478 745.3375375050863 # Ar
65 65 1 0.0 333.23833792043973 742.7692559600031 366.6914566857729 # Ar
66 66 1 0.0 405.72974023297695 1331.1983096520746 565.814567559729 # Ar
67 67 1 0.0 537.5333914204737 1200.1753038794623 64.71669417207652 # Ar
68 68 1 0.0 1029.1026393936884 715.4861695980594 683.6696718598014 # Ar
69 69 1 0.0 822.9692670492149 417.9235470697129 403.3766479919206 # Ar
70 70 1 0.0 709.6492840239574 1219.5435031015334 549.4574547907766 # Ar
71 71 1 0.0 1096.3515772427313 1066.9479825120254 1085.282829197021 # Ar
72 72 1 0.0 225.15606368474 349.0933387746894 1075.9775441605043 # Ar
73 73 1 0.0 240.83972149741464 147.5513987488542 833.5810709166259 # Ar
74 74 2 0.0 1136.5939935003344 1283.0184342656223 894.1946689089752 # Ar+
75 75 2 0.0 252.98070769676008 596.5741998751736 1256.603177736551 # Ar+
76 76 2 0.0 507.3517454827693 1377.5046415503728 372.5330870850883 # Ar+
77 77 2 0.0 856.1151736129076 782.8045322386037 1334.8701815412398 # Ar+
78 78 2 0.0 1358.8098972938342 483.45516151866923 1391.3688329081494 # Ar+
79 79 2 0.0 713.8111830586885 618.0456348630483 912.3757140087685 # Ar+
80 80 2 0.0 122.71513252365493 879.633472038161 83.26132096870164 # Ar+
81 81 2 0.0 1255.0612291066486 132.68083687519328 1385.577298759428 # Ar+
82 82 2 0.0 727.6436390561589 142.22118732882006 1118.4939221967918 # Ar+
83 83 2 0.0 1375.9426332592143 106.3623033640307 201.4891063059124 # Ar+
84 84 2 0.0 812.9906085644428 934.4638091875748 940.6966209189518 # Ar+
85 85 2 0.0 935.0459211392895 869.7415100148509 399.7167457944219 # Ar+
86 86 2 0.0 1103.3133041282606 331.60853105661926 296.78705862631654 # Ar+
87 87 2 0.0 1160.3734004130065 825.2222242016974 373.09847132164674 # Ar+
88 88 2 0.0 89.7955157114366 630.3187423473837 832.265495414587 # Ar+
89 89 2 0.0 178.1081243274715 510.41230647842445 11.437504521468528 # Ar+
90 90 2 0.0 1119.4348746881071 1353.54287015408 731.6260156870701 # Ar+
91 91 2 0.0 1177.8365204575803 808.4001674301471 1392.5232601609323 # Ar+
92 92 2 0.0 1252.1516358640906 405.88161257741683 25.94054253843568 # Ar+
93 93 2 0.0 1382.3410910200707 681.3266773216942 1000.2679611830436 # Ar+
94 94 2 0.0 229.7219526875223 1380.2674174203162 218.61584419189037 # Ar+
95 95 2 0.0 335.99823491982977 1358.9399481563064 1139.1864817040537 # Ar+
96 96 2 0.0 253.82985953337334 502.5636272155077 619.6631567009952 # Ar+
97 97 2 0.0 719.290166661616 1054.898955443335 961.912659235694 # Ar+
98 98 2 0.0 788.3867922409715 440.7697703101021 1031.9432047485645 # Ar+
99 99 2 0.0 535.0909800894586 446.61388030923644 885.8357227668781 # Ar+
100 100 2 0.0 130.44451603831217 582.7758709260764 465.1981636120758 # Ar+
101 101 2 0.0 114.68588370194814 910.44149588285 838.297502923628 # Ar+
102 102 2 0.0 955.300089595106 1377.5890239600978 909.6759452280342 # Ar+
103 103 2 0.0 487.31512806867556 663.7398283166563 378.6145245325008 # Ar+
104 104 2 0.0 265.25062922042525 893.3013164334403 988.0854408424535 # Ar+
105 105 2 0.0 1057.478405163835 349.23821392868524 1218.246722749344 # Ar+
106 106 2 0.0 133.8774958584082 131.80392048566796 38.394266037628725 # Ar+
107 107 2 0.0 1018.4203694636008 103.52434089484777 1175.4803052215611 # Ar+
108 108 2 0.0 288.53745198224055 1129.7005422955879 670.9090039761677 # Ar+
109 109 2 0.0 328.15264634765924 468.21386906719187 731.0182516184454 # Ar+
110 110 2 0.0 70.89267647713923 631.3203363189176 1182.6396558504841 # Ar+
111 111 2 0.0 821.8954884165518 1331.8356681652351 235.49114386066572 # Ar+
112 112 2 0.0 870.7364572339959 15.334651914258377 473.8052725933985 # Ar+
113 113 2 0.0 100.58927800060559 99.66841110635585 1292.1325818153719 # Ar+
114 114 2 0.0 977.1040407190794 277.2765719585689 484.09625944927683 # Ar+
115 115 2 0.0 1264.7633179658676 819.1900178195264 1066.7873474387438 # Ar+
116 116 2 0.0 1375.7755085743886 52.87178121678497 179.41276420077244 # Ar+
117 117 2 0.0 442.08599464619715 973.8974487416989 36.05610082622129 # Ar+
118 118 2 0.0 747.6981776965301 212.07555439752326 664.2903320458191 # Ar+
119 119 2 0.0 67.48770629029796 811.7225552692138 1121.7090603949246 # Ar+
120 120 2 0.0 1141.4914281242773 1149.0699419357422 261.0848115774236 # Ar+
121 121 2 0.0 501.758626368035 442.62697087659797 784.6762637073432 # Ar+
122 122 2 0.0 519.2376871262411 1307.4408868782173 434.26510101667907 # Ar+
123 123 2 0.0 870.9235936051562 523.1225697569407 1166.9840267639736 # Ar+
124 124 2 0.0 972.1040305961901 1130.2791137788386 441.6571402464083 # Ar+
125 125 2 0.0 580.5641243449559 510.73512021007906 1226.3581333658035 # Ar+
126 126 2 0.0 188.37411899367817 112.62947709489808 1007.092372955234 # Ar+
127 127 2 0.0 1064.372075428921 652.5559612342215 295.4808881859962 # Ar+
128 128 2 0.0 193.784271159445 614.8198840570999 1076.2497934277399 # Ar+
129 129 2 0.0 512.1486433962456 89.39712656044061 623.6009388363115 # Ar+
130 130 2 0.0 764.6300149234073 1368.9979070148736 1016.6693363470816 # Ar+
131 131 2 0.0 563.7750716761188 296.9493635941296 1228.6127928531926 # Ar+
132 132 2 0.0 665.7165428481472 1104.7404006626 234.88921265499494 # Ar+
133 133 2 0.0 846.622039559841 752.8525787097806 185.25127120781016 # Ar+
134 134 2 0.0 179.68229683460413 1301.39390243346 461.16706845039533 # Ar+
135 135 2 0.0 343.2317208449244 778.2417782024231 1342.8776674701612 # Ar+
136 136 2 0.0 890.6548960284789 176.68013416524545 1275.208995177481 # Ar+
137 137 2 0.0 84.70133097086914 403.2787181080858 1377.9762446187933 # Ar+
138 138 2 0.0 603.3921366844968 1027.8049219532036 470.23778760830925 # Ar+
139 139 2 0.0 259.9270620543302 694.7365155193969 1067.6048276944039 # Ar+
140 140 2 0.0 1030.0616675501567 413.8107029360532 293.2865317225983 # Ar+
141 141 2 0.0 867.0438826581469 946.8500983446419 651.6447492303054 # Ar+
142 142 2 0.0 1147.4947712524217 995.8737089737571 4.912437465796604 # Ar+
143 143 2 0.0 848.6905024377102 857.4054179148125 551.7648000801347 # Ar+
144 144 2 0.0 599.837346171974 1047.0315732653862 1210.2617497702672 # Ar+
145 145 2 0.0 389.11277211414387 1345.312044186962 1209.0156178451196 # Ar+
146 146 2 0.0 571.9942444472539 686.754496711062 1272.7539473879185 # Ar+
147 147 2 0.0 439.6561413128114 748.65961184861 1227.0666083754677 # Ar+
148 148 2 0.0 1312.0055491787837 855.6554585720784 1372.1396598548522 # Ar+
149 149 2 0.0 1106.4909271840174 310.620385126611 1228.4395891918111 # Ar+
150 150 2 0.0 779.0683616460369 404.80188190280086 1049.3116072280843 # Ar+
