LAMMPS data file -- atom_style full -- generated by chemfiles
150 atoms
0 bonds
0 angles
0 dihedrals
0 impropers
2 atom types
0 bond types
0 angle types
0 dihedral types
0 improper types
0.00000000 958.758975 xlo xhi
0.00000000 958.758975 ylo yhi
0.00000000 958.758975 zlo zhi

# Pair Coeffs
# 1 Ar
# 2 Ar+

Masses

1 39.948 # Ar
2 39.948 # Ar+

Atoms # full

1 1 1 0.0 385.3512139661745 67.63585097662516 839.052133700465 # Ar
2 2 1 0.0 290.30083809971563 485.7315973568489 866.5943595212411 # Ar
3 3 1 0.0 109.44920860779906 248.5243853533828 112.44166062499914 # Ar
4 4 1 0.0 857.3911023493945 922.6296352372331 602.6259594358985 # Ar
5 5 1 0.0 456.6741152041528 797.3454526794153 709.9998623779043 # Ar
6 6 1 0.0 461.5855167991183 604.5075513894158 50.56366587407628 # Ar
7 7 1 0.0 627.146162184542 675.704808890586 600.4336307837281 # Ar
8 8 1 0.0 883.7449906493273 2.0709587950365678 162.0391692114025 # Ar
9 9 1 0.0 734.6206059731218 798.7132521440479 120.14344863567074 # Ar
10 10 1 0.0 860.5429250093209 821.326558351457 688.2228574104848 # Ar
11 11 1 0.0 217.2056160244613 602.5685627641113 350.12545555431365 # Ar
12 12 1 0.0 631.0919020317888 907.3162670827808 783.7194134283842 # Ar
13 13 1 0.0 488.78723043466294 218.63132515371655 809.9746951899125 # Ar
14 14 1 0.0 36.5306366892156 874.2208463848818 485.7577615147977 # Ar
15 15 1 0.0 679.0266490162537 526.8429539126278 36.75049802625635 # Ar
16 16 1 0.0 425.2751440125685 479.62704944157935 200.25399580756556 # Ar
17 17 1 0.0 784.2131489249566 821.0650845239304 539.8817034322911 # Ar
18 18 1 0.0 593.2438584346371 558.3078734005763 69.817826225039 # Ar
19 19 1 0.0 129.2037473892641 611.8461659551406 903.2381553499887 # Ar
20 20 1 0.0 494.9637074288591 257.0080549649916 535.2597396183943 # Ar
21 21 1 0.0 66.30293047210235 190.45045478580207 516.0161454050873 # Ar
22 22 1 0.0 762.4451809902702 199.91138039295103 138.0601458807995 # Ar
23 23 1 0.0 530.2488226744075 677.5690918228564 944.469863783921 # Ar
24 24 1 0.0 308.72204398620914 783.2414061770511 391.69127746437977 # Ar
25 25 1 0.0 199.3843649966679 157.8753877926195 206.94521299509765 # Ar
26 26 1 0.0 767.3876540493716 596.0108961855129 580.2954018012176 # Ar
27 27 1 0.0 360.9816553639307 650.4106383154685 297.0259403525593 # Ar
28 28 1 0.0 354.1577637779879 200.49514639658244 693.2569274875492 # Ar
29 29 1 0.0 169.06201693998767 124.77290906908273 377.45493521987936 # Ar
30 30 1 0.0 200.36801568263098 633.3001717540438 178.72429614558988 # Ar
31 31 1 0.0 181.9061649938683 598.8588017819276 892.9716017394084 # Ar
32 32 1 0.0 135.04879703379785 350.49332217602904 636.7854995159616 # Ar
33 33 1 0.0 916.1539103726154 763.5514049531994 544.3219975776536 # Ar
34 34 1 0.0 296.9497107494927 926.0788039803232 322.4881873675852 # Ar
35 35 1 0.0 600.6665048741842 658.1566476280152 602.6146874342918 # Ar
36 36 1 0.0 204.04397113415772 868.1129146127167 816.1784836730083 # Ar
37 37 1 0.0 956.2470326568753 360.03413827931297 181.13660995181232 # Ar
38 38 1 0.0 48.90542064069809 205.61380032846424 445.55093057971203 # Ar
39 39 1 0.0 424.32032334424485 909.7101611749498 648.6761153234316 # Ar
40 40 1 0.0 799.2080462731373 110.04053025493191 150.90660297201853 # Ar
41 41 1 0.0 774.1150429223723 287.9096112934009 612.2321909888603 # Ar
42 42 1 0.0 891.3080651576363 441.42320638305694 478.7550417227998 # Ar
43 43 1 0.0 109.40284993079428 207.7173045023531 241.602732740314 # Ar
44 44 1 0.0 715.0438260517117 128.9503892876688 836.0900837566735 # Ar
45 45 1 0.0 17.00349811104588 391.36702685880584 819.6173488495003 # Ar
46 46 1 0.0 700.7806727025351 411.531890609081 177.18564865214583 # Ar
47 47 1 0.0 79.732200905296 269.82728068526126 168.77129152146583 # Ar
48 48 1 0.0 833.7037794880448 312.20708634696774 882.9979915957379 # Ar
49 49 1 0.0 455.15628250527277 583.4606765693449 338.7943157047155 # Ar
50 50 1 0.0 847.7847526835783 532.3333436349947 197.50386344415193 # Ar
51 51 1 0.0 66.77963947905279 538.2655985159669 680.2222319286312 # Ar
52 52 1 0.0 374.39946599601166 16.482793669727325 557.7188669516344 # Ar
53 53 1 0.0 746.3234610203738 424.30823071477755 914.7133740471855 # Ar
54 54 1 0.0 900.245852502691 671.9157976171716 10.460369485372084 # Ar
55 55 1 0.0 265.1743416579498 62.33031934943692 735.522898273688 # Ar
56 56 1 0.0 378.23886728860003 275.89572829091213 107.82069186858283 # Ar
57 57 1 0.0 692.7687487297164 684.8811363990086 767.3682841114619 # Ar
58 58 1 0.0 144.14146834639658 213.1827445186419 662.0687921152914 # Ar
59 59 1 0.0 418.64467465579514 411.40564330600535 199.07321676908205 # Ar
60 60 1 0.0 76.95548364162309 373.7633441389194 544.4136219952958 # Ar
61 61 1 0.0 412.97774791844586 19.10337568489404 745.120257094115 # Ar
62 62 1 0.0 228.77672047091323 186.25862482468483 678.2741985971194 # Ar
63 63 1 0.0 670.2011654754182 759.0212353555926 391.5787592339147 # Ar
64 64 1 0.0 564.8725390159982 389.42122451890253 607.2022768910173 # Ar
65 65 1 0.0 468.5535773785458 879.3521999368883 464.1144944390078 # Ar
66 66 1 0.0 279.7639102873648 734.2857149200097 887.0913914134072 # Ar
67 67 1 0.0 614.1941721048726 656.1524753027701 430.2860094810862 # Ar
68 68 1 0.0 238.03268724398785 911.2683445291227 719.757046108606 # Ar
69 69 1 0.0 952.6769331776546 843.8804281575804 850.9050884342967 # Ar
70 70 1 0.0 329.3002093263624 649.9650402107496 846.5359089094445 # Ar
71 71 1 0.0 150.10731714059796 953.4863378215023 467.9686779940624 # Ar
72 72 1 0.0 172.87412934819994 548.8487828959028 504.0949944460426 # Ar
73 73 1 0.0 529.081040762346 143.20968449082838 203.4760850498307 # Ar
74 74 1 0.0 278.7776543277603 355.4747170802178 335.9459129725126 # Ar
75 75 1 0.0 489.7046477886415 817.9809784333858 358.2288025238697 # Ar
76 76 1 0.0 321.8671707746955 944.8647474729477 250.38675627428697 # Ar
77 77 1 0.0 129.3127662372515 369.5084268389899 373.5736509395865 # Ar
78 78 1 0.0 802.0033163116885 839.2160551047212 81.7616311823526 # Ar
79 79 1 0.0 494.6030646591673 205.98167657666139 331.46436659358005 # Ar
80 80 1 0.0 207.95659925274632 939.5089928663353 62.08967495103775 # Ar
81 81 1 0.0 650.0271851047459 23.60787381731785 311.5781813661316 # Ar
82 82 1 0.0 866.1745936177509 869.9807116649876 303.4329361526381 # Ar
83 83 1 0.0 327.10175039846064 176.2289496292038 859.6734686836563 # Ar
84 84 1 0.0 580.423224121125 184.95986474483456 259.6296356680501 # Ar
85 85 1 0.0 826.1165404962115 929.8020104352822 696.8587886713008 # Ar
86 86 1 0.0 652.7323595419275 489.61471534046746 151.7601233052454 # Ar
87 87 1 0.0 256.66232906903605 143.50137011991436 454.5774299403693 # Ar
88 88 1 0.0 426.14932399076883 210.84912757783113 738.8728428800617 # Ar
89 89 1 0.0 871.0467826388173 143.1822669754099 670.6921018598421 # Ar
90 90 1 0.0 501.18117013294585 700.7784795211234 256.0007419387661 # Ar
91 91 1 0.0 211.35406279509087 623.9398221475391 348.9771257171125 # Ar
92 92 1 0.0 481.93217608732135 601.0170252536901 611.1883943712315 # Ar
93 93 1 0.0 864.941491773779 876.8765251362935 188.61567117683396 # Ar
94 94 1 0.0 530.0757344313533 541.7293677564696 261.4840653286761 # Ar
95 95 1 0.0 867.1922035290759 114.0379879318471 439.63839431371844 # Ar
96 96 1 0.0 582.3980448196023 31.13324059850833 590.4383744836206 # Ar
97 97 1 0.0 207.77558195698342 731.8391536691194 114.5475433556031 # Ar
98 98 1 0.0 262.62081145555265 227.8230446916509 682.733861588012 # Ar
99 99 1 0.0 918.6963382901124 725.3739416935612 764.7888060966009 # Ar
100 100 1 0.0 84.32981995815521 897.6152102754698 663.3279774974709 # Ar
101 101 1 0.0 640.4730667926918 208.04667238926584 433.5017614878252 # Ar
102 102 2 0.0 551.9482684826262 664.1798992285587 251.62333603608235 # Ar+
103 103 2 0.0 226.04045364680246 765.8217014562391 104.86592974039476 # Ar+
104 104 2 0.0 533.11108939331 80.32003408589532 692.0261558691105 # Ar+
105 105 2 0.0 637.6869466969301 348.2643977614548 108.37504271588045 # Ar+
106 106 2 0.0 829.0120834907393 940.3918870766468 594.6466563618468 # Ar+
107 107 2 0.0 290.2175225395672 410.34471717113087 328.7458550348806 # Ar+
108 108 2 0.0 114.44153364367733 133.67964970609964 861.85935327993 # Ar+
109 109 2 0.0 950.1576125002149 346.4275631723015 579.0715246726917 # Ar+
110 110 2 0.0 355.8167497663225 387.7029034864856 726.8664598678718 # Ar+
111 111 2 0.0 90.63407980616576 587.7584622964001 232.58293819905956 # Ar+
112 112 2 0.0 635.5856460685419 908.3231461829579 503.82055312834615 # Ar+
113 113 2 0.0 730.6520190030466 405.05715575461574 796.4671200045304 # Ar+
114 114 2 0.0 814.1377980610628 758.463259114324 334.6901869863833 # Ar+
115 115 2 0.0 221.85892024374567 210.4700951710833 401.62090723930766 # Ar+
116 116 2 0.0 411.04416768765384 701.5101863969447 550.3736034287926 # Ar+
117 117 2 0.0 540.4671638677173 72.58596616659028 418.6536905203381 # Ar+
118 118 2 0.0 522.8447054165838 29.438876640473683 925.6739277272429 # Ar+
119 119 2 0.0 96.44959611343944 550.2530149189035 648.7240801640529 # Ar+
120 120 2 0.0 61.50692765499312 216.48153635662138 59.373322173125516 # Ar+
121 121 2 0.0 203.59416065075345 55.34366395975869 878.1958128787555 # Ar+
122 122 2 0.0 430.4941667383518 327.8773918376025 732.7175391821517 # Ar+
123 123 2 0.0 379.8961329177476 125.57833813505165 468.71585987968814 # Ar+
124 124 2 0.0 692.5867755908158 458.5585378647922 100.41820527497501 # Ar+
125 125 2 0.0 655.0126062540913 431.0773747821363 472.5501677570701 # Ar+
126 126 2 0.0 406.8999527557263 945.2397123169858 477.6390475103531 # Ar+
127 127 2 0.0 559.0922781057958 77.67742108653204 368.90056665815297 # Ar+
128 128 2 0.0 583.1473593820801 803.7176376938721 286.0581360907088 # Ar+
129 129 2 0.0 239.94799809272197 457.03876601379034 7.183136000405831 # Ar+
130 130 2 0.0 343.51746542464844 215.93592322815812 937.4663016922659 # Ar+
131 131 2 0.0 724.8910425821306 24.381648984798776 181.47985464792114 # Ar+
132 132 2 0.0 861.8461549408225 374.54860318014204 438.56280831250615 # Ar+
133 133 2 0.0 343.85362543412555 399.55486655096763 832.9895083311554 # Ar+
134 134 2 0.0 538.8837604889296 2.2839733606816632 266.24735308812996 # Ar+
135 135 2 0.0 939.0780294298524 36.828836336070566 722.005341931233 # Ar+
136 136 2 0.0 562.1652691294885 433.1942821241097 691.1583826835538 # Ar+
137 137 2 0.0 190.1095651968578 842.3863194579776 617.0536267734317 # Ar+
138 138 2 0.0 161.5084892629184 244.43679670872567 401.4576408292484 # Ar+
139 139 2 0.0 298.3805544998547 371.83993537228537 290.1989789460552 # Ar+
140 140 2 0.0 665.0374207563184 216.6093655758508 244.98978734941778 # Ar+
141 141 2 0.0 105.28684563170478 544.0597258297565 780.4194358910777 # Ar+
142 142 2 0.0 158.80624190654177 259.500657258421 533.5347331308423 # Ar+
143 143 2 0.0 100.42627401530103 757.3146546496241 97.87185352510774 # Ar+
144 144 2 0.0 98.08960187018367 734.3486924877329 72.13433470469381 # Ar+
145 145 2 0.0 237.56626231015315 234.46684501766265 946.2798248588631 # Ar+
146 146 2 0.0 604.4258885942629 555.5520113151621 694.954715523401 # Ar+
147 147 2 0.0 626.9814151712495 382.2697670014002 65.38915454408294 # Ar+
148 148 2 0.0 910.6534959969177 774.5510089489006 8.867482254098231 # Ar+
149 149 2 0.0 293.68632348075 219.83984347153128 610.6891150564677 # Ar+
150 150 2 0.0 26.111677726735586 650.2830228565318 447.2149539377858 # Ar+
