LAMMPS data file -- atom_style full -- generated by chemfiles
150 atoms
0 bonds
0 angles
0 dihedrals
0 impropers
2 atom types
0 bond types
0 angle types
0 dihedral types
0 improper types
0.00000000 79.2174016 xlo xhi
0.00000000 79.2174016 ylo yhi
0.00000000 79.2174016 zlo zhi

# Pair Coeffs
# 1 Ar
# 2 Ar+

Masses

1 39.948 # Ar
2 39.948 # Ar+

Atoms # full

1 1 1 0.0 7.958990057905759 33.11836678725134 24.07051761105294 # Ar
2 2 1 0.0 23.39823330740839 66.97794504084723 68.20530122962312 # Ar
3 3 1 0.0 67.82278779623185 72.63407140838903 27.268402932819594 # Ar
4 4 1 0.0 13.463678164336576 4.818717731176705 14.103464778097404 # Ar
5 5 1 0.0 66.22226602827998 23.89016712898931 48.53468415279706 # Ar
6 6 1 0.0 26.48683919496908 18.748794500837004 69.04340679564021 # Ar
7 7 1 0.0 33.754625959212525 42.531636768554556 10.67438461232833 # Ar
8 8 1 0.0 71.71104096824297 47.02136316213213 63.30039369871715 # Ar
9 9 1 0.0 48.69185442030389 47.94485446076568 47.1187967797198 # Ar
10 10 1 0.0 73.0475377765931 16.347504427484512 77.9680770300158 # Ar
11 11 1 0.0 12.471129339283376 74.55053710004616 61.36745129834469 # Ar
12 12 1 0.0 27.335061591859862 69.3309665115401 57.149035112522505 # Ar
13 13 1 0.0 46.05781056742623 1.6469350315232418 12.111887166201525 # Ar
14 14 1 0.0 30.652484395116062 38.529441802338674 32.886146120543 # Ar
15 15 1 0.0 53.422902816428795 14.19541093415792 33.648362076980625 # Ar
16 16 1 0.0 38.026862473232 23.863386556228733 67.06891680591592 # Ar
17 17 1 0.0 67.65103984201555 21.861826192307536 29.61020099609109 # Ar
18 18 1 0.0 7.518635568376926 43.57061378150684 30.466238879537464 # Ar
19 19 1 0.0 31.08896904656508 50.20245150543106 27.226894903574763 # Ar
20 20 1 0.0 59.6416188308457 49.48062231896458 56.11001546792535 # Ar
21 21 1 0.0 77.97387247006249 54.28027493627132 61.020861907365564 # Ar
22 22 1 0.0 16.83355528091782 10.940777305266675 6.551373295979627 # Ar
23 23 1 0.0 4.754131501925955 69.62013119805353 3.0290261897515918 # Ar
24 24 1 0.0 25.38116091729 15.755009038499857 68.17965340594519 # Ar
25 25 1 0.0 56.35641274968881 42.82960338685401 39.59021934961444 # Ar
26 26 1 0.0 48.732654165904094 63.23907863177012 57.8452748804085 # Ar
27 27 1 0.0 65.66524214850583 14.108662537046698 43.45370900247294 # Ar
28 28 1 0.0 40.592192191320756 22.37197771611166 6.226788277555415 # Ar
29 29 1 0.0 4.978977512518727 51.95244446969547 74.0821988176249 # Ar
30 30 1 0.0 76.9113939884617 48.02045007885437 37.63116052943507 # Ar
31 31 1 0.0 35.81907057540752 56.20495140894173 19.238361350530674 # Ar
32 32 1 0.0 30.837587074662544 21.019555323518155 60.325059027378906 # Ar
33 33 1 0.0 76.5017315999784 53.850619344618764 4.7943073330056185 # Ar
34 34 1 0.0 21.635581206517458 3.4216570005840006 5.004161536459078 # Ar
35 35 1 0.0 17.964772787032096 26.62914094497639 14.375791391104565 # Ar
36 36 1 0.0 19.5451668404714 59.46250451958515 78.74557912268416 # Ar
37 37 1 0.0 50.777450937196605 17.553159747152346 39.98505449430338 # Ar
38 38 1 0.0 16.622642612102513 54.60349442647771 44.37353325331597 # Ar
39 39 1 0.0 3.76065931445171 71.26023510654792 0.09373108802469841 # Ar
40 40 1 0.0 36.20492792070138 64.14088408093555 76.17265208657628 # Ar
41 41 1 0.0 58.09752348160235 64.77238189909143 11.650822006976801 # Ar
42 42 1 0.0 67.26119689763334 59.254605944531846 20.86503429667933 # Ar
43 43 1 0.0 40.67844191427246 35.03807403722352 10.123072742571896 # Ar
44 44 1 0.0 20.18394267344224 55.11434365120329 76.6188797804486 # Ar
45 45 1 0.0 45.728132742341074 77.1768730609292 34.070459266750646 # Ar
46 46 1 0.0 59.4754040962346 67.63188124450087 51.98252817146796 # Ar
47 47 1 0.0 41.510140807327126 46.05151706044723 13.638558620184554 # Ar
48 48 1 0.0 31.495206197840112 56.689082567422915 72.90646607527766 # Ar
49 49 1 0.0 74.97874756523736 47.05297280377096 59.681212664114085 # Ar
50 50 1 0.0 10.22583177096226 1.2865755003729777 75.27068063674541 # Ar
51 51 1 0.0 22.1630841045358 72.74968294405132 52.44489318266939 # Ar
52 52 1 0.0 47.188283306680006 50.9492829749419 24.297121828441043 # Ar
53 53 1 0.0 25.162238168719828 66.44670242049398 24.300702397694973 # Ar
54 54 1 0.0 8.182931782021189 64.33542270729991 19.045212176201417 # Ar
55 55 1 0.0 67.21980572636218 7.291578148415759 15.504152597524909 # Ar
56 56 1 0.0 38.26325066640436 31.907473084440653 33.29338574314277 # Ar
57 57 1 0.0 45.87527913375658 56.547807959195566 37.1627612569587 # Ar
58 58 1 0.0 42.97988469721492 34.19412629687447 61.20044744966689 # Ar
59 59 1 0.0 43.052890249247504 0.925937997182331 67.5453623129425 # Ar
60 60 1 0.0 40.412347120331795 16.376730834251898 63.54806625250239 # Ar
61 61 1 0.0 50.72393366344574 1.6966539824406441 1.1830155381695684 # Ar
62 62 1 0.0 24.864095652350784 6.290476976917227 24.930581645148447 # Ar
63 63 1 0.0 65.18769995346211 44.56818879225326 61.07731494359192 # Ar
64 64 1 0.0 63.70374917634925 9.338747281274056 4.695735148220256 # Ar
65 65 1 0.0 45.94078359995328 70.21327953937373 8.927835526750341 # Ar
66 66 1 0.0 32.76579146496666 78.39478136856336 13.277074980305647 # Ar
67 67 1 0.0 0.8423285390708006 13.272289449935734 26.28488979711272 # Ar
68 68 1 0.0 34.775557158037394 42.354969530530795 33.72528863344554 # Ar
69 69 1 0.0 5.9992106804670255 26.591045622429494 69.80870488268698 # Ar
70 70 1 0.0 18.141341105098086 26.88685416187419 6.431861513707799 # Ar
71 71 1 0.0 78.34127602854116 29.189194798172952 55.859757657145856 # Ar
72 72 1 0.0 1.1223610822395709 78.48462979454153 33.951225144879274 # Ar
73 73 1 0.0 18.75220967630165 53.321478560796244 77.5617691962306 # Ar
74 74 1 0.0 37.12429405754873 40.04514056711281 63.472545848579536 # Ar
75 75 1 0.0 32.25437446525361 61.049694819799946 19.41130418614778 # Ar
76 76 1 0.0 38.21353537611979 39.526420383623915 78.10055292925664 # Ar
77 77 1 0.0 20.678461393232155 78.88305168451987 32.971788312894006 # Ar
78 78 1 0.0 22.62837738750754 43.15443421707424 68.29839181003852 # Ar
79 79 1 0.0 55.118766752930284 21.556128787511817 0.966233036126551 # Ar
80 80 1 0.0 55.254720919215345 70.75686340309832 61.34849825386391 # Ar
81 81 1 0.0 62.81344767024932 31.26376371037519 37.530421673029664 # Ar
82 82 1 0.0 70.5327545908976 62.4868248752299 58.94715114901177 # Ar
83 83 1 0.0 19.542803499599767 77.10664268159138 31.837719202258217 # Ar
84 84 1 0.0 14.355792235262316 4.045286955844671 49.154588770015735 # Ar
85 85 1 0.0 14.330442039920056 43.13435838306169 76.96746401335245 # Ar
86 86 1 0.0 35.121849238810235 36.44321619666175 70.53663833308619 # Ar
87 87 1 0.0 9.067654718289562 13.903287357494628 26.567682776179932 # Ar
88 88 1 0.0 49.10341602924815 12.713284494969091 35.23743389699616 # Ar
89 89 1 0.0 36.817501560662826 32.9586391395067 16.936274272551778 # Ar
90 90 1 0.0 37.104921815406975 40.45810403201443 40.50139658132516 # Ar
91 91 1 0.0 3.9103197025254053 23.97291040771121 61.26211616813973 # Ar
92 92 1 0.0 26.22859211290762 7.142257051488611 44.65931203381981 # Ar
93 93 1 0.0 12.43980229531051 29.41536351198449 17.53074187587709 # Ar
94 94 1 0.0 65.25983735353888 51.529457579938565 2.7028271813330265 # Ar
95 95 1 0.0 50.92061478432292 30.596714248972777 63.36230892620249 # Ar
96 96 1 0.0 53.1488895431073 60.97036770584241 19.868587714595286 # Ar
97 97 1 0.0 32.84777357036652 3.9134838954331572 17.8375089309993 # Ar
98 98 1 0.0 43.19002879453945 37.39142554890697 43.46124239834056 # Ar
99 99 1 0.0 15.171270993403922 5.669035152751479 28.96153921448507 # Ar
100 100 1 0.0 11.544285725018671 61.627422026283405 4.103916972365121 # Ar
101 101 1 0.0 22.325233752363644 26.303225029127336 32.244528700354195 # Ar
102 102 1 0.0 7.737512776901505 45.24106600353877 73.95498563398917 # Ar
103 103 1 0.0 76.94949443569676 51.69885421221118 44.31620246881316 # Ar
104 104 1 0.0 58.66080906217589 14.169506868315171 46.5022902076791 # Ar
105 105 1 0.0 5.3646105529794585 20.25501750995066 52.68134149414796 # Ar
106 106 1 0.0 48.25538634291459 10.416096703443392 15.922548436299978 # Ar
107 107 1 0.0 24.452779879752196 67.8273049069449 67.9088610865491 # Ar
108 108 1 0.0 49.65242460740005 40.12345828523632 40.129782259354904 # Ar
109 109 1 0.0 66.00435162007923 67.52727569433222 0.5775170502982645 # Ar
110 110 1 0.0 43.89080485431038 0.8365899380884483 61.8688272996508 # Ar
111 111 1 0.0 55.355980074428146 7.0612488121029955 63.11720309321088 # Ar
112 112 1 0.0 74.14104002013299 69.99155499376302 58.05579588527033 # Ar
113 113 1 0.0 17.64109338206273 32.0347540947655 75.70639898451475 # Ar
114 114 1 0.0 13.34232935658768 20.64644088415187 25.050682490440817 # Ar
115 115 1 0.0 6.293221116344228 63.261371423900194 0.8624938350060632 # Ar
116 116 1 0.0 65.26334266820365 77.45978818275745 38.918284795435945 # Ar
117 117 1 0.0 43.76918332811544 54.86379975211382 40.42166670714782 # Ar
118 118 1 0.0 28.58342827457359 66.72299457211001 72.47919944219748 # Ar
119 119 1 0.0 50.53631926626002 37.548049452756835 61.37890245891749 # Ar
120 120 1 0.0 23.738359748149023 58.237428307739606 22.04956453536371 # Ar
121 121 1 0.0 55.96996960763713 0.3536698569045686 64.42337705891103 # Ar
122 122 1 0.0 35.63356283456399 5.558469517215505 30.77866489809955 # Ar
123 123 1 0.0 3.7429106736929025 46.66592699403237 12.200001277429205 # Ar
124 124 1 0.0 5.061408305728031 24.00740804491394 64.07434973587628 # Ar
125 125 1 0.0 42.10458803424541 48.39092072679183 78.99156050941686 # Ar
126 126 1 0.0 4.935626201559552 34.2479119378502 7.57257134624741 # Ar
127 127 1 0.0 21.895445847641188 32.65239898342373 6.734648567941111 # Ar
128 128 1 0.0 53.50429571827496 45.958271098276114 66.4977508953467 # Ar
129 129 1 0.0 57.774004772548636 21.684021738040336 41.355968573384885 # Ar
130 130 1 0.0 41.37594402511022 18.75387992473324 28.71728308610752 # Ar
131 131 1 0.0 17.024868608689395 42.84863154102244 54.97742438572254 # Ar
132 132 1 0.0 68.53973863941506 15.338272273569707 63.824393256295444 # Ar
133 133 1 0.0 40.42516868021229 67.1647750416735 15.064902178602155 # Ar
134 134 1 0.0 75.39018619712922 77.79282189679938 10.32726340691349 # Ar
135 135 1 0.0 50.156274644591896 4.562271755266751 13.75523069291432 # Ar
136 136 1 0.0 14.07379013610159 68.79945065663352 69.1618003646144 # Ar
137 137 1 0.0 55.838766609653206 67.21173072602866 18.455382626727776 # Ar
138 138 1 0.0 19.206934224734184 2.1396917289333244 50.54319332017478 # Ar
139 139 1 0.0 16.28543980718903 41.16371656596847 55.52427809799114 # Ar
140 140 1 0.0 26.52265816599056 56.41069941113675 19.386583934589193 # Ar
141 141 1 0.0 68.89123034581057 32.45399944725711 27.74412969082565 # Ar
142 142 1 0.0 36.119877998893436 34.93729656786391 28.8490530215457 # Ar
143 143 1 0.0 14.099910038992093 22.32555896316526 2.1331030928467762 # Ar
144 144 1 0.0 18.88226093161495 64.95214144391858 78.27484865923171 # Ar
145 145 1 0.0 24.66838163828509 53.880775906439574 51.38016091942867 # Ar
146 146 1 0.0 17.241225076154446 7.162894232378603 72.01077862926174 # Ar
147 147 1 0.0 66.78368823126313 43.90722328547277 77.82931436430451 # Ar
148 148 2 0.0 1.533700839614299 16.206058273507196 62.91429386816887 # Ar+
149 149 2 0.0 24.71798884718967 69.35572830312843 7.596513192879244 # Ar+
150 150 2 0.0 69.53147442735906 48.81982448440222 55.14918795797703 # Ar+
