LAMMPS data file -- atom_style full -- generated by chemfiles
150 atoms
0 bonds
0 angles
0 dihedrals
0 impropers
2 atom types
0 bond types
0 angle types
0 dihedral types
0 improper types
0.00000000 958.758975 xlo xhi
0.00000000 958.758975 ylo yhi
0.00000000 958.758975 zlo zhi

# Pair Coeffs
# 1 Ar
# 2 Ar+

Masses

1 39.948 # Ar
2 39.948 # Ar+

Atoms # full

1 1 1 0.0 206.2888803613405 50.74386892440466 900.7652107388266 # Ar
2 2 1 0.0 135.45912215217515 66.58917296709463 609.9011824952361 # Ar
3 3 1 0.0 82.14294836764726 594.7214296318433 72.3144519202831 # Ar
4 4 1 0.0 595.8252238860715 462.8444878457393 793.023789014603 # Ar
5 5 1 0.0 21.61511969398794 934.7412808087955 197.83599631792626 # Ar
6 6 1 0.0 644.3948086827239 147.50593415604533 819.1294365945487 # Ar
7 7 1 0.0 538.697863941051 549.8782135692818 822.5302022799726 # Ar
8 8 1 0.0 392.37675465164574 208.13598840139082 338.5725912552197 # Ar
9 9 1 0.0 210.62272630219556 747.9848951195735 271.9919826464777 # Ar
10 10 1 0.0 421.8369366829466 174.98934741497033 298.19862121053717 # Ar
11 11 1 0.0 71.71352773066778 104.10550241055674 87.71868357845867 # Ar
12 12 1 0.0 144.83809457576933 223.60908187935624 918.3281746733228 # Ar
13 13 1 0.0 612.1925509433203 812.233832723561 950.9920087641173 # Ar
14 14 1 0.0 114.36989966276204 756.7230954894234 339.3083862552745 # Ar
15 15 1 0.0 830.4068328692433 380.16640264029365 53.07692712746484 # Ar
16 16 1 0.0 261.85680845787573 145.82774216023986 50.75981690390892 # Ar
17 17 1 0.0 156.90190167848684 935.4800405862 390.0737617187822 # Ar
18 18 1 0.0 130.96996113069966 96.15907145096051 280.5411912673171 # Ar
19 19 1 0.0 741.4666949445299 428.80793726936275 376.4271431171556 # Ar
20 20 1 0.0 812.8082703763489 905.0614399357207 843.5694918609348 # Ar
21 21 1 0.0 329.4747322206315 904.0344767089185 325.07123333042637 # Ar
22 22 1 0.0 326.4766662561623 82.5819102805195 610.0961792491336 # Ar
23 23 1 0.0 94.8392761612303 364.8157489744671 305.8196808805281 # Ar
24 24 1 0.0 626.4551193368108 895.3842158598986 203.74746216675476 # Ar
25 25 1 0.0 808.4475861101072 860.5481666209216 792.4773687011274 # Ar
26 26 1 0.0 206.9870243824554 933.714606080748 785.3783441547569 # Ar
27 27 1 0.0 823.5637414322507 549.296330846693 655.1801960114672 # Ar
28 28 1 0.0 620.5030479575659 213.90566513982353 738.6590222760902 # Ar
29 29 1 0.0 434.53828475100164 625.7393813481741 299.280628922546 # Ar
30 30 1 0.0 842.7331466256746 232.15839817300852 794.1552423719537 # Ar
31 31 1 0.0 403.3088946928824 781.6571444637555 240.18816620033954 # Ar
32 32 1 0.0 181.68469758627734 229.639204211862 555.5499062807141 # Ar
33 33 1 0.0 277.35397770640697 76.91489267474951 63.19675982792977 # Ar
34 34 1 0.0 765.1706088292506 634.5551611833752 329.538955913934 # Ar
35 35 1 0.0 831.914867588714 700.0445743860294 334.9801930804743 # Ar
36 36 1 0.0 9.613827169698075 952.2065304517398 98.81617709586885 # Ar
37 37 1 0.0 913.7217957315825 272.79216151934804 785.8950346251892 # Ar
38 38 1 0.0 366.14694421235373 957.9176132149711 292.69427789466613 # Ar
39 39 1 0.0 314.1263403812145 402.3729222652984 893.1739243827544 # Ar
40 40 1 0.0 489.61056004811854 642.1505008583972 880.3932039427818 # Ar
41 41 1 0.0 733.3194704561099 281.0172286577494 682.8982202522775 # Ar
42 42 1 0.0 541.6878427043628 847.8816068714209 128.5642123728975 # Ar
43 43 1 0.0 199.60826115815476 693.6287250014227 619.5364110251948 # Ar
44 44 1 0.0 395.95894348086625 420.35651718775296 619.585625163854 # Ar
45 45 1 0.0 805.7328622386879 772.8569493232347 894.9528927277727 # Ar
46 46 1 0.0 939.8144053866409 401.71065573852655 755.3019149729477 # Ar
47 47 1 0.0 311.80226772012105 674.8426603927824 170.03960859694342 # Ar
48 48 1 0.0 681.8177897635377 187.74671106022822 198.27892154139002 # Ar
49 49 1 0.0 589.3428431842581 409.8609960224111 685.9917450091397 # Ar
50 50 1 0.0 142.08230387389173 31.256575620195267 64.53133018171592 # Ar
51 51 1 0.0 538.4786007376965 524.1880936389261 230.0909116000609 # Ar
52 52 1 0.0 534.1355469060867 78.38655804768656 804.7887582539723 # Ar
53 53 1 0.0 876.2069022863834 846.1952059457292 750.4118708758889 # Ar
54 54 1 0.0 428.929519925434 432.040700232039 304.4499896145265 # Ar
55 55 1 0.0 808.9463689970357 73.65304317840665 666.8112167773178 # Ar
56 56 1 0.0 661.1884604846383 636.289076463848 97.56655853729931 # Ar
57 57 1 0.0 828.6900123217845 542.4511345277352 488.70443121346557 # Ar
58 58 1 0.0 633.5630152440025 518.2682684459442 810.4874861647044 # Ar
59 59 1 0.0 516.2536322998571 419.8726318391603 17.12148217209396 # Ar
60 60 1 0.0 807.6643630974189 858.1906504116015 679.4183651091097 # Ar
61 61 1 0.0 781.8936362856097 486.44071705017757 896.9880372691505 # Ar
62 62 1 0.0 825.1412149799527 66.41068673758674 955.3240957661234 # Ar
63 63 1 0.0 407.315002750304 858.9039321164224 225.28670943674996 # Ar
64 64 1 0.0 320.82690974656174 327.72932673968114 423.1998486745651 # Ar
65 65 1 0.0 71.011351846439 305.86322051300783 329.1452114833299 # Ar
66 66 1 0.0 125.9130546544978 103.34481294957148 478.28983834758634 # Ar
67 67 1 0.0 649.986080978867 716.6971083987355 718.5268306931808 # Ar
68 68 1 0.0 798.5077741319274 385.7419563136161 565.4593329480153 # Ar
69 69 1 0.0 368.6852111561206 88.87776630102037 518.6463143253474 # Ar
70 70 1 0.0 178.61106952557407 46.97255783475242 879.7851408701723 # Ar
71 71 1 0.0 955.6226270581096 747.3567166129811 519.9808421425523 # Ar
72 72 1 0.0 32.89328955665324 170.16045642158633 146.88866958557045 # Ar
73 73 1 0.0 458.51402211559855 43.54351347290601 814.9730156285807 # Ar
74 74 1 0.0 200.88471260361126 111.05643651143185 326.4809869516599 # Ar
75 75 1 0.0 293.762988097827 924.8246459561809 427.26841348993656 # Ar
76 76 1 0.0 651.9167210375966 562.7752259977872 776.9611131448487 # Ar
77 77 1 0.0 438.1887269162282 390.69776199352805 168.79023689226474 # Ar
78 78 1 0.0 852.701470109172 568.656151074531 101.61908616321419 # Ar
79 79 1 0.0 404.9494742439192 812.0289071507209 85.63581939601644 # Ar
80 80 1 0.0 792.4841269914825 354.4666316794139 29.292676460428314 # Ar
81 81 1 0.0 395.18543515416576 641.0952318757121 597.376512033683 # Ar
82 82 1 0.0 71.51380075621924 226.13948227273 16.336760365745185 # Ar
83 83 1 0.0 298.1155367344069 689.1544453725896 533.7250236963766 # Ar
84 84 1 0.0 732.9246693011585 107.06391093865753 540.0094331908964 # Ar
85 85 1 0.0 10.108242550119288 620.693082499873 154.7155550645296 # Ar
86 86 1 0.0 707.3945479938583 726.4181312533723 537.939879583464 # Ar
87 87 1 0.0 810.2497095877583 876.8399959193933 229.13063537666892 # Ar
88 88 1 0.0 404.04799607861764 314.25258064330524 522.5070561308593 # Ar
89 89 1 0.0 430.75100712967657 945.5648023233828 891.4965339946839 # Ar
90 90 1 0.0 514.421476899283 609.4489495056705 612.8820728399445 # Ar
91 91 1 0.0 189.24167968859837 534.6895268055537 608.4017042650712 # Ar
92 92 1 0.0 772.1456543632537 6.153397433638414 164.23453357924947 # Ar
93 93 1 0.0 319.0119718634203 836.8690109286003 95.77716745187759 # Ar
94 94 1 0.0 139.89247494824238 377.5324877160423 290.6200566028318 # Ar
95 95 1 0.0 655.6679288560081 216.1769369611171 36.955186309490195 # Ar
96 96 1 0.0 866.4642383837468 647.2706253531043 462.9476278237224 # Ar
97 97 1 0.0 943.4872292709116 757.256385073019 61.87815457311829 # Ar
98 98 1 0.0 923.5788003803087 852.2495003704375 748.2044091251558 # Ar
99 99 1 0.0 215.0630892327434 475.7419673260831 956.1296009151216 # Ar
100 100 1 0.0 113.42911489257551 950.5666447464282 343.511328260755 # Ar
101 101 1 0.0 953.0452766430728 80.67469859675067 606.0592530076186 # Ar
102 102 2 0.0 189.7374038882844 876.9986847623695 369.4302528022592 # Ar+
103 103 2 0.0 212.9090344136858 328.5463237449538 408.4068981399822 # Ar+
104 104 2 0.0 666.0378554033401 424.5540522269527 154.25930004707493 # Ar+
105 105 2 0.0 106.71636091506493 202.68682944401615 436.3248754329783 # Ar+
106 106 2 0.0 372.626636278959 802.7582881163896 190.5771372604057 # Ar+
107 107 2 0.0 824.5808122765703 887.7865071644508 606.8324960541415 # Ar+
108 108 2 0.0 752.4695631477115 58.10352065122458 35.74787914985311 # Ar+
109 109 2 0.0 239.3558953641973 726.2624659123251 430.6130685687913 # Ar+
110 110 2 0.0 315.4050991965244 784.5944525377049 734.165182072981 # Ar+
111 111 2 0.0 570.5338646530852 470.06452501714676 194.89562558926292 # Ar+
112 112 2 0.0 830.6742652233572 664.6501647269756 690.124978804636 # Ar+
113 113 2 0.0 609.0807133282399 679.4530354899728 34.98790557981714 # Ar+
114 114 2 0.0 656.8593252486748 194.43892026638807 705.6421130007515 # Ar+
115 115 2 0.0 187.34901472659524 293.1784375773408 929.2514653647582 # Ar+
116 116 2 0.0 870.3646204901179 441.30183351496936 154.14424581966006 # Ar+
117 117 2 0.0 116.0347929968037 105.36034593632512 237.83607574541827 # Ar+
118 118 2 0.0 347.23878666670294 263.19692098633533 781.4625097511223 # Ar+
119 119 2 0.0 143.33277000474774 450.58635829619055 57.287694335282076 # Ar+
120 120 2 0.0 783.3559344311169 343.7581155504841 664.8643716838682 # Ar+
121 121 2 0.0 408.25113282569333 907.9128181295602 282.0323885947534 # Ar+
122 122 2 0.0 945.0368252112313 109.86709834454241 233.14733603596068 # Ar+
123 123 2 0.0 290.22239783388795 675.8862160221796 322.2591510899845 # Ar+
124 124 2 0.0 420.75065042352793 951.9917480115795 115.27536075298237 # Ar+
125 125 2 0.0 687.5632179214422 517.0438107527423 608.2589279409588 # Ar+
126 126 2 0.0 361.16605291122426 663.5636936284225 790.262483757585 # Ar+
127 127 2 0.0 119.50350523131806 543.7771063723098 637.2843174256675 # Ar+
128 128 2 0.0 582.5920087408831 618.8595169383386 22.389377143759667 # Ar+
129 129 2 0.0 427.5743822268856 222.89364840305933 200.9443792617237 # Ar+
130 130 2 0.0 459.79988792432164 631.4840210691194 124.68628142739523 # Ar+
131 131 2 0.0 750.943508783571 573.3084763745579 815.8815003386937 # Ar+
132 132 2 0.0 818.9775407486536 649.899595157795 790.5769516508361 # Ar+
133 133 2 0.0 929.8399207257789 473.8140770888481 913.9728205719452 # Ar+
134 134 2 0.0 425.03557904820275 658.0312382671582 533.7816137649049 # Ar+
135 135 2 0.0 2.8760327451113517 628.6041905477941 476.2512897499299 # Ar+
136 136 2 0.0 147.18201383728106 904.4776369684112 202.14740872058366 # Ar+
137 137 2 0.0 221.36365569956288 319.5009474369047 742.251231171043 # Ar+
138 138 2 0.0 607.5923769450482 320.16585887589764 177.51337680874758 # Ar+
139 139 2 0.0 390.643175717984 777.5742534880472 148.66612073543965 # Ar+
140 140 2 0.0 653.812106499312 140.29427075910422 526.5242742453346 # Ar+
141 141 2 0.0 44.65681880914856 746.4260024614415 912.6295451623604 # Ar+
142 142 2 0.0 216.07470695952 331.84612240029145 481.35742226843945 # Ar+
143 143 2 0.0 151.91005255567975 622.5556159541994 76.17589074242686 # Ar+
144 144 2 0.0 866.1354109966986 924.9163941621621 10.057077670858634 # Ar+
145 145 2 0.0 568.486181759175 463.68120337015273 187.61253614819105 # Ar+
146 146 2 0.0 576.9401846422286 262.732765021251 924.1399931396279 # Ar+
147 147 2 0.0 953.8076927713897 81.03563296780005 349.6122593265489 # Ar+
148 148 2 0.0 307.5407655187248 679.4701437030442 923.7922940150145 # Ar+
149 149 2 0.0 182.37077909819791 813.4376272451949 219.28265742364408 # Ar+
150 150 2 0.0 819.2054019455234 889.2013487947157 325.2222405258661 # Ar+
