LAMMPS data file -- atom_style full -- generated by chemfiles
2000 atoms
0 bonds
0 angles
0 dihedrals
0 impropers
1 atom types
0 bond types
0 angle types
0 dihedral types
0 improper types
0.00000000 1029.16629 xlo xhi
0.00000000 1029.16629 ylo yhi
0.00000000 1029.16629 zlo zhi

# Pair Coeffs
# 1 Ar

Masses

1 39.948 # Ar

Atoms # full

1 1 1 0.0 345.81263014259434 673.8930643370435 513.5605541031332 # Ar
2 2 1 0.0 381.8063211916019 800.0124338189185 644.1238895930599 # Ar
3 3 1 0.0 671.6805140657839 22.54281442699085 792.3921135565747 # Ar
4 4 1 0.0 1020.90950650076 587.107415318895 509.5251643571762 # Ar
5 5 1 0.0 569.5345027319875 872.1837095884457 745.4172240222025 # Ar
6 6 1 0.0 405.55595942067623 540.8288981277667 175.32703974186705 # Ar
7 7 1 0.0 631.5082940665087 956.5889673020031 830.4122053427047 # Ar
8 8 1 0.0 507.86492714157265 678.3903148055567 856.7401129265461 # Ar
9 9 1 0.0 186.80121120903314 431.26734407097564 280.69920808775043 # Ar
10 10 1 0.0 436.79328668752356 311.00323831859475 110.20116585205078 # Ar
11 11 1 0.0 297.2704520081115 999.012196638738 171.21030542469867 # Ar
12 12 1 0.0 344.43655241136634 546.3898541030607 139.3474343452048 # Ar
13 13 1 0.0 737.4110143143068 1012.8215852812799 783.1006328183844 # Ar
14 14 1 0.0 367.0974939629774 95.77733086267752 988.7033584366666 # Ar
15 15 1 0.0 501.7385523703316 77.89661817254856 96.63298972688048 # Ar
16 16 1 0.0 215.68544684051008 509.7083695082803 236.35285694016753 # Ar
17 17 1 0.0 642.3237476408448 848.4497612001127 676.4023279416241 # Ar
18 18 1 0.0 246.70430090961827 482.85409227041885 752.9395744532941 # Ar
19 19 1 0.0 734.2769377244659 640.6586896433525 584.9583214445232 # Ar
20 20 1 0.0 383.0673194196578 12.080964122980655 864.4309909334022 # Ar
21 21 1 0.0 184.15435570513262 968.6261012871674 856.1052125507396 # Ar
22 22 1 0.0 1022.2067936508998 17.452953126720292 592.7783097136378 # Ar
23 23 1 0.0 578.162145738956 213.70963267027733 428.084863435881 # Ar
24 24 1 0.0 799.376885561344 356.70131422541306 137.91151526347358 # Ar
25 25 1 0.0 968.0263026223183 120.10460580118026 419.11611833999933 # Ar
26 26 1 0.0 880.1787808197395 155.1902765637362 176.88341964290169 # Ar
27 27 1 0.0 300.68693507068 117.04590111919549 50.20756524787826 # Ar
28 28 1 0.0 1027.6647722880007 29.406520443746146 655.8323230571798 # Ar
29 29 1 0.0 165.31384757517412 355.14909489410144 957.3087319268501 # Ar
30 30 1 0.0 52.31149312548129 800.8632643961431 268.83358026025815 # Ar
31 31 1 0.0 562.9764866009511 905.9244237131242 831.2986825207935 # Ar
32 32 1 0.0 980.0741955152527 204.04389240342869 202.63189463215684 # Ar
33 33 1 0.0 191.29681567749782 882.1895337101571 982.2340040996133 # Ar
34 34 1 0.0 764.7592353994206 401.593369037768 17.651073428847248 # Ar
35 35 1 0.0 428.2521970027872 446.70133779450583 252.18579216557373 # Ar
36 36 1 0.0 780.1709628241277 60.530507965885846 232.53504718628804 # Ar
37 37 1 0.0 717.9526025960371 107.85672980817597 559.5752484245476 # Ar
38 38 1 0.0 905.4240365662923 519.1340251579858 610.2471850261903 # Ar
39 39 1 0.0 414.9279246750756 889.9506338257643 646.872763261452 # Ar
40 40 1 0.0 359.1489983486494 606.8045823676068 210.87822823125111 # Ar
41 41 1 0.0 480.0044335660879 1.0360731334699185 527.2201543580343 # Ar
42 42 1 0.0 781.49357829594 421.24128981573165 814.9480860446017 # Ar
43 43 1 0.0 877.981144105365 806.4205470761684 971.7832057343378 # Ar
44 44 1 0.0 433.2576188165371 730.6552371937532 775.0834915764822 # Ar
45 45 1 0.0 81.26172194265574 285.1072416189246 347.0046081370376 # Ar
46 46 1 0.0 342.2711535178645 846.889514009299 925.1579652429422 # Ar
47 47 1 0.0 329.5716278159552 416.71106228082743 954.4848411145787 # Ar
48 48 1 0.0 449.55299805750417 1005.859425208786 115.24707896039885 # Ar
49 49 1 0.0 642.2625622017881 522.665144793423 798.5123181018695 # Ar
50 50 1 0.0 281.1145100461152 804.6641471568996 797.4992120084863 # Ar
51 51 1 0.0 668.6454045897773 375.736921385981 758.2164360822852 # Ar
52 52 1 0.0 391.844539428313 1011.0837377272741 744.2816491175389 # Ar
53 53 1 0.0 934.4317045470781 409.6149852663878 374.2461467088056 # Ar
54 54 1 0.0 57.85495337314604 306.092077255388 111.70659879490607 # Ar
55 55 1 0.0 841.1586275040837 529.7676600355189 861.8493967317651 # Ar
56 56 1 0.0 387.66743978641284 957.5904536851979 666.0747991990827 # Ar
57 57 1 0.0 521.1330535184501 180.85597729494236 1012.8456808635024 # Ar
58 58 1 0.0 602.9705544633766 171.26994012350815 963.9214936769052 # Ar
59 59 1 0.0 926.2801368060357 210.44437580560103 635.085134682423 # Ar
60 60 1 0.0 166.24743194536995 733.1160606716322 755.5442180284633 # Ar
61 61 1 0.0 416.2756146916551 731.6307461408803 850.6633087790378 # Ar
62 62 1 0.0 934.3668730004603 238.44982330406418 531.866481279217 # Ar
63 63 1 0.0 158.69327055269457 748.8840904329985 271.0138926648994 # Ar
64 64 1 0.0 968.5788195140428 503.3929049353005 197.80006671821758 # Ar
65 65 1 0.0 520.7749250661396 880.5097761965527 932.2967088902725 # Ar
66 66 1 0.0 284.0910705584425 203.96797764019058 536.4883767434771 # Ar
67 67 1 0.0 825.6884101938126 1001.5626277257874 787.0721985509342 # Ar
68 68 1 0.0 138.766510050978 722.8841437182831 98.9686943704788 # Ar
69 69 1 0.0 332.1384518627282 974.919538224511 487.19932267889055 # Ar
70 70 1 0.0 814.0504517557501 99.4094894225097 640.6115321770735 # Ar
71 71 1 0.0 991.4665215253183 969.0779638286921 466.25162908164515 # Ar
72 72 1 0.0 729.0063371882965 83.61957236088547 894.1712917814076 # Ar
73 73 1 0.0 246.50220994134008 239.46125555896796 211.18784982340472 # Ar
74 74 1 0.0 571.2489566647209 664.9163995192852 839.9544321451078 # Ar
75 75 1 0.0 670.8923015354277 246.94048889257795 199.12610484403655 # Ar
76 76 1 0.0 403.34952357407155 682.3219864517625 736.2951705816491 # Ar
77 77 1 0.0 439.51704024422156 554.1053705134032 605.3212002631926 # Ar
78 78 1 0.0 1006.9793898542727 108.62144819993198 69.98430305299071 # Ar
79 79 1 0.0 211.91782619584387 275.1005102847563 310.7808744915701 # Ar
80 80 1 0.0 747.6120483682737 897.6904441649407 409.6310082505372 # Ar
81 81 1 0.0 236.04145500838587 572.9698829458957 976.5138371792877 # Ar
82 82 1 0.0 590.5985718163182 60.700599800244355 698.8138009791613 # Ar
83 83 1 0.0 706.5174585248865 253.80543536482932 707.2361802013268 # Ar
84 84 1 0.0 757.3220802989929 558.9590699882285 480.94382658638284 # Ar
85 85 1 0.0 619.3087429655219 171.15818455953075 199.98905737827755 # Ar
86 86 1 0.0 13.800124925609017 13.938136573021106 694.293282086134 # Ar
87 87 1 0.0 36.26717577474282 472.652684169962 364.01156339229044 # Ar
88 88 1 0.0 609.6669968027309 147.5166587963553 71.47527995732803 # Ar
89 89 1 0.0 236.7070441530506 572.2493648545318 514.5012593797522 # Ar
90 90 1 0.0 121.442567165071 1023.4965169718968 641.5927097701739 # Ar
91 91 1 0.0 448.2474530784924 870.799798398225 110.09571333175244 # Ar
92 92 1 0.0 502.6215790321716 778.7016632926549 593.9063406481213 # Ar
93 93 1 0.0 960.8371437949386 576.3087332675553 480.470140141508 # Ar
94 94 1 0.0 796.7138410843755 150.71622486819763 939.3874011032177 # Ar
95 95 1 0.0 592.0816401635961 59.53460366231761 55.13729260001933 # Ar
96 96 1 0.0 101.35969667966985 520.6365209810883 1005.3013245258818 # Ar
97 97 1 0.0 484.57573814703755 883.5745850118467 116.72100159722416 # Ar
98 98 1 0.0 988.8248942577676 66.24061821849962 414.32030166691817 # Ar
99 99 1 0.0 569.842944396101 642.3232554442723 213.64603331320788 # Ar
100 100 1 0.0 501.10872329525466 933.0510996162435 511.7801851576114 # Ar
101 101 1 0.0 712.1277958178306 243.8206223680665 587.6741602951814 # Ar
102 102 1 0.0 179.38778142788425 340.85942121713185 12.58237313063769 # Ar
103 103 1 0.0 478.32481539264916 445.5354897286089 720.2187875163512 # Ar
104 104 1 0.0 520.8949014117221 136.60117873088151 671.2834699004687 # Ar
105 105 1 0.0 972.1573028289947 47.37726976833072 823.0266289437002 # Ar
106 106 1 0.0 549.8206469258812 35.230742083030336 785.4595142280862 # Ar
107 107 1 0.0 923.8966792885141 774.0913436861282 288.28385371657913 # Ar
108 108 1 0.0 961.4960326437116 301.5527094281405 729.3173252328087 # Ar
109 109 1 0.0 273.38280775521883 675.8753944406499 259.7415727920522 # Ar
110 110 1 0.0 42.94464769860854 501.2870824123483 970.3727436950008 # Ar
111 111 1 0.0 233.6378612834128 274.06023594464494 895.9270556254899 # Ar
112 112 1 0.0 762.6888521034384 819.1985406677817 492.97141538684536 # Ar
113 113 1 0.0 10.616171850721186 704.3989816649677 118.91945540575392 # Ar
114 114 1 0.0 420.1354910214138 489.41288717752224 426.22352330430635 # Ar
115 115 1 0.0 85.9998137893054 931.5974864127235 975.9620699242608 # Ar
116 116 1 0.0 418.6254200089987 300.21226749154846 856.338218340824 # Ar
117 117 1 0.0 717.1360140938009 586.3303746095946 558.0386562969111 # Ar
118 118 1 0.0 508.7166811654853 933.7879954978954 182.6083058819756 # Ar
119 119 1 0.0 112.30027989851762 573.0936481793854 515.1176405738066 # Ar
120 120 1 0.0 1021.5572427121091 929.9199426574039 1008.4434937438127 # Ar
121 121 1 0.0 149.14050703103234 24.015319231104037 437.1667075305663 # Ar
122 122 1 0.0 271.5062650970926 926.3536230647787 658.3021892072292 # Ar
123 123 1 0.0 365.07735873821906 443.3059447901494 677.4185688064824 # Ar
124 124 1 0.0 492.46654951971277 165.66646494451982 478.1064881221442 # Ar
125 125 1 0.0 591.6997384584407 146.93222418568382 241.3295434490884 # Ar
126 126 1 0.0 160.69768197300658 127.16808491977623 685.1297012787664 # Ar
127 127 1 0.0 1003.1570465244057 392.6702428101269 671.9616497854325 # Ar
128 128 1 0.0 91.15446754092311 816.8016167297345 697.3704380080436 # Ar
129 129 1 0.0 253.71927533473465 28.75939067161978 567.3520252034779 # Ar
130 130 1 0.0 920.5562644896988 904.1550143103553 367.6288808586215 # Ar
131 131 1 0.0 5.25915752433401 67.2971943168837 13.45757181646416 # Ar
132 132 1 0.0 532.7378296839989 176.5233327362418 105.8629822978139 # Ar
133 133 1 0.0 427.96555556103556 105.32288014573797 337.731675308587 # Ar
134 134 1 0.0 471.7666520545946 944.7886369122871 558.5026726529954 # Ar
135 135 1 0.0 375.63201966996013 182.5827416323839 525.3894070472966 # Ar
136 136 1 0.0 25.1566230581476 140.1870418953059 345.68843378978113 # Ar
137 137 1 0.0 1009.3126068102871 806.8191329363327 970.4496573656891 # Ar
138 138 1 0.0 487.2347097754195 966.2403857292877 135.2833956421352 # Ar
139 139 1 0.0 686.2692913356665 894.0384463918438 408.84757443302703 # Ar
140 140 1 0.0 113.5741243859482 292.38334112627854 588.9185340026129 # Ar
141 141 1 0.0 298.7063208200659 763.6969095545384 846.566211512305 # Ar
142 142 1 0.0 814.5347893724424 550.3394818715917 813.1115393867768 # Ar
143 143 1 0.0 180.81261111794498 411.3963390048963 181.16207687108115 # Ar
144 144 1 0.0 136.89504940102248 761.0137555684596 331.9011363478779 # Ar
145 145 1 0.0 1009.3260683870367 621.9987162671141 743.7468776715558 # Ar
146 146 1 0.0 233.82470441064294 48.01406523059722 147.09311096792237 # Ar
147 147 1 0.0 26.350149939101637 669.6469927085518 649.5592693288843 # Ar
148 148 1 0.0 26.103851219097947 183.65811088072024 401.53671079668453 # Ar
149 149 1 0.0 71.727275145908 724.8302845010151 200.2175688276202 # Ar
150 150 1 0.0 299.60422850471684 637.7411486502231 149.95146133642814 # Ar
151 151 1 0.0 232.17506351841158 443.610287302302 276.52509852480466 # Ar
152 152 1 0.0 1025.3864880038843 916.219574104329 291.6013127338323 # Ar
153 153 1 0.0 143.99657718190986 944.3483355540129 88.02580597386101 # Ar
154 154 1 0.0 120.7220024258064 917.5515838411376 633.5753248885185 # Ar
155 155 1 0.0 949.6960774831734 721.7142369937765 98.48816492721103 # Ar
156 156 1 0.0 687.8540003687181 56.76630801764666 989.2006203732608 # Ar
157 157 1 0.0 53.41464843663333 313.4029590905362 951.802002643419 # Ar
158 158 1 0.0 227.13080092192743 910.9119892285219 956.5689936646389 # Ar
159 159 1 0.0 17.522411441248124 342.5148700469679 321.1977906995834 # Ar
160 160 1 0.0 397.10523309763727 820.7797103552783 928.0087471854758 # Ar
161 161 1 0.0 425.4620334494693 983.3724034349106 522.5124704903793 # Ar
162 162 1 0.0 806.3670922620662 341.3621494723023 980.2345753707289 # Ar
163 163 1 0.0 1.4877928056373142 189.7804725749995 744.8600352421633 # Ar
164 164 1 0.0 895.8150968951228 576.3669223097304 341.86728809012556 # Ar
165 165 1 0.0 155.2830366619984 744.44603310563 435.8171496343569 # Ar
166 166 1 0.0 736.7091545984146 571.5915569292742 71.88629274758337 # Ar
167 167 1 0.0 280.25932836427694 301.4002488910404 452.2293700863351 # Ar
168 168 1 0.0 490.119928312653 288.98267258158273 211.06318150571857 # Ar
169 169 1 0.0 473.4065055826168 905.6049194366898 893.3391211016159 # Ar
170 170 1 0.0 108.04925288270402 540.4947849004711 454.93920821428827 # Ar
171 171 1 0.0 415.48518631678246 313.416522484723 497.10984783600423 # Ar
172 172 1 0.0 425.056594169653 524.0156888993611 165.42497400311817 # Ar
173 173 1 0.0 123.56468138209591 418.68285496315474 609.1966663505455 # Ar
174 174 1 0.0 588.657537051813 742.0788571274368 395.5608118253128 # Ar
175 175 1 0.0 203.45273398276822 987.8585104883186 728.6778354250005 # Ar
176 176 1 0.0 1007.6005828255603 930.9936712681216 457.6260683238628 # Ar
177 177 1 0.0 497.4213630168589 202.0978052120181 104.88460718743812 # Ar
178 178 1 0.0 33.831709162115686 646.0124711058064 204.58521961808916 # Ar
179 179 1 0.0 829.5109290105846 1022.2276737585366 625.1960212070845 # Ar
180 180 1 0.0 179.7134776977105 885.2522954702087 304.09564841974674 # Ar
181 181 1 0.0 332.4038625524061 915.6313843797498 339.4674446621752 # Ar
182 182 1 0.0 61.14711481066886 554.8616652446026 91.07058388449593 # Ar
183 183 1 0.0 597.3211335124986 131.9283662600465 332.1378848806654 # Ar
184 184 1 0.0 54.6157461933302 1009.2200350425235 934.8190062516161 # Ar
185 185 1 0.0 274.2867010297117 886.2885365758113 155.9934613202556 # Ar
186 186 1 0.0 376.9494241012299 381.06651487040045 111.58461843741516 # Ar
187 187 1 0.0 564.2044611793838 266.2227116777069 860.1525745391187 # Ar
188 188 1 0.0 672.4217970818235 1.3811782478725854 71.94510484218023 # Ar
189 189 1 0.0 518.4898634566878 66.90216209728118 853.273064556709 # Ar
190 190 1 0.0 429.43888190917215 1004.3539690548214 485.7203796464724 # Ar
191 191 1 0.0 329.5158053068065 146.56831013906697 498.3013407430783 # Ar
192 192 1 0.0 910.2839068440451 96.0358020268762 969.5970182444369 # Ar
193 193 1 0.0 975.7416710571091 952.8232195091931 41.26471054554071 # Ar
194 194 1 0.0 449.77453364594584 424.12279484422095 777.1830585882813 # Ar
195 195 1 0.0 665.0626124569077 817.3417919725132 399.14899387247885 # Ar
196 196 1 0.0 147.98607168543202 14.700912632725355 293.467355006725 # Ar
197 197 1 0.0 519.3615998368501 613.0083914773036 138.72756656111122 # Ar
198 198 1 0.0 972.8182157870152 946.7533084623195 812.1486722388989 # Ar
199 199 1 0.0 342.8029030805459 741.8123507849781 865.7982092361352 # Ar
200 200 1 0.0 935.4561039381814 590.3301641576672 175.63267036889567 # Ar
201 201 1 0.0 515.5317323529777 567.2590479755066 720.9646930329664 # Ar
202 202 1 0.0 822.2825137438191 663.4468142847106 781.3016368155753 # Ar
203 203 1 0.0 774.4287311305386 130.31879281702504 633.1831934935512 # Ar
204 204 1 0.0 692.8271190293117 965.594223331876 504.1999347871858 # Ar
205 205 1 0.0 444.57597859601645 936.4112894050469 913.4106282978772 # Ar
206 206 1 0.0 213.3367090436164 432.46064704709545 889.004644522927 # Ar
207 207 1 0.0 746.3786171373511 931.5450581921192 458.5702903930983 # Ar
208 208 1 0.0 729.0629016852168 247.50053889148884 122.07251961938458 # Ar
209 209 1 0.0 774.6980440792199 721.5833151581251 618.2873704544733 # Ar
210 210 1 0.0 717.9962354415817 876.8004473905049 681.1941927064425 # Ar
211 211 1 0.0 2.8288628713130954 436.23552155057047 966.6744150812211 # Ar
212 212 1 0.0 539.0241097673273 82.9482605826528 265.1403276841845 # Ar
213 213 1 0.0 354.23360140158377 735.6490109809582 829.2923988981069 # Ar
214 214 1 0.0 513.5835222633158 261.64647855641687 21.327719967831783 # Ar
215 215 1 0.0 833.4651413383164 181.45836964942154 252.7190604100235 # Ar
216 216 1 0.0 188.18722366994123 370.4489609473892 912.1574863411512 # Ar
217 217 1 0.0 437.9087797817251 367.5612669517131 1002.2713344681996 # Ar
218 218 1 0.0 536.1169701522477 550.3903118833829 954.6589523167345 # Ar
219 219 1 0.0 296.4301968711044 1015.2583204577946 692.9741316767247 # Ar
220 220 1 0.0 569.380108687425 794.4213951679861 78.20425713568831 # Ar
221 221 1 0.0 284.3880127164828 52.84022412059451 1025.8894475609845 # Ar
222 222 1 0.0 687.8416141922795 754.2840288578772 138.96993174698324 # Ar
223 223 1 0.0 109.72903355376478 995.4866204026412 572.3500094934602 # Ar
224 224 1 0.0 42.70211433323769 333.1711219245936 683.4567674842332 # Ar
225 225 1 0.0 68.97409178111704 378.99380771132826 931.7469652307595 # Ar
226 226 1 0.0 237.53249674503084 593.9011827121748 563.6781250982193 # Ar
227 227 1 0.0 693.2448255570683 799.7132977927909 719.0918688897272 # Ar
228 228 1 0.0 503.88605807789435 805.6785021754105 134.30164778833645 # Ar
229 229 1 0.0 58.60650173738654 563.7688028978301 534.7846928670702 # Ar
230 230 1 0.0 247.90305731213977 521.1950451667277 550.628492094798 # Ar
231 231 1 0.0 1017.6979655776768 319.77156429834235 235.16273967633848 # Ar
232 232 1 0.0 771.2499372481037 757.3652004871844 339.2548095098548 # Ar
233 233 1 0.0 124.98744863384597 329.79679442968114 951.097924211358 # Ar
234 234 1 0.0 872.7359139300545 624.1551262560502 841.6546653625393 # Ar
235 235 1 0.0 359.3294936172301 160.6580198073313 25.886186290411207 # Ar
236 236 1 0.0 952.3558743231606 115.53205583890843 591.7865373722581 # Ar
237 237 1 0.0 501.2469974880749 405.5987860686844 584.494977455187 # Ar
238 238 1 0.0 457.38521788236744 736.0769211775632 999.1045010022216 # Ar
239 239 1 0.0 307.27200834978464 486.0030860804747 584.3895703207331 # Ar
240 240 1 0.0 398.9228760994645 336.6502940121059 427.81998755179063 # Ar
241 241 1 0.0 218.9848925104191 280.14235635817914 631.871444979338 # Ar
242 242 1 0.0 972.9443737776662 201.69383088522707 466.003276349441 # Ar
243 243 1 0.0 366.0502811445922 291.92672356681516 949.8557740583046 # Ar
244 244 1 0.0 927.2926556333948 258.05332665329837 703.5372519289101 # Ar
245 245 1 0.0 591.6711790750202 421.98310069574234 622.578636517551 # Ar
246 246 1 0.0 884.6540430815145 655.8337896170823 813.3787385632758 # Ar
247 247 1 0.0 872.7389395489209 248.51898404789213 617.5213799332249 # Ar
248 248 1 0.0 535.129006574213 600.1447237215823 609.5217352567249 # Ar
249 249 1 0.0 824.708546204287 771.1313548654996 698.9360497940497 # Ar
250 250 1 0.0 366.92398374365786 298.27062038618766 245.79095637898325 # Ar
251 251 1 0.0 873.0972309899234 884.1674424128206 534.4118111376712 # Ar
252 252 1 0.0 54.06830903757435 67.71989165412329 577.7273923396284 # Ar
253 253 1 0.0 226.8980623077115 321.04303189877487 995.8061294279438 # Ar
254 254 1 0.0 729.0148371950498 261.6080803963244 89.54673922051445 # Ar
255 255 1 0.0 855.9571653691797 990.6358717799166 810.5915302059078 # Ar
256 256 1 0.0 421.1365322200494 262.6720074108371 319.4086482076478 # Ar
257 257 1 0.0 845.813012891885 839.0736030901006 81.44466141345887 # Ar
258 258 1 0.0 1002.7224164946401 665.372627273155 277.0711612821588 # Ar
259 259 1 0.0 794.777277738066 906.640938361539 947.4303972130426 # Ar
260 260 1 0.0 393.70790392401176 1008.0088757033262 821.0238000540592 # Ar
261 261 1 0.0 197.31793179713782 264.3601574721072 660.7864530846697 # Ar
262 262 1 0.0 47.80946063916534 200.98244501906862 239.6058133453495 # Ar
263 263 1 0.0 674.6789119806891 391.4351574265278 762.4667686835197 # Ar
264 264 1 0.0 111.8504921231811 65.69934085248225 386.90580931551733 # Ar
265 265 1 0.0 375.61776673492267 242.69221780087227 283.5412322935967 # Ar
266 266 1 0.0 811.1616397606056 566.5649083292412 164.69205929179728 # Ar
267 267 1 0.0 344.85171270098914 602.1215524016249 843.6551673449919 # Ar
268 268 1 0.0 510.1520116490559 55.41531508922378 635.942591610652 # Ar
269 269 1 0.0 784.500894852351 495.07081874126214 549.727724975146 # Ar
270 270 1 0.0 766.5581139971375 512.2248701601478 336.971580125157 # Ar
271 271 1 0.0 340.83997305646733 127.60113336281724 225.07089238048363 # Ar
272 272 1 0.0 108.12678120669904 35.89627368026912 266.65041822196247 # Ar
273 273 1 0.0 681.4005757080628 887.5848401792035 945.8808587044464 # Ar
274 274 1 0.0 1029.1365752892161 489.7046480359712 350.83516809610217 # Ar
275 275 1 0.0 892.8949761579894 513.662642161547 895.2186848069153 # Ar
276 276 1 0.0 987.130891819711 555.6088236512242 20.02815164538885 # Ar
277 277 1 0.0 427.2441139407392 161.63785121650056 698.5538495458555 # Ar
278 278 1 0.0 275.4506814548186 316.6313578453638 856.0773739932629 # Ar
279 279 1 0.0 249.8501823818735 842.7465794263617 882.0294566803602 # Ar
280 280 1 0.0 446.60219687772246 414.53715534242554 947.5038177375611 # Ar
281 281 1 0.0 777.0032768197789 211.0812444671319 88.88099854713144 # Ar
282 282 1 0.0 885.4626041095228 230.81624908512978 723.6838591198745 # Ar
283 283 1 0.0 320.49285705776737 801.6024682630947 557.1002296708745 # Ar
284 284 1 0.0 561.4698048021659 247.98990465426263 98.42782969318714 # Ar
285 285 1 0.0 871.8911056481023 524.5321472715156 756.7954125534079 # Ar
286 286 1 0.0 771.2818860809956 506.41726528308635 274.1032796723527 # Ar
287 287 1 0.0 53.47422920676794 581.7069072217075 789.1793072953034 # Ar
288 288 1 0.0 676.2553797651555 392.6734473059142 233.27839282126868 # Ar
289 289 1 0.0 436.4204872548001 57.70353493977377 335.99761295369933 # Ar
290 290 1 0.0 395.90153467301536 783.7167332458446 82.26892930238273 # Ar
291 291 1 0.0 786.1442314774074 754.7974482205755 796.6971489897045 # Ar
292 292 1 0.0 547.493239572101 230.68941455794487 898.250106014277 # Ar
293 293 1 0.0 373.62610582767644 116.54076536600117 432.18326705474647 # Ar
294 294 1 0.0 131.04827695341956 673.7467040450875 144.27621377644053 # Ar
295 295 1 0.0 454.52090092397924 667.430204233084 425.6911445565316 # Ar
296 296 1 0.0 5.731000118076816 947.7777713973294 675.0344656459371 # Ar
297 297 1 0.0 686.1813559892729 634.4612222031528 388.45071156129 # Ar
298 298 1 0.0 293.6145890810299 569.3959788734124 639.1727307975501 # Ar
299 299 1 0.0 291.47865475110217 589.1487686137447 555.4649604730924 # Ar
300 300 1 0.0 62.40764712494878 235.90086399535326 825.3090345414191 # Ar
301 301 1 0.0 571.0785977498658 154.54040693979195 72.59812271540306 # Ar
302 302 1 0.0 715.6316405006902 1021.7969054008557 499.85831498808363 # Ar
303 303 1 0.0 510.3762564167021 133.1129637366048 442.5514281023709 # Ar
304 304 1 0.0 856.0789672509483 107.61716136864985 441.23711284223475 # Ar
305 305 1 0.0 115.4555826734567 441.1120656570594 961.1506295714142 # Ar
306 306 1 0.0 343.33577238164384 575.0405295935494 433.6830290095391 # Ar
307 307 1 0.0 215.5583962850294 399.29325490237403 536.022891300794 # Ar
308 308 1 0.0 826.0292460597125 869.0934269519511 462.80137224065584 # Ar
309 309 1 0.0 16.99681114019325 483.694971558408 332.992435587262 # Ar
310 310 1 0.0 301.55788569533274 46.77507556864335 121.04784090810443 # Ar
311 311 1 0.0 659.3924352303773 601.6079578003099 657.7385576430298 # Ar
312 312 1 0.0 53.99383926024265 889.2639705075309 73.00947347326303 # Ar
313 313 1 0.0 213.60177402714285 783.6404776427197 948.0674638284318 # Ar
314 314 1 0.0 621.2387274711717 478.1823324634086 741.0309262791461 # Ar
315 315 1 0.0 470.7784618145177 178.49676233694166 595.0674100331083 # Ar
316 316 1 0.0 717.5200446809783 591.7102709372955 334.6031328057996 # Ar
317 317 1 0.0 455.58360886190206 595.3486884690815 91.48829680941053 # Ar
318 318 1 0.0 782.4271469693642 488.65172195739166 752.1325329886029 # Ar
319 319 1 0.0 327.75393284217853 314.1977754345039 958.3185575064554 # Ar
320 320 1 0.0 999.6401250668589 55.64373585754371 579.5981085352356 # Ar
321 321 1 0.0 823.2217529600897 423.9879425516858 125.45379703669187 # Ar
322 322 1 0.0 656.7496375677948 90.29743116322634 375.2992005276101 # Ar
323 323 1 0.0 684.5075228642181 352.6968017769157 267.51637239820076 # Ar
324 324 1 0.0 950.0341180965223 180.01740792847625 214.28687037965943 # Ar
325 325 1 0.0 848.3425579522034 324.7816654946488 732.7556713852028 # Ar
326 326 1 0.0 672.1361524741465 955.0883369702589 296.7122071033675 # Ar
327 327 1 0.0 142.15739445516866 71.98040946002699 1016.3233804794909 # Ar
328 328 1 0.0 665.8719505622271 674.859331334334 642.8856519719859 # Ar
329 329 1 0.0 483.8390295779002 454.8352766160519 890.657135630576 # Ar
330 330 1 0.0 657.9355235833164 248.3057916417149 935.6567929534557 # Ar
331 331 1 0.0 433.79584527126843 11.566211485105706 178.69487547355783 # Ar
332 332 1 0.0 91.50015192693895 515.9712808908097 717.7034406979529 # Ar
333 333 1 0.0 220.753333440596 949.8542617933655 992.7265010038911 # Ar
334 334 1 0.0 851.3543889046405 190.96346105099082 226.47579202561764 # Ar
335 335 1 0.0 151.6398919630698 423.57548347237747 661.4300960167287 # Ar
336 336 1 0.0 638.4903687718192 969.8091429160827 666.4187026230763 # Ar
337 337 1 0.0 584.1039457863429 484.08890998426847 682.2800452813738 # Ar
338 338 1 0.0 486.8162260553284 554.1905661951599 433.22763061799355 # Ar
339 339 1 0.0 51.86354239667383 595.3765164867093 968.4806565636429 # Ar
340 340 1 0.0 147.89221297127116 900.9998324710022 599.5116546306132 # Ar
341 341 1 0.0 267.537560358552 601.5427955709713 279.593942519014 # Ar
342 342 1 0.0 690.7565978193769 906.6210973796317 156.9105192934822 # Ar
343 343 1 0.0 23.608027598363005 150.54206355395908 64.8198388501661 # Ar
344 344 1 0.0 562.8076415069853 165.62521059378335 123.32784045502677 # Ar
345 345 1 0.0 345.6803862872933 431.77983748005295 685.9113484340186 # Ar
346 346 1 0.0 677.8887205371805 980.428153222192 751.9008433509641 # Ar
347 347 1 0.0 860.9276262808532 728.8618870099541 458.2875640817304 # Ar
348 348 1 0.0 37.782788130442746 771.03362886597 561.6394095849747 # Ar
349 349 1 0.0 461.06287744041947 516.995767590085 884.8193147137557 # Ar
350 350 1 0.0 143.55619085063663 1004.0304397155029 266.1519646141309 # Ar
351 351 1 0.0 598.1326295483973 649.7990539435011 894.548232771648 # Ar
352 352 1 0.0 826.2716010463934 278.7009268122183 548.6462610314366 # Ar
353 353 1 0.0 561.6053163678721 905.1477075146513 367.44936041974546 # Ar
354 354 1 0.0 469.77927273625124 995.7066167862881 661.106362779041 # Ar
355 355 1 0.0 497.6532223130919 1002.9467121863644 431.6247206681859 # Ar
356 356 1 0.0 910.6850177149018 442.71044814650224 40.60258875935827 # Ar
357 357 1 0.0 449.4982511620362 706.4110979504902 368.9618772112232 # Ar
358 358 1 0.0 1026.812044317856 952.0015187323177 897.1853936368459 # Ar
359 359 1 0.0 269.80513706767766 361.708502389647 388.65862187756983 # Ar
360 360 1 0.0 637.1860441375725 799.5739772104464 386.08128378732664 # Ar
361 361 1 0.0 87.17607984752345 111.94421477890047 625.5382828251862 # Ar
362 362 1 0.0 12.405173470963405 728.3815214759968 643.8695901205396 # Ar
363 363 1 0.0 830.0401082142205 516.6614959808311 185.49512849577485 # Ar
364 364 1 0.0 683.3547799562939 959.8165246896738 939.7230601780375 # Ar
365 365 1 0.0 973.0463357081501 171.22041906086832 707.0441425019718 # Ar
366 366 1 0.0 402.7486916827926 680.3327700057796 698.2802778294091 # Ar
367 367 1 0.0 100.70659121749267 520.6993059120662 28.20549275442711 # Ar
368 368 1 0.0 187.56308404433528 824.1133030582715 297.6817669136078 # Ar
369 369 1 0.0 909.4658527368947 117.63436421151037 882.0490168315167 # Ar
370 370 1 0.0 348.5517871114486 143.10246075387283 33.071737205935285 # Ar
371 371 1 0.0 687.1706028561954 469.0546457035701 810.5117799340248 # Ar
372 372 1 0.0 672.6855412914036 881.2855371361672 424.92357455734276 # Ar
373 373 1 0.0 36.688885237548526 283.29390223237044 245.66640959584143 # Ar
374 374 1 0.0 629.2824033357825 902.5826096951104 529.1273622050081 # Ar
375 375 1 0.0 427.45724660098193 1019.5563816415322 919.3607424134952 # Ar
376 376 1 0.0 612.7696501909674 753.6621536267093 618.0224500727271 # Ar
377 377 1 0.0 602.5355684783253 417.2047408292841 790.5742495090843 # Ar
378 378 1 0.0 411.90771691446645 495.6675773651346 448.9248463068165 # Ar
379 379 1 0.0 798.9870510841631 265.29069298898105 924.6851699494192 # Ar
380 380 1 0.0 400.445597274089 827.0044048772586 259.49557565763905 # Ar
381 381 1 0.0 1016.180549548433 548.600763630596 940.1911555491123 # Ar
382 382 1 0.0 951.1568782589524 993.5760829073139 49.659453789090364 # Ar
383 383 1 0.0 134.35449078877497 626.4112791879681 456.28502146867226 # Ar
384 384 1 0.0 572.2297670548501 828.0424793578043 717.6410684009595 # Ar
385 385 1 0.0 26.587611998292257 664.6529970406318 240.8117344256327 # Ar
386 386 1 0.0 415.6926587858266 582.7411264671341 170.62852297911743 # Ar
387 387 1 0.0 369.40206037545005 579.6613457407467 155.36573155012817 # Ar
388 388 1 0.0 413.8147296966778 57.769215828105814 228.04541921641902 # Ar
389 389 1 0.0 682.9668929003184 242.10976791097005 24.912512558322323 # Ar
390 390 1 0.0 493.04022774314683 572.7090993755569 159.65670810828158 # Ar
391 391 1 0.0 523.2793719779586 1008.368677725594 871.4680106430867 # Ar
392 392 1 0.0 893.6264881653725 898.855796452732 179.41558972827298 # Ar
393 393 1 0.0 561.3646884271095 829.3183549923474 233.76243219749924 # Ar
394 394 1 0.0 851.5437465663297 955.146174304429 968.5098660219767 # Ar
395 395 1 0.0 324.5473369250598 975.2569741745172 802.5557802179919 # Ar
396 396 1 0.0 342.81347478004045 870.2796410920777 871.9884974537714 # Ar
397 397 1 0.0 841.9016689542389 620.5811537129762 390.5821543924405 # Ar
398 398 1 0.0 382.3593227841955 613.7865187896219 401.87233993265426 # Ar
399 399 1 0.0 697.2798825654636 707.9636729201184 698.2122527424408 # Ar
400 400 1 0.0 933.2694835414383 29.491371802145977 440.84345049108714 # Ar
401 401 1 0.0 81.68514899348084 44.18242773473365 665.0694899103953 # Ar
402 402 1 0.0 209.52609382626997 916.4230200512177 673.9928946611966 # Ar
403 403 1 0.0 36.03741752307678 312.5271270558785 289.44821382372993 # Ar
404 404 1 0.0 463.6523977079746 688.4890074659861 315.83643694102545 # Ar
405 405 1 0.0 424.58818435702767 947.0360233258529 217.34437799127488 # Ar
406 406 1 0.0 359.768204388155 281.56135111444286 473.3462329039751 # Ar
407 407 1 0.0 254.9083125852601 226.02399591820324 568.4485120501065 # Ar
408 408 1 0.0 757.4217951805256 426.85772249561876 826.9440247470034 # Ar
409 409 1 0.0 492.6987298068318 162.8480832332157 345.8049415228233 # Ar
410 410 1 0.0 664.9898859460177 493.86433776235344 394.7869361414371 # Ar
411 411 1 0.0 573.8995805436423 467.05002405636344 791.8463497230607 # Ar
412 412 1 0.0 403.21085152261804 653.6997122124275 252.00905354779803 # Ar
413 413 1 0.0 861.0657161920577 421.25750520847487 172.11009876292792 # Ar
414 414 1 0.0 350.2367693122094 207.99122334591777 626.075628129908 # Ar
415 415 1 0.0 16.654537248496947 523.4924185079444 360.52047173148276 # Ar
416 416 1 0.0 448.0819135991772 924.1846642255415 382.40032255057065 # Ar
417 417 1 0.0 290.67260737744823 745.236853544341 247.4675024369167 # Ar
418 418 1 0.0 24.1796212518449 291.4890182559847 28.641649383980383 # Ar
419 419 1 0.0 584.1008716705724 365.6326886429745 285.442986763981 # Ar
420 420 1 0.0 603.0494983265 899.1747086657298 432.3766825946316 # Ar
421 421 1 0.0 432.6597169848042 496.8859296011803 309.6390387845553 # Ar
422 422 1 0.0 309.54698745677285 808.6257508845938 149.41839129447538 # Ar
423 423 1 0.0 956.516352554297 204.25592186880792 185.39987374474225 # Ar
424 424 1 0.0 320.3141505579612 441.7331620445223 600.8132232705303 # Ar
425 425 1 0.0 182.1082677440512 535.4875339110738 848.7462688377673 # Ar
426 426 1 0.0 635.6618846370268 6.555889673130632 857.8664389417955 # Ar
427 427 1 0.0 915.9560885239005 492.3488043187796 103.75567212726732 # Ar
428 428 1 0.0 916.091009680209 676.3464519460273 804.3992732787331 # Ar
429 429 1 0.0 376.3882030006106 768.8492784441892 319.85569483082145 # Ar
430 430 1 0.0 522.621660833114 562.1378537201208 750.7817654983442 # Ar
431 431 1 0.0 56.39600655621332 768.2873428415186 317.91219623074204 # Ar
432 432 1 0.0 620.0331436467579 120.2188475812317 651.6619387198264 # Ar
433 433 1 0.0 880.4116167473805 15.623029747270927 189.78545501137407 # Ar
434 434 1 0.0 184.08271728365906 453.2186976712293 56.779519633512336 # Ar
435 435 1 0.0 1021.9016291308753 631.8085725330732 96.57407062732317 # Ar
436 436 1 0.0 108.90281129850003 517.9768370117013 508.9604058372011 # Ar
437 437 1 0.0 651.9105572154824 925.7476468174157 129.88152133347972 # Ar
438 438 1 0.0 612.8647437273828 890.2979626465063 573.0029428665384 # Ar
439 439 1 0.0 754.2532606362447 10.79626704274502 827.3041031662368 # Ar
440 440 1 0.0 679.5659220830343 825.3190996072916 760.118416682426 # Ar
441 441 1 0.0 992.6063355282648 44.224083622417865 666.3849988494046 # Ar
442 442 1 0.0 76.99627593297646 473.8813319629204 485.1171189517798 # Ar
443 443 1 0.0 952.8486859604773 946.1123689607182 763.1452699637056 # Ar
444 444 1 0.0 976.9566959225164 418.3413585977422 248.5661744404309 # Ar
445 445 1 0.0 68.40692000442496 148.0951847378751 88.490043976282 # Ar
446 446 1 0.0 106.952478372923 330.46770852697716 231.87809303084498 # Ar
447 447 1 0.0 639.8473079236394 312.9251173779911 184.23927596981747 # Ar
448 448 1 0.0 303.33211085036754 217.91613203904134 538.3950841813919 # Ar
449 449 1 0.0 427.7291881755653 969.933685319394 540.9393961021726 # Ar
450 450 1 0.0 643.5936777257019 786.4774394315061 890.8136990695291 # Ar
451 451 1 0.0 705.3244281221098 396.9090930738861 203.10369391939395 # Ar
452 452 1 0.0 122.94757821145693 382.5461638474909 295.7917024926354 # Ar
453 453 1 0.0 724.4057099447085 351.8989248825357 802.3952533819578 # Ar
454 454 1 0.0 259.48386364605045 832.8355936516381 121.6768414122828 # Ar
455 455 1 0.0 572.1919743021939 391.67513303122774 676.4574582446522 # Ar
456 456 1 0.0 679.6814974815139 800.5742129844117 532.4742936663625 # Ar
457 457 1 0.0 336.4531190145662 427.38006037020637 182.81653157782358 # Ar
458 458 1 0.0 687.427283119309 639.8260355679497 314.9481655766024 # Ar
459 459 1 0.0 810.3879371300404 695.1567749275458 73.37572154266167 # Ar
460 460 1 0.0 656.035335550868 63.17624616406467 477.02276496316136 # Ar
461 461 1 0.0 88.89167525090394 958.570238815315 563.4810082694311 # Ar
462 462 1 0.0 665.1219846301098 477.63510597665714 991.2883619391514 # Ar
463 463 1 0.0 556.1844311549957 886.8711798865286 638.3702553180076 # Ar
464 464 1 0.0 973.078296654306 117.5011120222915 106.07219540500721 # Ar
465 465 1 0.0 782.985576799806 207.32946840821256 681.9002129308163 # Ar
466 466 1 0.0 32.30056977707694 952.3076288618113 691.92846364604 # Ar
467 467 1 0.0 383.6000220064815 545.3102320406279 936.5105007500715 # Ar
468 468 1 0.0 491.19898962128735 931.64835333327 812.5102186809568 # Ar
469 469 1 0.0 26.09986465168045 811.0379545746152 507.05867827741275 # Ar
470 470 1 0.0 363.04275253027924 661.2807484317709 207.20403202806284 # Ar
471 471 1 0.0 763.258486840201 1012.6975192353054 557.1456117968485 # Ar
472 472 1 0.0 173.77095157537912 530.195093887997 100.78600452662964 # Ar
473 473 1 0.0 758.9073134731293 176.88231506032847 614.356412709522 # Ar
474 474 1 0.0 66.81697408681626 629.5162634250551 925.8794134862148 # Ar
475 475 1 0.0 136.6587017064356 115.3178597559513 67.08545770158125 # Ar
476 476 1 0.0 445.90431252315716 310.1248258420778 636.9155135254532 # Ar
477 477 1 0.0 191.98302518305627 515.3286598969926 36.614358537338745 # Ar
478 478 1 0.0 145.9379193930982 739.394644472127 52.0522411727568 # Ar
479 479 1 0.0 921.6443178718788 975.9870750040998 754.3441799758227 # Ar
480 480 1 0.0 109.6416547999321 81.1020616269378 578.4455316344727 # Ar
481 481 1 0.0 477.90507803607403 282.12608509029207 873.0019334781505 # Ar
482 482 1 0.0 891.0469992002317 291.5564717506096 130.51261740460055 # Ar
483 483 1 0.0 1020.2515319922219 159.67603734018542 173.32320497412627 # Ar
484 484 1 0.0 704.2524837965022 887.3194868800821 75.44828053925139 # Ar
485 485 1 0.0 888.4154316864772 665.2342764751505 496.4785636165937 # Ar
486 486 1 0.0 323.6560715014562 98.52511971790983 27.651398122864318 # Ar
487 487 1 0.0 592.0936933304574 182.01562395953587 173.60926767497952 # Ar
488 488 1 0.0 306.45134493186407 733.7894912818573 935.9716480923611 # Ar
489 489 1 0.0 436.4510298041354 18.08521358312942 494.5470756630247 # Ar
490 490 1 0.0 426.10507796303557 670.6831480202084 858.44001787777 # Ar
491 491 1 0.0 525.4597066044082 840.6936563150147 333.3640779191454 # Ar
492 492 1 0.0 765.5343686860841 30.871894099267507 651.040807875639 # Ar
493 493 1 0.0 830.925629223143 667.5052833834844 721.3840958240528 # Ar
494 494 1 0.0 530.872446766741 806.0465711539524 861.544513237777 # Ar
495 495 1 0.0 785.567019530023 707.6167639157959 458.14874413317233 # Ar
496 496 1 0.0 781.5076801769987 739.2326165999466 485.49666139648247 # Ar
497 497 1 0.0 416.82750220169163 509.6694356994571 362.0388927579124 # Ar
498 498 1 0.0 735.1051236323333 553.250944830912 187.99054598846837 # Ar
499 499 1 0.0 468.6907641116701 486.81690725069 1013.093341912979 # Ar
500 500 1 0.0 450.38266519676546 790.4333718056799 888.1821609251705 # Ar
501 501 1 0.0 626.7737913291954 833.5550495867546 1004.7902711761448 # Ar
502 502 1 0.0 732.9775234421191 669.200337600937 775.4065270261874 # Ar
503 503 1 0.0 381.59496411566937 497.48354837845676 945.985306756636 # Ar
504 504 1 0.0 96.66674890320351 1024.6570504630733 991.7719493664321 # Ar
505 505 1 0.0 711.0963027406225 1017.1630285991113 265.19998347148135 # Ar
506 506 1 0.0 114.4308360469979 1000.7453454000811 848.1517542988461 # Ar
507 507 1 0.0 672.4748620035932 84.46225696957299 80.9263279559579 # Ar
508 508 1 0.0 667.3614345449828 565.3804410965965 628.0554108425407 # Ar
509 509 1 0.0 581.247835573457 390.5847784538748 937.980290644141 # Ar
510 510 1 0.0 1004.3732271577668 665.3330918011153 104.0854911447315 # Ar
511 511 1 0.0 20.335494419459824 820.0667377548019 222.25019022517262 # Ar
512 512 1 0.0 58.850306107099236 798.9136962537843 858.0039701569117 # Ar
513 513 1 0.0 166.41857865454702 751.4225026565531 514.7122665058482 # Ar
514 514 1 0.0 526.2468118942983 1029.021780255041 580.9149738555408 # Ar
515 515 1 0.0 830.7327652561158 801.8566212636563 612.1154370503806 # Ar
516 516 1 0.0 935.2440232478839 647.2014392035999 756.7428607507285 # Ar
517 517 1 0.0 38.053598712108524 795.5781021480758 172.30192358267277 # Ar
518 518 1 0.0 1019.9909593750061 379.5876603082956 751.6704282917356 # Ar
519 519 1 0.0 819.4819407108088 507.57699409321333 93.66911530282965 # Ar
520 520 1 0.0 22.404039907973434 815.9947990860671 254.0128268560841 # Ar
521 521 1 0.0 352.0726819941247 414.8839521750826 251.5200067549614 # Ar
522 522 1 0.0 6.054542008792994 332.37694507587025 862.0317409649318 # Ar
523 523 1 0.0 923.5235738250897 45.6471307546852 636.4304210924764 # Ar
524 524 1 0.0 683.9827537529409 754.1311833005469 956.7850572413078 # Ar
525 525 1 0.0 232.1233898722294 457.8307249861851 705.2518876182804 # Ar
526 526 1 0.0 1017.7515130471572 428.75624696679506 126.95741962437067 # Ar
527 527 1 0.0 683.5130868211762 299.71972656771356 740.8385488813879 # Ar
528 528 1 0.0 1.4424462054380442 59.241316633100624 166.3379484574919 # Ar
529 529 1 0.0 76.32387529413465 139.99260986141724 958.8973817744893 # Ar
530 530 1 0.0 297.6679515167635 610.4979586053615 7.824177249859206 # Ar
531 531 1 0.0 425.48529890991176 3.27595262190331 470.7713792557588 # Ar
532 532 1 0.0 154.77225141584438 232.01019765986882 165.5336017070702 # Ar
533 533 1 0.0 645.5068335235037 607.998486220965 336.54436899459847 # Ar
534 534 1 0.0 140.2708167167452 524.6893651932386 60.37848338829311 # Ar
535 535 1 0.0 995.2507458801928 665.1402297565324 975.2683942897194 # Ar
536 536 1 0.0 944.3076841012355 49.63087960529823 171.84323791428847 # Ar
537 537 1 0.0 883.0704183325535 441.41921903568266 621.0130650417296 # Ar
538 538 1 0.0 635.3921352520748 966.0037154712288 919.0390849446758 # Ar
539 539 1 0.0 21.70814441896912 566.787151667726 210.0880517526509 # Ar
540 540 1 0.0 741.165640281911 365.723437448122 1016.1334893903578 # Ar
541 541 1 0.0 293.9606268063375 634.3432005100318 677.9097087929997 # Ar
542 542 1 0.0 1012.5266842568014 856.2503844697676 426.6360922219331 # Ar
543 543 1 0.0 39.43966653955798 222.06766894574642 68.1645482463728 # Ar
544 544 1 0.0 27.67813783979578 759.0000825344447 173.07573398914795 # Ar
545 545 1 0.0 260.2343422135754 319.57219590869107 643.4267603910038 # Ar
546 546 1 0.0 887.6135708064271 1017.3187614803622 981.6531810832889 # Ar
547 547 1 0.0 642.7534278384619 615.6319745566244 475.2437015011231 # Ar
548 548 1 0.0 446.41914515977555 442.49695791341395 549.7923818154743 # Ar
549 549 1 0.0 13.774410693586292 688.7131484575025 1013.9807035369898 # Ar
550 550 1 0.0 329.1201262769174 726.9601072611181 690.2018291482789 # Ar
551 551 1 0.0 678.1919560292765 78.56000741950808 954.3978608012445 # Ar
552 552 1 0.0 659.4443115642229 315.14966076524905 887.6410664135278 # Ar
553 553 1 0.0 352.04482580809577 567.9149151659132 569.4328280503954 # Ar
554 554 1 0.0 53.39072764006667 398.90142401105027 984.068955647548 # Ar
555 555 1 0.0 11.001448322709766 737.9382341053936 524.0188571799158 # Ar
556 556 1 0.0 731.9376907952302 857.6628894887793 902.9927222575745 # Ar
557 557 1 0.0 357.64796035435444 681.5761424202358 310.0535921628954 # Ar
558 558 1 0.0 671.4773870451181 412.4685512425118 236.85953264016058 # Ar
559 559 1 0.0 566.0971816305175 115.06860654713992 649.5154753475028 # Ar
560 560 1 0.0 592.6332910968923 978.5100631659432 667.9582694654943 # Ar
561 561 1 0.0 328.3047667742656 848.9423673959465 810.7192404515428 # Ar
562 562 1 0.0 519.8567800624255 434.8592000528479 644.0876947792143 # Ar
563 563 1 0.0 185.7813888539037 479.4411113058021 873.1222213501309 # Ar
564 564 1 0.0 519.4985474939239 253.06546961136215 694.4864580331705 # Ar
565 565 1 0.0 516.6380349341393 262.26450836726434 639.9449555332318 # Ar
566 566 1 0.0 281.6061326276438 35.939597205616835 373.1171422476478 # Ar
567 567 1 0.0 167.4656039597715 842.146012781043 471.66420657212643 # Ar
568 568 1 0.0 197.15002325825677 143.23580094051732 507.3431730421883 # Ar
569 569 1 0.0 416.2308592937103 120.64747271986543 125.4040130568133 # Ar
570 570 1 0.0 667.8893796749062 464.11676327375915 471.05201514424 # Ar
571 571 1 0.0 333.7464018696129 611.3696994870123 426.81989256823596 # Ar
572 572 1 0.0 761.4124834020596 106.96806711756169 184.4585378942498 # Ar
573 573 1 0.0 665.5463679982703 771.1398487449853 175.25613211439185 # Ar
574 574 1 0.0 721.1193253683774 731.3701496047782 358.9942262737072 # Ar
575 575 1 0.0 201.73012719623134 688.5342297100564 935.2780509134849 # Ar
576 576 1 0.0 585.9034421910334 25.962515617156303 586.5393389963243 # Ar
577 577 1 0.0 92.56539134344774 776.8132456070739 326.0269554019405 # Ar
578 578 1 0.0 448.2158725902938 379.20340834335093 276.9904413724806 # Ar
579 579 1 0.0 710.3562975396078 591.7435340271595 934.1431443182029 # Ar
580 580 1 0.0 868.4416311041367 221.29933942178553 272.5571761710587 # Ar
581 581 1 0.0 948.7997012842161 377.8249636153337 883.2786537802575 # Ar
582 582 1 0.0 563.2915965513629 549.958739039615 918.3907764579732 # Ar
583 583 1 0.0 560.8519881628963 445.85099631011315 737.4461134131054 # Ar
584 584 1 0.0 469.4119618652116 1003.855133137441 619.2403108485505 # Ar
585 585 1 0.0 55.93570982467593 618.3716258732027 31.94785379670381 # Ar
586 586 1 0.0 699.932638947327 39.6400243135247 464.9691372637996 # Ar
587 587 1 0.0 803.1063801210246 618.1813353144482 265.06468675519 # Ar
588 588 1 0.0 59.43595254139174 1029.0301316282175 1016.9600205971425 # Ar
589 589 1 0.0 533.4433786239902 471.72753356134757 747.4304023518308 # Ar
590 590 1 0.0 496.62649733351424 975.7524035746069 265.34137096901134 # Ar
591 591 1 0.0 491.6995367810474 510.8883221032287 670.746266434641 # Ar
592 592 1 0.0 1002.6126342328535 465.68316828628576 303.7848873595767 # Ar
593 593 1 0.0 315.27988375786987 270.18862155161065 98.01871065847838 # Ar
594 594 1 0.0 335.06046570906415 587.9181906031436 854.5324782034727 # Ar
595 595 1 0.0 840.4728306512026 447.44895725012964 270.9678967819262 # Ar
596 596 1 0.0 462.8708478351452 292.2457631848663 5.112591492687273 # Ar
597 597 1 0.0 545.9083607842057 759.5880690381366 40.90503514400774 # Ar
598 598 1 0.0 73.47560809923253 620.3507452025596 770.3861276046956 # Ar
599 599 1 0.0 811.8151088876915 322.04716656661276 695.5431699506041 # Ar
600 600 1 0.0 593.662128150033 636.8645165752046 488.8480670049625 # Ar
601 601 1 0.0 670.574091182947 369.1512086102109 811.1164260078889 # Ar
602 602 1 0.0 734.8703213934233 525.0154803163921 728.1449385119537 # Ar
603 603 1 0.0 189.92622762022572 19.35347662326516 425.83288186937574 # Ar
604 604 1 0.0 878.8351838034815 489.0680491561163 708.8441688499619 # Ar
605 605 1 0.0 747.378248259979 157.49147734214506 766.9465931237074 # Ar
606 606 1 0.0 320.6094766051124 127.0492380431888 375.4571033742498 # Ar
607 607 1 0.0 96.08937395895508 205.0379869229517 662.3542107552178 # Ar
608 608 1 0.0 175.31197259774024 68.01589713602196 922.0577999278768 # Ar
609 609 1 0.0 848.0111244273229 1014.4230529580287 302.59115054852344 # Ar
610 610 1 0.0 59.02854213793033 891.8855415182317 854.6598736971058 # Ar
611 611 1 0.0 714.8952947573925 435.91563334463194 578.8499659204256 # Ar
612 612 1 0.0 583.2689039469301 197.0374281727899 40.12551749241271 # Ar
613 613 1 0.0 274.9391432820678 364.3977840813995 778.2906928403881 # Ar
614 614 1 0.0 237.08260241900996 740.155360734216 547.9244728465126 # Ar
615 615 1 0.0 177.97695508857572 822.5435305486507 664.8343855735417 # Ar
616 616 1 0.0 133.42217807795316 370.51668027666506 590.9150524635219 # Ar
617 617 1 0.0 400.1602904765822 67.19860574075814 503.5650064050372 # Ar
618 618 1 0.0 371.29714175502943 704.0889388948214 52.40982045012256 # Ar
619 619 1 0.0 95.00777196233102 434.22005753507835 827.7391305693692 # Ar
620 620 1 0.0 904.5570687263219 772.0848360963395 496.6743220770931 # Ar
621 621 1 0.0 938.3798280922819 656.289640360417 513.2958764543624 # Ar
622 622 1 0.0 285.67399976646374 167.13175719593173 881.9989058588193 # Ar
623 623 1 0.0 902.9936151486131 314.61762111945785 550.6174388126353 # Ar
624 624 1 0.0 22.984310768019288 728.4565676023985 395.1649613037032 # Ar
625 625 1 0.0 751.4403114909567 569.3787339718749 118.77283271515088 # Ar
626 626 1 0.0 614.7901820537697 558.3437930426039 398.2236949769641 # Ar
627 627 1 0.0 462.9938612978051 659.7445121187436 315.97959566311147 # Ar
628 628 1 0.0 538.1658859158895 3.0575194348302075 294.8609763513319 # Ar
629 629 1 0.0 419.4631108445696 179.41590254253632 350.6349676686565 # Ar
630 630 1 0.0 964.0460991624861 902.0118359034108 90.98241815639459 # Ar
631 631 1 0.0 410.8894662978777 782.6486789650788 390.4007576038356 # Ar
632 632 1 0.0 180.76028717848106 523.4831750071436 188.0234021389331 # Ar
633 633 1 0.0 403.85713314726206 870.8546215267315 909.5699684439496 # Ar
634 634 1 0.0 384.09869436671477 404.3471895827185 503.67339177006494 # Ar
635 635 1 0.0 187.691894273288 168.98757392263587 279.3039480061078 # Ar
636 636 1 0.0 222.39798648852056 674.5920814955546 948.0168337130684 # Ar
637 637 1 0.0 528.9720116016972 873.5341429711242 308.376489363706 # Ar
638 638 1 0.0 308.695180037858 604.1581280708501 823.0456122004877 # Ar
639 639 1 0.0 457.61486651099085 1003.1223824796868 522.006326700002 # Ar
640 640 1 0.0 690.9025377125482 28.795015451834395 669.946320955487 # Ar
641 641 1 0.0 551.2707222519444 848.0066348331792 337.97035256197415 # Ar
642 642 1 0.0 881.130104854357 465.70405893467864 371.2418202894747 # Ar
643 643 1 0.0 424.2748797935206 947.4504611218771 1027.4717435124112 # Ar
644 644 1 0.0 720.7305673866883 71.22100357720312 829.8038314472327 # Ar
645 645 1 0.0 387.9970555025653 154.17107518171298 704.7970413965377 # Ar
646 646 1 0.0 74.29153686572802 842.3270107308535 674.13441282859 # Ar
647 647 1 0.0 279.13244696649565 128.36208849704468 724.2681456248903 # Ar
648 648 1 0.0 509.33449886036436 49.111364394536864 6.89754368700391 # Ar
649 649 1 0.0 727.348732252194 952.8983013683011 898.061663040485 # Ar
650 650 1 0.0 474.16336152167287 372.65847623460456 441.260452822056 # Ar
651 651 1 0.0 100.94437343442279 765.712898981847 624.9969569405541 # Ar
652 652 1 0.0 891.9215101441315 802.3218649253034 110.32221037099683 # Ar
653 653 1 0.0 892.4341100795589 172.39341082557047 335.4334047241966 # Ar
654 654 1 0.0 640.694851579905 94.43543657276204 248.78012301117704 # Ar
655 655 1 0.0 387.78641973843173 416.0297484889923 260.71622857987154 # Ar
656 656 1 0.0 408.54285862632054 315.85160307569413 938.7021024985554 # Ar
657 657 1 0.0 1028.3032379777383 155.8868287814288 418.05245204613055 # Ar
658 658 1 0.0 549.3804672172602 639.8066507806991 472.1028000031413 # Ar
659 659 1 0.0 572.8070847482026 186.16539265389736 311.41981700085495 # Ar
660 660 1 0.0 189.38620521224016 976.768004888081 558.1425307793683 # Ar
661 661 1 0.0 96.80607546644949 205.5289016950005 239.0602685031098 # Ar
662 662 1 0.0 281.58965742276513 101.98720498036941 513.9380495883323 # Ar
663 663 1 0.0 602.0664207801624 634.4264202770075 813.9632400114288 # Ar
664 664 1 0.0 999.2970097977708 680.2425868552842 389.4264030873673 # Ar
665 665 1 0.0 886.3355758369247 227.99078488560832 840.8950779765458 # Ar
666 666 1 0.0 769.5578271460327 892.85697593854 562.4990514653849 # Ar
667 667 1 0.0 1025.734894512472 596.3610452176139 328.3395476641672 # Ar
668 668 1 0.0 293.1508544554778 98.08475048192123 771.5811907968448 # Ar
669 669 1 0.0 949.0899359804232 563.9112553375566 957.2868990483339 # Ar
670 670 1 0.0 814.0261897207954 797.365821745081 850.0247323393041 # Ar
671 671 1 0.0 684.9487783313588 107.03002218242904 822.310059761368 # Ar
672 672 1 0.0 24.1921887457279 619.9136002855464 236.65661930341108 # Ar
673 673 1 0.0 709.4329198637679 104.83011611693448 741.5629882461378 # Ar
674 674 1 0.0 45.63026477790016 511.55344492594276 770.0694758791462 # Ar
675 675 1 0.0 929.4876558659062 540.3917311185035 123.70981181045889 # Ar
676 676 1 0.0 663.3442617106883 866.913684417413 694.8169763075426 # Ar
677 677 1 0.0 509.04737347713075 99.99096550922171 872.8047484929854 # Ar
678 678 1 0.0 776.6399832274059 451.7737233241913 470.6926939081469 # Ar
679 679 1 0.0 198.23544874600583 112.72187961581035 363.3238850865417 # Ar
680 680 1 0.0 218.53446546678106 699.1771272299447 204.1885935508365 # Ar
681 681 1 0.0 454.7187807061829 349.20802248313606 962.9477676333395 # Ar
682 682 1 0.0 648.9936272791772 55.757286795045815 823.8253379644605 # Ar
683 683 1 0.0 112.49988084937212 549.1226924308461 934.2433107371043 # Ar
684 684 1 0.0 898.9037342068495 501.0648166407937 787.0658391521931 # Ar
685 685 1 0.0 977.5861572845054 392.91589066559203 0.017342777709416304 # Ar
686 686 1 0.0 926.0096783176731 519.4129121716396 280.0409575808179 # Ar
687 687 1 0.0 309.0188743457982 372.5480730926924 201.46922948964604 # Ar
688 688 1 0.0 401.5206323277486 351.97456020082234 845.2108004515995 # Ar
689 689 1 0.0 36.85274622393358 221.89602735941565 550.1613046570054 # Ar
690 690 1 0.0 418.5330841977779 478.9352109923356 143.9349523048582 # Ar
691 691 1 0.0 884.5484414518777 134.23907312074573 48.15361069029488 # Ar
692 692 1 0.0 89.25758043544484 330.6140986807523 794.6616036120697 # Ar
693 693 1 0.0 273.9238671359181 233.13770301354486 492.3069871056416 # Ar
694 694 1 0.0 844.6119625120423 356.00602404015524 126.4906228627287 # Ar
695 695 1 0.0 588.1169911428651 821.61067617313 553.0744931274681 # Ar
696 696 1 0.0 317.3187449811211 914.8066646889675 321.42785284388697 # Ar
697 697 1 0.0 385.11933263320753 151.441829455161 695.6997279970423 # Ar
698 698 1 0.0 881.5403375735058 686.949805565819 387.8139257604907 # Ar
699 699 1 0.0 682.1601850353426 871.3429596483253 838.8382481779588 # Ar
700 700 1 0.0 590.7243535866249 766.36945951985 307.6807024226016 # Ar
701 701 1 0.0 116.87212624626973 115.98684424012387 976.8661607424855 # Ar
702 702 1 0.0 486.1424044106344 213.78685980892152 384.8140961076114 # Ar
703 703 1 0.0 535.8025226521396 546.7891739188025 983.7263808012144 # Ar
704 704 1 0.0 441.9408389886671 814.1465773032593 121.29977023151713 # Ar
705 705 1 0.0 839.3507543381878 414.9651209774828 537.4289994877034 # Ar
706 706 1 0.0 370.60679040861044 958.9103783001406 708.2538039539376 # Ar
707 707 1 0.0 218.86930670246858 1017.364977233758 488.50586011177234 # Ar
708 708 1 0.0 164.5320188600976 254.85112883438674 949.9472712075736 # Ar
709 709 1 0.0 445.16744237578695 582.8904473900743 525.2975195466746 # Ar
710 710 1 0.0 899.7956777242343 861.7570138825524 821.1888779804842 # Ar
711 711 1 0.0 911.7308208596804 402.5280330187191 614.5862841288598 # Ar
712 712 1 0.0 281.8429514953523 777.87247721528 954.6071633985097 # Ar
713 713 1 0.0 264.5705999718972 900.4420484001175 727.0421754671617 # Ar
714 714 1 0.0 157.04451160542143 950.5446724344773 58.262740972496765 # Ar
715 715 1 0.0 792.384326758975 752.3543786037447 170.03851543143733 # Ar
716 716 1 0.0 236.478043028856 38.129616133163594 966.2597585626245 # Ar
717 717 1 0.0 316.14797673733693 521.8067560513562 356.25779883055816 # Ar
718 718 1 0.0 998.3041247396613 415.78615054269795 823.35604880107 # Ar
719 719 1 0.0 234.8998742520075 725.4687379153772 1014.8816746019742 # Ar
720 720 1 0.0 996.4320308052005 454.1200665652101 828.1698705731424 # Ar
721 721 1 0.0 1014.9935001687031 798.5723761733278 716.9391566137282 # Ar
722 722 1 0.0 415.03761310406367 348.70147768074514 451.92497066062305 # Ar
723 723 1 0.0 132.5909455869054 906.1309944255795 300.67355937772794 # Ar
724 724 1 0.0 658.6622404677007 104.28859566107465 505.46709509498487 # Ar
725 725 1 0.0 784.4068660566055 451.44879239952957 927.8932223950035 # Ar
726 726 1 0.0 522.6456675817866 245.04214565170403 361.1745916440845 # Ar
727 727 1 0.0 814.304865265193 74.8929600127429 768.6414947097072 # Ar
728 728 1 0.0 876.599441009757 108.5869295705348 698.4105365311407 # Ar
729 729 1 0.0 936.1439704550926 281.7012903145647 26.272280249834445 # Ar
730 730 1 0.0 558.3484475528705 899.0481650703297 600.070135067272 # Ar
731 731 1 0.0 699.0114517667924 474.65717594545987 323.1596551781632 # Ar
732 732 1 0.0 982.9131590453162 510.6970260502629 30.861603663876465 # Ar
733 733 1 0.0 623.7695923412255 616.416225143503 439.6835582162561 # Ar
734 734 1 0.0 511.5018466666917 197.54899626740294 697.2142415136187 # Ar
735 735 1 0.0 636.7910317786443 493.4888524589031 685.3877659985372 # Ar
736 736 1 0.0 65.7350264707236 848.7490124645242 896.7556568269414 # Ar
737 737 1 0.0 586.9827019568751 585.9254626277182 922.7912656389543 # Ar
738 738 1 0.0 181.70205898377682 913.0883962237233 673.8711812952246 # Ar
739 739 1 0.0 987.7125301680212 985.3596157690587 617.2869424601515 # Ar
740 740 1 0.0 365.55507366193984 1023.5044784499569 538.6321781803761 # Ar
741 741 1 0.0 47.681787788357575 862.5576025848906 505.0078158238483 # Ar
742 742 1 0.0 243.50957622143846 340.50982734647374 540.862038289469 # Ar
743 743 1 0.0 730.8645581987464 1024.2185550453678 771.9382663527313 # Ar
744 744 1 0.0 393.4426650834342 127.9246483899271 15.606188309629246 # Ar
745 745 1 0.0 232.5163592284179 433.6480747558884 893.8425071621605 # Ar
746 746 1 0.0 738.882258041912 266.50718030963304 919.0387621954782 # Ar
747 747 1 0.0 791.1267649859398 1025.4834130316212 613.7131266461039 # Ar
748 748 1 0.0 677.3867352907984 480.3357699341467 397.9771800474464 # Ar
749 749 1 0.0 643.9334781678958 120.65499986491915 590.3087893187484 # Ar
750 750 1 0.0 20.746806799260057 718.2680094800503 2.766402061870428 # Ar
751 751 1 0.0 33.38106797168374 735.4751995731966 327.6911674981422 # Ar
752 752 1 0.0 618.6115559364586 190.1887027646787 529.8046460255108 # Ar
753 753 1 0.0 1003.4643030095814 865.1983284288528 129.65553689517617 # Ar
754 754 1 0.0 119.12177849942653 452.4441485200811 104.2789761645258 # Ar
755 755 1 0.0 388.41146142540094 165.74960882775642 877.7434192586197 # Ar
756 756 1 0.0 69.50409628212921 220.12020460590725 1022.2736386166182 # Ar
757 757 1 0.0 423.5689078678304 283.64924485638556 320.4413549575584 # Ar
758 758 1 0.0 962.3758090537577 421.93615757476346 47.84709700209395 # Ar
759 759 1 0.0 103.48375506618315 197.23497798591862 245.91926062678962 # Ar
760 760 1 0.0 146.0217103963706 264.89616127197166 760.7650093491152 # Ar
761 761 1 0.0 704.2832435393196 207.6629746681343 517.5106446768218 # Ar
762 762 1 0.0 206.26379736657591 175.55638074303474 447.5884739528415 # Ar
763 763 1 0.0 448.72594321900306 975.3467446160248 393.7768057543195 # Ar
764 764 1 0.0 175.19529979519533 22.13562157921232 776.3340111829951 # Ar
765 765 1 0.0 815.8860274791737 738.9379337005118 913.0314667247039 # Ar
766 766 1 0.0 804.645882503578 82.79740874482965 659.8112000042996 # Ar
767 767 1 0.0 789.1852383827681 734.0267009418478 294.0511776523545 # Ar
768 768 1 0.0 370.64364328392327 916.4314535366002 670.5643618817313 # Ar
769 769 1 0.0 49.739338866570186 557.2147617987711 206.42431914519793 # Ar
770 770 1 0.0 41.4676834967872 828.2161905883887 833.3328453293982 # Ar
771 771 1 0.0 602.9738371413729 1003.8416180236565 962.4409158555542 # Ar
772 772 1 0.0 595.7412678506947 433.4223487428904 497.72549827469805 # Ar
773 773 1 0.0 508.5016953381367 609.477176613155 452.237480656792 # Ar
774 774 1 0.0 756.0003050437766 607.8894569825513 698.9303983104963 # Ar
775 775 1 0.0 376.2212616032592 873.9427576921548 597.7357100186522 # Ar
776 776 1 0.0 540.4065102587239 509.43713911933065 798.4477486680544 # Ar
777 777 1 0.0 230.0382644567952 983.8167361427455 390.61991484982707 # Ar
778 778 1 0.0 641.3929393592792 932.0296196341435 81.57946479740424 # Ar
779 779 1 0.0 107.55117600482156 991.6832418559654 538.330618011428 # Ar
780 780 1 0.0 436.8811937343935 641.149974261346 548.3938676566655 # Ar
781 781 1 0.0 467.00433753015335 199.7915876574393 613.9225750040052 # Ar
782 782 1 0.0 534.3621830857999 547.1331746730657 443.12917729846436 # Ar
783 783 1 0.0 533.6749365190725 651.8700611980242 72.63534035746113 # Ar
784 784 1 0.0 893.0870425446608 966.2369824094142 552.1821765888603 # Ar
785 785 1 0.0 318.2792772959005 962.7180478683825 350.1573733929037 # Ar
786 786 1 0.0 748.7708807432825 344.4929848190467 968.1834769547966 # Ar
787 787 1 0.0 421.9301139269801 163.2248387071785 81.79677052281946 # Ar
788 788 1 0.0 643.0512502343466 547.171736406461 810.7525849618537 # Ar
789 789 1 0.0 788.1098342489921 106.14554846046062 441.9414169394873 # Ar
790 790 1 0.0 909.3068249699164 448.3796726674711 983.3465542033349 # Ar
791 791 1 0.0 842.2898311132017 723.3353649265792 148.1883504169672 # Ar
792 792 1 0.0 104.1760852264442 209.3064813347559 813.1038144998765 # Ar
793 793 1 0.0 671.0397884742242 20.2590346167353 130.133182732556 # Ar
794 794 1 0.0 1014.4770812964526 64.29625004473125 33.877397958850494 # Ar
795 795 1 0.0 597.9740415914248 836.832537080716 130.00420510576828 # Ar
796 796 1 0.0 480.09553113098247 43.68990120903941 228.96082985204217 # Ar
797 797 1 0.0 636.7523320579922 865.8701274912858 124.59396839464544 # Ar
798 798 1 0.0 142.46436976571826 1025.5558333587605 497.8286367610513 # Ar
799 799 1 0.0 603.7911147313082 588.1316298748727 884.7623570681914 # Ar
800 800 1 0.0 5.8102100212765055 606.7661212738592 900.0555026914727 # Ar
801 801 1 0.0 417.25695855259136 297.74883239426447 899.7821140503453 # Ar
802 802 1 0.0 22.795129023642062 317.90883529721077 665.817399501101 # Ar
803 803 1 0.0 366.9500082965731 903.1175429383525 760.7399960893824 # Ar
804 804 1 0.0 395.35966892476665 841.3111056082065 641.7019662672348 # Ar
805 805 1 0.0 220.3175567539557 109.85651987586051 216.96794009704342 # Ar
806 806 1 0.0 422.67371545871083 613.1150206391603 745.7549816468759 # Ar
807 807 1 0.0 590.457840692417 477.2305831349478 1001.5869270367047 # Ar
808 808 1 0.0 812.2030995799564 519.0748960625775 683.3286887745353 # Ar
809 809 1 0.0 114.90457151972724 661.5549449647742 165.55605308129066 # Ar
810 810 1 0.0 385.940159067087 45.49414820714417 786.0444797032658 # Ar
811 811 1 0.0 681.1665844870273 153.70031888562826 330.4382369621775 # Ar
812 812 1 0.0 610.0912231966985 940.4018062356125 590.7756203398314 # Ar
813 813 1 0.0 1005.5142962092604 612.1573788596739 293.25380711998025 # Ar
814 814 1 0.0 388.0484549808397 178.44790797972325 188.19192104128655 # Ar
815 815 1 0.0 564.6993681610247 474.10758826684685 845.8337187102936 # Ar
816 816 1 0.0 761.1525970460964 146.7488055794918 673.9325704352983 # Ar
817 817 1 0.0 911.0343346134067 168.75311081997006 853.3537294871538 # Ar
818 818 1 0.0 880.0983591098978 65.0052713022338 31.13714462508812 # Ar
819 819 1 0.0 964.1383525739097 31.296024758746974 35.72401564944255 # Ar
820 820 1 0.0 817.7141520706656 917.621417055974 127.07851358477193 # Ar
821 821 1 0.0 574.7054344349983 584.0175593566643 315.320450717387 # Ar
822 822 1 0.0 283.3057331413262 686.0559572473028 136.62836753821276 # Ar
823 823 1 0.0 308.86579891873845 220.75126965012043 281.39880801340666 # Ar
824 824 1 0.0 295.0967162090039 144.98320335603066 14.503504981717505 # Ar
825 825 1 0.0 154.2615119911897 0.541610971601223 586.0310337030628 # Ar
826 826 1 0.0 330.63038159396524 207.52060549926742 645.6001457693031 # Ar
827 827 1 0.0 128.8168927054845 36.12201159758843 571.8665474659585 # Ar
828 828 1 0.0 555.3679119224939 668.1183922711562 321.9135521925043 # Ar
829 829 1 0.0 144.96816683371856 1020.1905929151384 665.1771653791309 # Ar
830 830 1 0.0 215.5462656843298 442.5523782068371 80.6404848883351 # Ar
831 831 1 0.0 764.8044060653259 36.120494597463086 730.7413772409159 # Ar
832 832 1 0.0 216.94016195129493 204.64093347621633 92.39221128357188 # Ar
833 833 1 0.0 128.43688620422296 68.90511091924927 526.5708001640332 # Ar
834 834 1 0.0 665.9062915661542 461.02651205692325 931.1541247857164 # Ar
835 835 1 0.0 739.0758522578606 141.50797488890174 112.27961206589134 # Ar
836 836 1 0.0 778.6404485651752 457.30619207977895 781.6618650380354 # Ar
837 837 1 0.0 689.0941151194544 87.20684409425871 506.7666929330812 # Ar
838 838 1 0.0 796.1358536046716 527.6574002116087 206.46133671512627 # Ar
839 839 1 0.0 2.8300192129120365 298.96886669454705 761.4652715319513 # Ar
840 840 1 0.0 791.5795971585754 751.1996233288693 686.0024091938611 # Ar
841 841 1 0.0 282.4756800042055 908.2426797911453 815.2167670423098 # Ar
842 842 1 0.0 246.07876801864748 263.3819530344874 887.065907609823 # Ar
843 843 1 0.0 283.96376048731554 435.7730534559134 847.5853387895118 # Ar
844 844 1 0.0 191.89059421657058 397.3727974822478 472.57187010825345 # Ar
845 845 1 0.0 680.8950063996393 249.89957987902528 782.6111343651492 # Ar
846 846 1 0.0 317.6086214550866 325.89624235923674 374.7787070020644 # Ar
847 847 1 0.0 442.4638127393257 676.0370563398619 825.5999153807909 # Ar
848 848 1 0.0 205.53059858926886 1024.9572917277414 792.4907772163662 # Ar
849 849 1 0.0 775.8916112720507 388.90188526896816 104.23603066498613 # Ar
850 850 1 0.0 737.3615781333352 604.0511324721431 149.12882319119274 # Ar
851 851 1 0.0 569.2798220333462 356.85721014752374 540.0489422380884 # Ar
852 852 1 0.0 397.64580908407555 582.2130471277636 488.511822479923 # Ar
853 853 1 0.0 1003.9143004624991 293.9886615630317 604.380703772334 # Ar
854 854 1 0.0 4.326882139278359 473.1745572908148 199.3489013766627 # Ar
855 855 1 0.0 702.5008217942573 477.6880440372236 833.4863810803239 # Ar
856 856 1 0.0 641.0549450994607 879.106186548409 755.4363048838056 # Ar
857 857 1 0.0 746.5805340365087 604.6697427310071 775.7932301713204 # Ar
858 858 1 0.0 316.43801569868367 1019.2333738222707 748.841093960804 # Ar
859 859 1 0.0 51.901746703074096 105.73393345198737 335.0069071353277 # Ar
860 860 1 0.0 273.1234909068626 948.1544008074301 960.379476841092 # Ar
861 861 1 0.0 200.98886454516898 120.63885033762416 659.7208078292273 # Ar
862 862 1 0.0 115.70630344380845 568.6495414860334 119.10585657589965 # Ar
863 863 1 0.0 561.5269910375647 412.56195189216714 830.2173744733519 # Ar
864 864 1 0.0 273.4708213844179 33.66531140740829 168.52509379764774 # Ar
865 865 1 0.0 584.9707060703458 719.7883403541541 87.53317950810212 # Ar
866 866 1 0.0 668.2502968627002 911.170979346893 684.7437037077656 # Ar
867 867 1 0.0 400.82622716343076 441.2394383745891 306.3457608725755 # Ar
868 868 1 0.0 131.87037916364412 969.6223787779619 839.9411767433512 # Ar
869 869 1 0.0 965.6809437001494 57.23167810842197 16.794520074227353 # Ar
870 870 1 0.0 997.4076074083046 160.0244696850443 6.8292827793220665 # Ar
871 871 1 0.0 488.8620264943021 760.4026216615104 71.16397543258806 # Ar
872 872 1 0.0 712.5272336712164 248.3745335372905 599.929082877336 # Ar
873 873 1 0.0 677.1218682843694 359.2879527290437 729.973145602627 # Ar
874 874 1 0.0 935.0167571236444 908.6702422390724 833.6288645699248 # Ar
875 875 1 0.0 569.7010227808637 473.52845294184874 2.9508932420056295 # Ar
876 876 1 0.0 833.1060912386026 1026.0239253937298 848.2023526755138 # Ar
877 877 1 0.0 26.67446527625824 978.2789347293001 541.4270127265243 # Ar
878 878 1 0.0 466.39315590721304 849.1327393043819 222.2881369721939 # Ar
879 879 1 0.0 1013.9550000088655 804.4657742667205 239.85921882382888 # Ar
880 880 1 0.0 692.8153023059391 990.4626969177853 725.4509847715372 # Ar
881 881 1 0.0 257.9919563959382 416.23587214358105 682.6151930335623 # Ar
882 882 1 0.0 967.9130079683833 558.5955502466605 729.7409615955129 # Ar
883 883 1 0.0 681.5556082894836 1003.2777958237405 547.5946198968314 # Ar
884 884 1 0.0 316.2168300889371 40.89209611589604 885.4654751250825 # Ar
885 885 1 0.0 282.0896744083547 684.9620465872405 852.3692433791947 # Ar
886 886 1 0.0 494.6825552509432 905.524006120654 981.487265242221 # Ar
887 887 1 0.0 508.05516592911016 34.763493888752414 311.5643730595206 # Ar
888 888 1 0.0 524.1812893075266 701.9026249843026 978.7481305565149 # Ar
889 889 1 0.0 1025.7568799368025 116.21382669925275 691.620954376263 # Ar
890 890 1 0.0 475.81766436405076 714.5307715300883 117.86944882888301 # Ar
891 891 1 0.0 325.74912692667766 436.2547900801854 1020.8902760959432 # Ar
892 892 1 0.0 526.4312969265977 920.1610388280378 669.41129766447 # Ar
893 893 1 0.0 885.6734674566318 652.3987712726552 303.92667993666186 # Ar
894 894 1 0.0 19.28143677680283 447.8999497686353 641.1307478176935 # Ar
895 895 1 0.0 258.95127987011097 989.0769921247696 705.9140012238887 # Ar
896 896 1 0.0 684.871324573048 114.53993183698869 99.49217214359719 # Ar
897 897 1 0.0 71.751886939489 374.0507776321977 721.779784868928 # Ar
898 898 1 0.0 900.5371185000079 78.49892642647974 447.1789432720091 # Ar
899 899 1 0.0 697.1097839818325 583.3696393988837 562.8756519691757 # Ar
900 900 1 0.0 672.7047190208301 49.89161323718598 773.2385575239846 # Ar
901 901 1 0.0 1018.1967717443996 814.1796786252502 58.47943362504655 # Ar
902 902 1 0.0 618.7158915194527 729.597266673957 870.3441257945019 # Ar
903 903 1 0.0 472.573460022604 804.3763995835524 501.6530502228272 # Ar
904 904 1 0.0 763.2590224330008 416.54463532920164 427.91444991525395 # Ar
905 905 1 0.0 711.6822900554065 129.29043113845293 544.1353754032816 # Ar
906 906 1 0.0 887.4955432756587 974.2454006714818 618.6461652179137 # Ar
907 907 1 0.0 385.23988649427054 904.7800779116016 528.9620608247069 # Ar
908 908 1 0.0 540.5840793617459 635.3843318927309 361.7061218843994 # Ar
909 909 1 0.0 761.7160291550689 30.732702803915657 975.2272576977922 # Ar
910 910 1 0.0 335.4960280343537 418.1906697742956 131.959701097707 # Ar
911 911 1 0.0 159.2837519284833 761.6036130882752 1026.7568268214927 # Ar
912 912 1 0.0 379.70073328542026 290.7299346980143 690.698014924752 # Ar
913 913 1 0.0 784.6039985217724 951.3270177160371 997.3121889775454 # Ar
914 914 1 0.0 16.476691045841722 993.1102177097671 99.9460537936456 # Ar
915 915 1 0.0 574.8964055611127 921.679717540686 250.78976589713923 # Ar
916 916 1 0.0 816.1690686081705 785.1420467633811 931.0199746041967 # Ar
917 917 1 0.0 231.0068794401794 1018.6670996005712 500.79617644094617 # Ar
918 918 1 0.0 157.53500267521784 909.3643973238429 914.8641025979312 # Ar
919 919 1 0.0 457.4250560342926 402.8468567892926 312.3197028879367 # Ar
920 920 1 0.0 177.59589339093424 364.38415288098815 634.4729427215616 # Ar
921 921 1 0.0 512.6288523041011 717.397159039787 36.529082029039735 # Ar
922 922 1 0.0 810.5338834854557 363.1430132019362 769.5096651332627 # Ar
923 923 1 0.0 773.4386678985139 864.2459443776623 939.708159742924 # Ar
924 924 1 0.0 579.0349363420129 652.6407698105181 140.62127612475595 # Ar
925 925 1 0.0 731.009846261825 716.0749035967042 776.6500425870568 # Ar
926 926 1 0.0 218.91038384757638 921.0561351145444 797.8096813964202 # Ar
927 927 1 0.0 314.9560483936427 518.7591700854399 677.1229474806138 # Ar
928 928 1 0.0 515.2261447532452 18.07332834847701 576.0007694639381 # Ar
929 929 1 0.0 873.9258949613867 948.0169169580416 40.06155006508233 # Ar
930 930 1 0.0 654.706563158953 356.12057133247885 675.4742394798435 # Ar
931 931 1 0.0 429.10382663746884 398.5004448681498 709.8388399642249 # Ar
932 932 1 0.0 671.2523249077778 696.4623275644531 355.1218793100774 # Ar
933 933 1 0.0 244.34101906601273 718.8483445790984 474.4968637511042 # Ar
934 934 1 0.0 769.2109456942599 376.45005224765265 302.521534346711 # Ar
935 935 1 0.0 467.2254856938171 469.5539351285997 748.8369127726045 # Ar
936 936 1 0.0 20.19589506107585 750.6237145785295 751.554956904914 # Ar
937 937 1 0.0 667.3311108144572 670.7581836603421 819.273000041269 # Ar
938 938 1 0.0 94.00748590796836 734.0418128396639 764.6202717641332 # Ar
939 939 1 0.0 674.1294166767664 401.3862042754039 622.7643848138749 # Ar
940 940 1 0.0 833.3762556342207 635.369280776213 545.2460309979889 # Ar
941 941 1 0.0 736.2207921780522 4.872496257451193 910.6015358463478 # Ar
942 942 1 0.0 320.1494663205895 504.57302804864815 11.825300818039828 # Ar
943 943 1 0.0 55.22580644015421 612.7230396017446 791.105537218099 # Ar
944 944 1 0.0 715.9498538130179 153.501871276819 641.7976718054177 # Ar
945 945 1 0.0 388.47386800103646 544.5424903622228 211.05884980424796 # Ar
946 946 1 0.0 406.3640550855369 761.7002976547184 468.654670580618 # Ar
947 947 1 0.0 552.694980869029 614.7622277509288 124.73515461720093 # Ar
948 948 1 0.0 127.6270700157076 325.419619226861 65.27102701236488 # Ar
949 949 1 0.0 472.8938148855821 505.9733142266177 818.2512964770563 # Ar
950 950 1 0.0 990.1844721193003 26.85041736864107 785.7328688198578 # Ar
951 951 1 0.0 683.6532017188066 594.4776671399939 767.5373499339229 # Ar
952 952 1 0.0 767.2524327474043 353.6955561260133 491.059468189747 # Ar
953 953 1 0.0 538.4301211745562 516.2174469016633 676.6374044868132 # Ar
954 954 1 0.0 281.21937073064646 679.4377093727144 728.6852540220428 # Ar
955 955 1 0.0 763.9129292781208 637.4228515107669 335.5783508519912 # Ar
956 956 1 0.0 4.712558674425624 556.727402731685 179.9108237516171 # Ar
957 957 1 0.0 370.77151759418257 73.84199642675802 68.90898979273946 # Ar
958 958 1 0.0 436.2029635026048 182.39612477749307 428.1885242000666 # Ar
959 959 1 0.0 547.539998760437 575.6724375534122 49.98580402610111 # Ar
960 960 1 0.0 159.80701174024247 159.09131858509966 633.7344621591086 # Ar
961 961 1 0.0 411.32292984168737 374.40494002825625 703.6692142821686 # Ar
962 962 1 0.0 416.6572167995362 863.0756662252063 793.0335732750663 # Ar
963 963 1 0.0 378.15794222917884 315.7880201414262 824.4951613023981 # Ar
964 964 1 0.0 656.6539682733525 19.786901257404953 728.3860223691585 # Ar
965 965 1 0.0 255.92703609798858 304.6097595490678 323.67587867282214 # Ar
966 966 1 0.0 847.4286806173358 411.2430063026887 484.34490391575355 # Ar
967 967 1 0.0 988.0764731086261 890.1648016424324 327.3469444153855 # Ar
968 968 1 0.0 593.6230633650488 175.3927214785038 776.5618984881495 # Ar
969 969 1 0.0 195.31555327047482 996.0078762323208 133.08849705217483 # Ar
970 970 1 0.0 556.1910947952427 476.37478799587984 326.0739490629277 # Ar
971 971 1 0.0 174.99869705997494 403.3616419670043 956.390107877122 # Ar
972 972 1 0.0 266.0133366465089 125.47964334181073 669.2910434223937 # Ar
973 973 1 0.0 677.8017610704178 30.627959354401852 949.0291515719637 # Ar
974 974 1 0.0 895.2604312976316 884.1063977084206 484.4731511971782 # Ar
975 975 1 0.0 842.93118519546 579.3938980001528 125.17992720318625 # Ar
976 976 1 0.0 529.9092806087463 693.4596786811123 511.73450546451915 # Ar
977 977 1 0.0 913.437106194656 483.39678629353926 58.404428577401035 # Ar
978 978 1 0.0 799.7914245517212 923.2362679126533 766.129380685986 # Ar
979 979 1 0.0 192.66034096745776 285.14055424639713 821.016317096902 # Ar
980 980 1 0.0 704.3798500187238 651.5920469233711 556.8691310561998 # Ar
981 981 1 0.0 854.8592732399809 402.11273698377363 980.5294791088216 # Ar
982 982 1 0.0 707.0737524715886 340.3730851734952 248.04277325189557 # Ar
983 983 1 0.0 325.29971374968443 838.0611104737015 419.78403270256416 # Ar
984 984 1 0.0 237.99616639180746 293.28769979262677 710.3217998922516 # Ar
985 985 1 0.0 832.92547322874 861.4832036719524 797.358694899977 # Ar
986 986 1 0.0 302.8774961647158 89.235373215321 89.24936026075616 # Ar
987 987 1 0.0 255.9701590352946 798.4394526919517 757.9986115369245 # Ar
988 988 1 0.0 269.97971543848865 647.7058788804042 698.0520745508148 # Ar
989 989 1 0.0 159.4865645100368 213.65853401388227 180.1361945211601 # Ar
990 990 1 0.0 813.9657364993343 1008.6684595261797 763.8709622702388 # Ar
991 991 1 0.0 119.65300249190257 108.28095622848957 974.7837977958245 # Ar
992 992 1 0.0 11.952574148893072 574.0129765601667 965.9488467039706 # Ar
993 993 1 0.0 430.11578147699595 480.6576994442104 558.004116975397 # Ar
994 994 1 0.0 1008.6064696046429 1025.5633006570692 80.74552622073195 # Ar
995 995 1 0.0 887.837152244472 730.8619357514564 164.3786579378395 # Ar
996 996 1 0.0 426.7131920614282 497.249504339856 398.8248802242679 # Ar
997 997 1 0.0 159.2966704902295 20.574137285653073 292.66154344460995 # Ar
998 998 1 0.0 654.1056329371938 742.0056786294758 824.4771012860624 # Ar
999 999 1 0.0 125.95912614582849 985.7121448865968 862.9342836418892 # Ar
1000 1000 1 0.0 305.39133789538454 912.9248942316916 320.4774214873084 # Ar
1001 1001 1 0.0 895.5247888798178 273.0504596271667 416.1251986365765 # Ar
1002 1002 1 0.0 15.343345679149479 784.3257926630083 963.6416866393565 # Ar
1003 1003 1 0.0 842.4113595943584 418.41756978414304 809.2744891167664 # Ar
1004 1004 1 0.0 712.4368451472212 920.6930846836071 625.8724855369406 # Ar
1005 1005 1 0.0 519.6498264176131 26.291763280548246 836.7952452015513 # Ar
1006 1006 1 0.0 692.6368036072973 531.6903033437472 775.598103310815 # Ar
1007 1007 1 0.0 348.3595883387686 436.9075916665568 558.9757456399628 # Ar
1008 1008 1 0.0 952.0459487374051 732.8704365092126 365.82633716809073 # Ar
1009 1009 1 0.0 298.4618295060786 4.730370663512483 417.77777657635244 # Ar
1010 1010 1 0.0 693.5360184407024 628.0596300642426 666.0985349607215 # Ar
1011 1011 1 0.0 29.04599455989125 121.04117127534384 883.1425547191618 # Ar
1012 1012 1 0.0 390.173976174371 384.9014455518319 838.8427056494538 # Ar
1013 1013 1 0.0 727.031824592656 440.20567367514434 102.06847010166625 # Ar
1014 1014 1 0.0 277.7997008270771 343.69894970657606 475.5061388625711 # Ar
1015 1015 1 0.0 845.2768713631724 946.7521296521404 515.4709833911511 # Ar
1016 1016 1 0.0 222.09463378668133 232.24557236852667 377.28167530364925 # Ar
1017 1017 1 0.0 483.74017485340374 33.20685902756255 324.28711797203914 # Ar
1018 1018 1 0.0 872.5108370969866 867.6163949335825 522.0972338474872 # Ar
1019 1019 1 0.0 142.85414539791591 159.35255968343785 458.6035030322758 # Ar
1020 1020 1 0.0 136.04059768770185 183.63785890159562 701.6041688470995 # Ar
1021 1021 1 0.0 396.95725663414225 1023.2743358474107 112.54405680931822 # Ar
1022 1022 1 0.0 811.65051054089 298.90619861859653 186.92326983804585 # Ar
1023 1023 1 0.0 954.1172955276995 469.67995469251395 243.85650240569544 # Ar
1024 1024 1 0.0 105.4390031642338 920.3406711274196 1005.1556992548674 # Ar
1025 1025 1 0.0 362.5091096393298 944.2659832927228 209.06761535217987 # Ar
1026 1026 1 0.0 257.2923109371203 747.4644185821962 402.59950486456887 # Ar
1027 1027 1 0.0 891.5169013444049 63.95146806876571 735.8711137420858 # Ar
1028 1028 1 0.0 833.6018745516727 769.5225642283633 415.10065221440215 # Ar
1029 1029 1 0.0 775.8961981436909 781.8526073626402 89.32507344236306 # Ar
1030 1030 1 0.0 143.35392477799525 908.9009139716048 416.9740865317391 # Ar
1031 1031 1 0.0 381.72853608439164 424.63383737042017 536.4373776729769 # Ar
1032 1032 1 0.0 760.33541318659 300.24322804136307 334.6182261511269 # Ar
1033 1033 1 0.0 359.3616885868183 263.0568874943427 780.8092666078142 # Ar
1034 1034 1 0.0 90.87257224455774 808.851251667074 1.9064337006215648 # Ar
1035 1035 1 0.0 73.00953964070132 25.581277805098484 245.52593269646923 # Ar
1036 1036 1 0.0 892.4044934636215 161.49588903296424 574.8214981998724 # Ar
1037 1037 1 0.0 972.0725086246648 126.10337482305923 874.5297414932029 # Ar
1038 1038 1 0.0 35.73618070505981 148.42298549612576 746.3762865295301 # Ar
1039 1039 1 0.0 783.8139378378422 924.9195933752309 819.8766600035689 # Ar
1040 1040 1 0.0 755.9964473117109 265.52917932299164 143.70102637554533 # Ar
1041 1041 1 0.0 779.7960793776025 393.6166192990018 419.19965203945907 # Ar
1042 1042 1 0.0 773.8637880872907 144.7046522565967 296.1680549279033 # Ar
1043 1043 1 0.0 497.9120170896968 511.4025515407533 312.0377097548744 # Ar
1044 1044 1 0.0 562.1748750238183 460.9821160829552 286.53700391464645 # Ar
1045 1045 1 0.0 397.17565870549384 617.027689057604 885.9040954161386 # Ar
1046 1046 1 0.0 39.31958469440153 355.1128982339422 398.8966475136068 # Ar
1047 1047 1 0.0 700.5999572116518 803.5399459138802 169.80567066598357 # Ar
1048 1048 1 0.0 642.8645409007264 440.1716331194803 607.5732821521074 # Ar
1049 1049 1 0.0 401.67855408631607 192.26803659950477 473.63589788012024 # Ar
1050 1050 1 0.0 810.572669334657 711.9665499546354 529.2394566527885 # Ar
1051 1051 1 0.0 267.48962888352804 383.9673190945929 436.22550362868776 # Ar
1052 1052 1 0.0 22.516287787498786 534.8727411188697 656.9325995991145 # Ar
1053 1053 1 0.0 604.8433341424671 718.9149629460181 665.7412275740633 # Ar
1054 1054 1 0.0 659.0542447399413 750.578380942879 763.2419677086474 # Ar
1055 1055 1 0.0 957.9771500795108 935.5366780907594 822.6904746892505 # Ar
1056 1056 1 0.0 826.0163514006863 504.58970567718046 48.22367586222662 # Ar
1057 1057 1 0.0 864.7790530220652 490.24773824341827 243.21667668795354 # Ar
1058 1058 1 0.0 172.73547443879303 74.75866457385561 89.51154610171005 # Ar
1059 1059 1 0.0 860.7802364008646 538.6182837679675 27.399057409854 # Ar
1060 1060 1 0.0 486.4201110246045 564.2944361466297 332.72782504237466 # Ar
1061 1061 1 0.0 374.6687903824402 867.1933765499289 517.6185670860673 # Ar
1062 1062 1 0.0 153.86074687682316 16.219888480474037 1017.4257303114113 # Ar
1063 1063 1 0.0 526.2038914016719 268.12773591630526 740.0534334406633 # Ar
1064 1064 1 0.0 365.45820270760925 226.97915901031288 621.8100716820732 # Ar
1065 1065 1 0.0 609.5648925184345 259.7564023844244 408.055739178896 # Ar
1066 1066 1 0.0 384.35254068885274 77.02271544043026 727.4169608315955 # Ar
1067 1067 1 0.0 839.5427498737139 981.310183973758 234.77732870166312 # Ar
1068 1068 1 0.0 242.61326764665085 263.1920823817067 616.166398593613 # Ar
1069 1069 1 0.0 638.5622330693819 1003.5137634682061 222.04782396797705 # Ar
1070 1070 1 0.0 618.9699157666483 872.9383269318763 804.436844831335 # Ar
1071 1071 1 0.0 274.78459844357104 562.4053954222019 471.73596882625674 # Ar
1072 1072 1 0.0 896.4363076392365 1017.0205287835473 666.2781608865573 # Ar
1073 1073 1 0.0 737.8801863716232 260.6807742477601 429.1253177263535 # Ar
1074 1074 1 0.0 32.374737935190026 347.50831111172124 339.1734476707472 # Ar
1075 1075 1 0.0 766.665817122189 437.67951981886705 860.7469091964828 # Ar
1076 1076 1 0.0 748.0780085726707 943.6274649225876 194.07591369360287 # Ar
1077 1077 1 0.0 181.39205603971848 679.213390445191 591.1202285725238 # Ar
1078 1078 1 0.0 554.1612771280109 615.9807566119309 83.40874242984783 # Ar
1079 1079 1 0.0 1007.6034433630039 865.801719106718 848.9793501987206 # Ar
1080 1080 1 0.0 943.3804145216952 705.1986849639708 142.98439404483673 # Ar
1081 1081 1 0.0 222.2576220695456 272.6862625815018 365.8197663582015 # Ar
1082 1082 1 0.0 961.0152848686224 846.3519566752362 401.738460749719 # Ar
1083 1083 1 0.0 366.3357726308504 626.7506907843967 419.4172079974353 # Ar
1084 1084 1 0.0 767.524223159018 159.03286816594502 899.9621414622238 # Ar
1085 1085 1 0.0 26.897710603941004 474.08421819797377 553.5992311099237 # Ar
1086 1086 1 0.0 912.6545104141376 445.4972169528302 751.2267770612063 # Ar
1087 1087 1 0.0 638.5690728262776 159.90717055706259 993.2687669877804 # Ar
1088 1088 1 0.0 697.5858898494939 41.29933681701141 389.3956678697234 # Ar
1089 1089 1 0.0 600.9862198530573 263.8888184799266 409.59418121221455 # Ar
1090 1090 1 0.0 514.2838094730977 868.3509678081139 886.9726245636103 # Ar
1091 1091 1 0.0 279.8556042218245 421.71773564981714 488.6396325090239 # Ar
1092 1092 1 0.0 687.5114458313135 876.7630746569566 416.8226464883476 # Ar
1093 1093 1 0.0 21.673986514454178 543.4462133607199 194.7272431411165 # Ar
1094 1094 1 0.0 536.8129833552655 502.49328493575837 603.9404233501192 # Ar
1095 1095 1 0.0 1017.9398217600296 269.33391565688095 592.7622281314686 # Ar
1096 1096 1 0.0 738.8947540000814 208.10166569043898 503.8659387161236 # Ar
1097 1097 1 0.0 362.48216433035276 281.6890820670329 169.11681956372533 # Ar
1098 1098 1 0.0 535.9732322084468 572.1501153914749 782.131983543899 # Ar
1099 1099 1 0.0 197.1393010328546 354.0867599081729 709.5794313701666 # Ar
1100 1100 1 0.0 447.9922961799512 291.2339602443488 451.2413090551763 # Ar
1101 1101 1 0.0 680.3963631608144 289.8235788313695 313.03982300748635 # Ar
1102 1102 1 0.0 321.71316632398253 951.0857911723213 455.78325573218876 # Ar
1103 1103 1 0.0 599.6849161423531 598.2799411966457 74.21465066095612 # Ar
1104 1104 1 0.0 315.22913290040276 855.0120948010809 99.78071468039191 # Ar
1105 1105 1 0.0 137.11887795127777 730.7885813567356 176.9390766387073 # Ar
1106 1106 1 0.0 327.63593337705464 632.0539797537451 295.7334502438072 # Ar
1107 1107 1 0.0 13.964259394158082 1026.076503279569 401.2040480206223 # Ar
1108 1108 1 0.0 272.34857718494806 819.2532197443343 247.2248538203064 # Ar
1109 1109 1 0.0 714.1066166787816 933.7356432579411 161.5488851992217 # Ar
1110 1110 1 0.0 752.5181943592506 371.94513893493826 278.82941839918624 # Ar
1111 1111 1 0.0 372.42607592824726 934.7278973983446 93.72134608942096 # Ar
1112 1112 1 0.0 490.9533934734797 461.80044396286695 648.7179400816927 # Ar
1113 1113 1 0.0 788.3972602210791 211.82314856122377 418.0645612383431 # Ar
1114 1114 1 0.0 249.77913930020804 711.5357512115439 754.3056781892182 # Ar
1115 1115 1 0.0 567.2640542067811 782.6651791725635 296.0713140972606 # Ar
1116 1116 1 0.0 312.4709916522236 918.4615908992972 990.0829842929694 # Ar
1117 1117 1 0.0 383.17899558312627 878.8441255683716 1024.2985470105123 # Ar
1118 1118 1 0.0 988.081578486629 736.3197651074205 264.6227801303528 # Ar
1119 1119 1 0.0 312.20949442124544 301.71391582193013 402.54476021146456 # Ar
1120 1120 1 0.0 848.9607179171387 503.77470862736214 551.5991532941299 # Ar
1121 1121 1 0.0 164.95245031936346 709.3115612080946 337.6256647866416 # Ar
1122 1122 1 0.0 404.37947098254614 1007.7635715054384 1016.6187480949774 # Ar
1123 1123 1 0.0 763.51201313601 943.9431687987154 824.681600746254 # Ar
1124 1124 1 0.0 920.233451344769 348.12298976890156 683.1335873993233 # Ar
1125 1125 1 0.0 493.5905350403276 735.2410368327469 648.8518087027041 # Ar
1126 1126 1 0.0 714.266146318417 801.8769639169576 602.455213424346 # Ar
1127 1127 1 0.0 256.6425938639483 804.0827970354234 861.8324699817465 # Ar
1128 1128 1 0.0 481.13434763992217 452.46344299054306 92.08662883217694 # Ar
1129 1129 1 0.0 336.9266280142936 381.606305021776 866.0249442967483 # Ar
1130 1130 1 0.0 856.8240654773196 239.7419890832188 976.1764041677426 # Ar
1131 1131 1 0.0 189.73228189588283 241.6039705125023 629.0621338917757 # Ar
1132 1132 1 0.0 869.2871015434457 601.488792667172 420.3843468953006 # Ar
1133 1133 1 0.0 403.92944306560133 600.0997595553091 704.1837888539271 # Ar
1134 1134 1 0.0 366.64829186604237 582.1359608689506 38.87904853952785 # Ar
1135 1135 1 0.0 501.7536975447418 144.32200844393233 421.91371416200224 # Ar
1136 1136 1 0.0 44.08992437516392 277.1141702873489 604.5831089962038 # Ar
1137 1137 1 0.0 611.9581365691711 788.4755343740696 572.5536439732361 # Ar
1138 1138 1 0.0 664.4350392697872 372.9188844234685 892.217764221589 # Ar
1139 1139 1 0.0 91.52606966960103 979.8210962894537 199.1598047735863 # Ar
1140 1140 1 0.0 938.7861192978245 819.264243983353 625.2761721068141 # Ar
1141 1141 1 0.0 974.8982898091779 451.09529033796315 4.017471311065498 # Ar
1142 1142 1 0.0 731.1814859028996 515.0097684318456 57.19319918343347 # Ar
1143 1143 1 0.0 487.3810700991113 961.2043537887133 379.23731635910576 # Ar
1144 1144 1 0.0 451.39984318690165 403.130796223937 40.80041947918342 # Ar
1145 1145 1 0.0 399.8477748035909 236.73822108645658 281.07565851055153 # Ar
1146 1146 1 0.0 774.5824518997914 659.7937025538113 856.8784025747948 # Ar
1147 1147 1 0.0 406.6874061335692 986.7676152496513 699.9864663559123 # Ar
1148 1148 1 0.0 686.7274278459198 838.558561118734 954.9564609282886 # Ar
1149 1149 1 0.0 797.8405743804623 291.5034591348323 517.3711216488366 # Ar
1150 1150 1 0.0 403.67237552805483 973.383465816753 424.96678045664316 # Ar
1151 1151 1 0.0 526.65032995316 16.56043826873781 777.702391567076 # Ar
1152 1152 1 0.0 347.136805039297 826.6190125466132 293.7239144804044 # Ar
1153 1153 1 0.0 950.0395615311867 974.8307037808295 893.6527835179436 # Ar
1154 1154 1 0.0 354.2806181515427 1007.0507765962851 389.2533077793626 # Ar
1155 1155 1 0.0 880.5320780960424 769.3350490922915 593.3464866353162 # Ar
1156 1156 1 0.0 293.5640283498309 146.60423787445774 375.97474248128674 # Ar
1157 1157 1 0.0 172.66183475218952 550.1892602776152 986.174576508325 # Ar
1158 1158 1 0.0 782.6775934508945 703.8435741838002 580.9026205911892 # Ar
1159 1159 1 0.0 705.0958076891468 762.9773829503993 200.05308135518615 # Ar
1160 1160 1 0.0 126.60029742657137 893.0373366459678 232.2007056021052 # Ar
1161 1161 1 0.0 767.1633598939136 1017.2141039212495 652.4039970756232 # Ar
1162 1162 1 0.0 225.31239457355312 885.5131462498713 790.2576673030421 # Ar
1163 1163 1 0.0 532.258175740593 506.234960406305 794.4096098628795 # Ar
1164 1164 1 0.0 456.6291361485115 28.298122723865458 858.2158064435474 # Ar
1165 1165 1 0.0 286.6033480428004 191.88436503719095 90.52564590337654 # Ar
1166 1166 1 0.0 380.3063517873228 687.9289428734779 356.95575896976777 # Ar
1167 1167 1 0.0 540.4990989806776 887.5106718592212 962.782300433568 # Ar
1168 1168 1 0.0 812.6119224474662 523.3066441244947 195.81219143266702 # Ar
1169 1169 1 0.0 535.7809678356846 882.9736176406346 476.3788735252027 # Ar
1170 1170 1 0.0 1011.8523352621046 876.6503962298988 104.37584930559625 # Ar
1171 1171 1 0.0 384.9857415639961 755.4749317251308 728.1166687929475 # Ar
1172 1172 1 0.0 943.1098828956717 353.6920981237981 878.7597541938599 # Ar
1173 1173 1 0.0 985.3861499046562 26.671187160350883 361.9802977752898 # Ar
1174 1174 1 0.0 875.108699906454 209.85973343321388 890.6310075835629 # Ar
1175 1175 1 0.0 19.73167812847394 1016.0349445013933 889.5581827860657 # Ar
1176 1176 1 0.0 234.40501515171087 63.39454002585553 737.5165985365614 # Ar
1177 1177 1 0.0 31.44551968406973 833.2056493409126 694.8241213954649 # Ar
1178 1178 1 0.0 133.66233408001267 1016.7899639638833 969.6816083713036 # Ar
1179 1179 1 0.0 657.4936944776975 116.33985165606303 733.6216679503028 # Ar
1180 1180 1 0.0 75.99006391692916 866.8273579955909 307.38141167295424 # Ar
1181 1181 1 0.0 71.4621439453813 63.26952290324071 210.48622782978217 # Ar
1182 1182 1 0.0 123.93681347158551 219.1747672776434 267.1195206633224 # Ar
1183 1183 1 0.0 704.8852581087278 395.0052859865921 970.7050830017106 # Ar
1184 1184 1 0.0 892.9653821264737 25.98994172274 540.1062569899691 # Ar
1185 1185 1 0.0 166.67121624816738 455.57197204737207 852.2357846657782 # Ar
1186 1186 1 0.0 655.9119691957111 346.45461469204065 449.72276854338435 # Ar
1187 1187 1 0.0 822.8498440247196 821.85855953319 260.1694574023547 # Ar
1188 1188 1 0.0 577.1554251646825 692.1915750470953 807.7104584851271 # Ar
1189 1189 1 0.0 476.1343174363496 207.25900710332573 54.6372928630153 # Ar
1190 1190 1 0.0 66.82213661812433 553.2678031259768 444.134268879244 # Ar
1191 1191 1 0.0 695.332494412088 122.96422724274201 414.38627103566915 # Ar
1192 1192 1 0.0 989.391390300382 869.5271471592304 666.5570486000412 # Ar
1193 1193 1 0.0 101.40091928172627 193.89233599657737 96.94835636806128 # Ar
1194 1194 1 0.0 24.15440332180549 729.9253156494999 38.57115464589177 # Ar
1195 1195 1 0.0 499.2089412172013 151.57375170563057 828.1149641872521 # Ar
1196 1196 1 0.0 465.06446103437224 55.39924575902157 983.6641170586933 # Ar
1197 1197 1 0.0 702.3340574351853 632.9986676731535 405.35672614585775 # Ar
1198 1198 1 0.0 707.5082617278816 140.40100269824214 315.62025452477525 # Ar
1199 1199 1 0.0 261.1782678891864 907.0548980711208 599.6056232470816 # Ar
1200 1200 1 0.0 504.72303638667967 854.4416271072545 187.37336874347227 # Ar
1201 1201 1 0.0 445.8267559173942 265.89112874565785 376.47228458951685 # Ar
1202 1202 1 0.0 896.8251750060821 599.4099906996405 805.9105643718248 # Ar
1203 1203 1 0.0 195.48673287647574 275.6572641573101 434.29563593440736 # Ar
1204 1204 1 0.0 23.498805536242628 493.5061234847562 324.52204021982124 # Ar
1205 1205 1 0.0 379.6314279863961 431.0456298385505 30.40600795835495 # Ar
1206 1206 1 0.0 848.936924517969 463.1049751090477 746.0557579959523 # Ar
1207 1207 1 0.0 35.89485258362506 633.0341982265202 749.5274147195319 # Ar
1208 1208 1 0.0 998.4604381158251 645.462825496861 218.3900819390289 # Ar
1209 1209 1 0.0 114.98020845237004 305.81455174985615 361.10470497421767 # Ar
1210 1210 1 0.0 646.3981340479621 358.1574560897277 1020.2281643952762 # Ar
1211 1211 1 0.0 650.731770881348 21.33467724807385 907.9504032829399 # Ar
1212 1212 1 0.0 25.093944298989083 734.2905720366597 627.9657334727933 # Ar
1213 1213 1 0.0 715.1341327618035 366.98461109795846 1004.6642180738372 # Ar
1214 1214 1 0.0 76.84436058941671 164.84291210838813 189.77384675458535 # Ar
1215 1215 1 0.0 522.6413672505035 771.7826622727217 184.72934884410594 # Ar
1216 1216 1 0.0 341.89784206794 213.98275010196554 87.99355224267352 # Ar
1217 1217 1 0.0 648.6161670871319 389.4582640489427 397.44123740594927 # Ar
1218 1218 1 0.0 208.03659155609478 567.4935491873857 110.84024756587696 # Ar
1219 1219 1 0.0 606.7914676057967 371.2000854760959 543.1223502615803 # Ar
1220 1220 1 0.0 298.2683795977636 351.66557688213663 127.04076130234625 # Ar
1221 1221 1 0.0 15.61892673616195 174.20538198394627 678.841703543243 # Ar
1222 1222 1 0.0 331.9983130383012 550.9777370786423 861.4558344123109 # Ar
1223 1223 1 0.0 830.9826434622895 553.1246504644864 438.32408280235137 # Ar
1224 1224 1 0.0 527.8375144272396 685.4764365365991 828.1547007829612 # Ar
1225 1225 1 0.0 458.5829347962122 51.81449578663853 487.2198883102949 # Ar
1226 1226 1 0.0 121.12158991375615 257.2171789857059 821.2257050410003 # Ar
1227 1227 1 0.0 126.52641297283776 45.70442432124752 834.0845842219676 # Ar
1228 1228 1 0.0 140.58218349588176 118.35481885692109 483.4551312175111 # Ar
1229 1229 1 0.0 886.7535549377725 501.14280648651925 592.8220915173803 # Ar
1230 1230 1 0.0 597.5897225138418 76.38674831926262 419.5220669284243 # Ar
1231 1231 1 0.0 676.575668081904 342.32352970733615 289.6692131271466 # Ar
1232 1232 1 0.0 435.50723560762907 638.4732431166929 457.38469762878356 # Ar
1233 1233 1 0.0 309.06336912708787 405.4922797462913 680.6940107211987 # Ar
1234 1234 1 0.0 929.4777302889594 784.0842910703019 59.8606701826757 # Ar
1235 1235 1 0.0 700.049297281896 110.80053096558778 633.4519393404704 # Ar
1236 1236 1 0.0 1017.4147543433576 397.68627007422816 769.7737613135761 # Ar
1237 1237 1 0.0 1012.1150973160215 980.4471146698382 489.29096997663385 # Ar
1238 1238 1 0.0 432.6494986949049 103.31001493740276 851.4655063830606 # Ar
1239 1239 1 0.0 436.03851418120695 563.3919451173794 492.81882308686204 # Ar
1240 1240 1 0.0 503.8491546761062 56.944296749809176 83.46925543045639 # Ar
1241 1241 1 0.0 907.265419715319 316.9306463775893 893.2640938625116 # Ar
1242 1242 1 0.0 713.6768291680792 183.0786086463274 934.3709404933782 # Ar
1243 1243 1 0.0 927.0639027943462 607.8275101968466 18.914074170664065 # Ar
1244 1244 1 0.0 673.1910154643276 993.983767641012 196.43021202213546 # Ar
1245 1245 1 0.0 450.61917575208446 607.957456755545 944.1317489170838 # Ar
1246 1246 1 0.0 959.1536929510498 46.96630869630078 12.896291960113176 # Ar
1247 1247 1 0.0 211.6439162143255 114.18034688708903 515.3586932292235 # Ar
1248 1248 1 0.0 443.8940651702963 474.37029403865114 261.58396278531404 # Ar
1249 1249 1 0.0 55.90025588491086 582.0602636628321 885.961502168167 # Ar
1250 1250 1 0.0 930.861415429479 29.000285131074488 925.9189737355 # Ar
1251 1251 1 0.0 200.98893537095225 351.5742794842278 677.0628714312054 # Ar
1252 1252 1 0.0 343.39656831271185 62.32041242241588 123.6025639591086 # Ar
1253 1253 1 0.0 585.902657435613 440.09490207541415 557.9761794413256 # Ar
1254 1254 1 0.0 215.51943307197456 93.12218627682103 117.21671062811939 # Ar
1255 1255 1 0.0 259.4159813685393 419.8871458345749 268.9528226004466 # Ar
1256 1256 1 0.0 1005.9500385920373 82.4914452949917 994.801654083537 # Ar
1257 1257 1 0.0 286.718977583394 809.3352697286421 57.04721249604268 # Ar
1258 1258 1 0.0 769.0674587519052 874.054052059757 530.2632480121997 # Ar
1259 1259 1 0.0 765.2698902177893 268.9513537750838 1022.4029796688353 # Ar
1260 1260 1 0.0 311.6238429474205 11.723213601448348 792.0093475398479 # Ar
1261 1261 1 0.0 708.281538357985 839.839166159048 215.47121624867444 # Ar
1262 1262 1 0.0 439.7642168556774 767.040978007988 973.0597865152755 # Ar
1263 1263 1 0.0 495.9141761790535 112.28048122775905 324.7568068694052 # Ar
1264 1264 1 0.0 824.9617210350174 776.6617471950506 255.09176049392758 # Ar
1265 1265 1 0.0 824.3706276175769 531.0911682783749 953.2444562729702 # Ar
1266 1266 1 0.0 693.8207033107429 883.1862050912667 121.55167510988414 # Ar
1267 1267 1 0.0 716.6895531475511 267.81935596443975 721.1595111556879 # Ar
1268 1268 1 0.0 769.9136450597562 765.5970658494241 573.647452855068 # Ar
1269 1269 1 0.0 457.2588282830322 74.1040388281097 71.3267482413711 # Ar
1270 1270 1 0.0 914.9539398015402 21.563779331369357 572.1059128707045 # Ar
1271 1271 1 0.0 320.77600963915995 882.0488413006678 524.3623827812693 # Ar
1272 1272 1 0.0 29.16415667865228 384.27321584124155 32.658059348555106 # Ar
1273 1273 1 0.0 407.6616332221701 874.6513158973801 636.5659349646273 # Ar
1274 1274 1 0.0 559.6346948063925 209.07111821729927 697.0896335931835 # Ar
1275 1275 1 0.0 999.2306122093586 649.6169656480195 706.4984766299214 # Ar
1276 1276 1 0.0 717.6559045957098 1007.8869983045245 308.72289574332854 # Ar
1277 1277 1 0.0 114.79158519050337 44.03591540954688 564.3201547920022 # Ar
1278 1278 1 0.0 479.1941835556427 584.5773365298639 379.2592768943623 # Ar
1279 1279 1 0.0 794.42442833748 761.1132145918053 635.3025738508118 # Ar
1280 1280 1 0.0 570.7722207779333 12.069785003636541 545.9245418882506 # Ar
1281 1281 1 0.0 721.1692584721596 441.1509342701933 342.761923259466 # Ar
1282 1282 1 0.0 580.8913392964316 953.0571734785246 215.25510508000838 # Ar
1283 1283 1 0.0 753.7937314771546 914.7906498100266 189.50893911569494 # Ar
1284 1284 1 0.0 235.32994151620485 514.5477714226525 25.91402720006004 # Ar
1285 1285 1 0.0 109.1802107966959 479.4937431504834 215.71876829850947 # Ar
1286 1286 1 0.0 111.36180793703203 312.2702461570805 175.27540312742812 # Ar
1287 1287 1 0.0 82.14456477121352 919.4016644526827 740.4961609336509 # Ar
1288 1288 1 0.0 830.716614015082 433.31870588414364 798.002123569408 # Ar
1289 1289 1 0.0 97.67039335397982 959.4855386218513 751.0303204515369 # Ar
1290 1290 1 0.0 346.5055003319521 240.37217726452377 845.9394195032522 # Ar
1291 1291 1 0.0 792.6724627231999 732.5410062744376 147.02671441261796 # Ar
1292 1292 1 0.0 502.95775939601674 120.59905966412836 283.1914860821205 # Ar
1293 1293 1 0.0 689.6583024521726 776.8904894117444 573.1785792827119 # Ar
1294 1294 1 0.0 2.136978899922608 997.0601703187256 547.2311946746482 # Ar
1295 1295 1 0.0 837.0066762971001 561.2279875550227 756.9431463602623 # Ar
1296 1296 1 0.0 526.9202331036814 855.1513830399086 535.7111516990001 # Ar
1297 1297 1 0.0 98.82307699558999 919.9826899547744 786.9926139102583 # Ar
1298 1298 1 0.0 619.83562938752 669.9904839048219 674.0329200626404 # Ar
1299 1299 1 0.0 744.8855097707154 524.3652349709376 1020.8260088019899 # Ar
1300 1300 1 0.0 806.1340835795581 33.167937964053266 960.4908054200916 # Ar
1301 1301 1 0.0 39.78655752414966 964.5572870600442 518.5406698330324 # Ar
1302 1302 1 0.0 855.2798874199933 292.5853449584638 122.73096569918299 # Ar
1303 1303 1 0.0 73.53360383089336 36.57861908710032 738.430886613804 # Ar
1304 1304 1 0.0 82.78447110546274 771.365263653519 566.1909851385018 # Ar
1305 1305 1 0.0 286.4230924081932 775.0135841522971 720.6270031951802 # Ar
1306 1306 1 0.0 106.48515422428476 298.7675598974273 430.54625049057927 # Ar
1307 1307 1 0.0 387.9922770990582 206.62319523554365 72.64522942762126 # Ar
1308 1308 1 0.0 28.766604143333435 399.97128134202933 172.62767137471127 # Ar
1309 1309 1 0.0 93.22301055138959 764.7619466541224 262.275540744644 # Ar
1310 1310 1 0.0 1001.5835456304158 130.31242218327887 902.8192122102752 # Ar
1311 1311 1 0.0 422.1897162023126 386.1410624565969 28.244636562358785 # Ar
1312 1312 1 0.0 501.3472605720033 514.8234499512404 951.2093569940532 # Ar
1313 1313 1 0.0 406.4988512621489 52.85395247152404 186.21744367348552 # Ar
1314 1314 1 0.0 109.482731585199 1008.9755538892736 93.00122834714877 # Ar
1315 1315 1 0.0 530.2336928135609 450.5592277578094 494.3068593191031 # Ar
1316 1316 1 0.0 108.12076780729264 489.06946510674715 941.2802268010666 # Ar
1317 1317 1 0.0 679.5057322964652 87.27502075030145 517.0226755821888 # Ar
1318 1318 1 0.0 701.6499329676367 793.981226115491 748.9827138455009 # Ar
1319 1319 1 0.0 572.6556661826824 424.7960935568663 575.8818427571584 # Ar
1320 1320 1 0.0 500.37207200079 354.256077075732 35.876797506709245 # Ar
1321 1321 1 0.0 626.925044869139 631.8150630813818 33.405007823100036 # Ar
1322 1322 1 0.0 997.5010819775024 845.879463700377 884.3098313376065 # Ar
1323 1323 1 0.0 381.57250613281553 792.8258828982297 880.0938289912216 # Ar
1324 1324 1 0.0 927.7375362042792 301.2978129866742 433.3578212912309 # Ar
1325 1325 1 0.0 281.440484884937 290.25018424267563 95.36613265864916 # Ar
1326 1326 1 0.0 362.7790334499912 775.3716897115445 115.70418994202625 # Ar
1327 1327 1 0.0 401.36988080122524 804.89050841231 292.27091354820055 # Ar
1328 1328 1 0.0 391.0894579968216 412.0899839454702 64.99575797536077 # Ar
1329 1329 1 0.0 928.0276272651494 189.1001408445177 999.4226223182003 # Ar
1330 1330 1 0.0 709.0140619175165 327.3008621127047 54.38366558780708 # Ar
1331 1331 1 0.0 238.44686051960753 925.8436247925295 331.54190998665774 # Ar
1332 1332 1 0.0 393.72251842147404 762.6830753696528 194.7109961040354 # Ar
1333 1333 1 0.0 823.7949593705207 671.7319695339014 241.7130828150272 # Ar
1334 1334 1 0.0 765.3430585349298 431.5646095967804 958.5588888784215 # Ar
1335 1335 1 0.0 923.379610045642 325.2245141666355 775.0617908980333 # Ar
1336 1336 1 0.0 165.56234179928157 677.698996530007 254.55553915906023 # Ar
1337 1337 1 0.0 243.16242952408598 848.0711970784682 758.3829243471203 # Ar
1338 1338 1 0.0 271.8783598839028 340.1665838298498 598.4005014435401 # Ar
1339 1339 1 0.0 705.4916303808724 671.5744005054606 442.5215988883251 # Ar
1340 1340 1 0.0 941.7987605356226 286.301529107345 223.2894100717461 # Ar
1341 1341 1 0.0 625.8812404764578 150.56702139305298 252.61377624781457 # Ar
1342 1342 1 0.0 657.4615576261103 457.44384577907346 267.1235947874578 # Ar
1343 1343 1 0.0 758.783313393998 642.87871789032 730.5096990456581 # Ar
1344 1344 1 0.0 566.698814835245 595.6094419121372 962.9824010007939 # Ar
1345 1345 1 0.0 739.2889199691218 832.9094586436897 262.55126065517607 # Ar
1346 1346 1 0.0 1026.1987416443847 761.913669110879 92.28928754113372 # Ar
1347 1347 1 0.0 510.5118701763144 661.2717891068796 196.96626650299996 # Ar
1348 1348 1 0.0 865.5765517188843 727.8375709298105 1028.407607018038 # Ar
1349 1349 1 0.0 210.0239575852107 809.3528616638678 480.7934683399948 # Ar
1350 1350 1 0.0 665.4897411822463 601.8403638768755 556.5480783391046 # Ar
1351 1351 1 0.0 828.653402103776 604.0980150143139 243.89220138923872 # Ar
1352 1352 1 0.0 645.2198446267482 885.5961969667931 55.67350411817034 # Ar
1353 1353 1 0.0 705.7310990012368 918.2123117919294 378.12315251763823 # Ar
1354 1354 1 0.0 292.64051721069836 755.2827477656529 937.1607346274981 # Ar
1355 1355 1 0.0 450.74842607108803 509.85612754041864 141.1147819601347 # Ar
1356 1356 1 0.0 401.24092919625645 361.97973402355984 110.4108534892981 # Ar
1357 1357 1 0.0 872.3472131226562 516.7019762033211 992.0850357456022 # Ar
1358 1358 1 0.0 844.0666509528398 673.3736283401721 336.0035964479733 # Ar
1359 1359 1 0.0 637.6740554455836 258.17710362946457 300.53222015389673 # Ar
1360 1360 1 0.0 85.09104677593595 943.9005531163839 245.52879332361636 # Ar
1361 1361 1 0.0 42.74519264202511 632.6392073007278 427.90188777024434 # Ar
1362 1362 1 0.0 379.696169100436 833.7980615083609 733.2660474659638 # Ar
1363 1363 1 0.0 981.9296792117754 644.9585057153428 409.3814815565645 # Ar
1364 1364 1 0.0 423.8790238298995 543.1051836368877 541.881739535324 # Ar
1365 1365 1 0.0 979.3156438228425 546.6216462245842 92.45974861428515 # Ar
1366 1366 1 0.0 971.0833159943403 764.2946698575087 542.6990893960163 # Ar
1367 1367 1 0.0 166.1333548776609 813.8474547296371 573.3775059851864 # Ar
1368 1368 1 0.0 15.163003611430828 798.675670737191 1011.9541427513703 # Ar
1369 1369 1 0.0 918.1337800217187 532.4897336153324 449.9256714585009 # Ar
1370 1370 1 0.0 445.364142446812 86.46754260297799 1017.341203991219 # Ar
1371 1371 1 0.0 755.5238437494233 130.60031688851913 647.9783838533268 # Ar
1372 1372 1 0.0 593.9317693358013 537.2105016903904 869.2247574125627 # Ar
1373 1373 1 0.0 183.68959594043454 346.8186048331927 429.81197499103365 # Ar
1374 1374 1 0.0 470.6169331486625 265.9833953563088 436.352983208952 # Ar
1375 1375 1 0.0 252.2176629419126 973.6075133041676 959.4858154495965 # Ar
1376 1376 1 0.0 815.7960908031498 689.9093221279028 377.5121595478279 # Ar
1377 1377 1 0.0 245.91902823751852 795.015112703086 970.4531246139164 # Ar
1378 1378 1 0.0 821.2740891086088 112.7132124447576 849.3872385550757 # Ar
1379 1379 1 0.0 442.73643068762135 865.0952215672978 989.0152870010047 # Ar
1380 1380 1 0.0 751.6160389801743 524.6548460258064 508.96621846404327 # Ar
1381 1381 1 0.0 630.103320822079 831.9308710621625 498.92158905067436 # Ar
1382 1382 1 0.0 614.5882079334747 252.06030567387583 402.71877004712695 # Ar
1383 1383 1 0.0 7.367094520501918 517.0705681227467 187.95445581434453 # Ar
1384 1384 1 0.0 600.945351386914 858.5721220879467 512.1429217024215 # Ar
1385 1385 1 0.0 380.76223960186724 942.1245015903895 258.04042116553296 # Ar
1386 1386 1 0.0 924.9186365145158 728.8414327180554 814.9289007795231 # Ar
1387 1387 1 0.0 314.06746767589885 1016.7508567814864 974.5511710125427 # Ar
1388 1388 1 0.0 553.1563925632306 340.94685862586226 436.2354026292201 # Ar
1389 1389 1 0.0 818.1643353181078 454.2337252162883 429.63215006175136 # Ar
1390 1390 1 0.0 917.899019695947 929.6891048441124 775.358557467745 # Ar
1391 1391 1 0.0 242.54213096515247 432.2676457061953 798.296317923183 # Ar
1392 1392 1 0.0 990.7375606919697 104.53182198915161 490.28119132390856 # Ar
1393 1393 1 0.0 155.84189811617577 999.7072304058674 886.8782851936987 # Ar
1394 1394 1 0.0 399.9216084227172 864.4243268833382 1005.3081002871081 # Ar
1395 1395 1 0.0 949.7909960049859 646.4586373248854 394.71470354845303 # Ar
1396 1396 1 0.0 920.4290859795059 674.339474757206 984.3231435333505 # Ar
1397 1397 1 0.0 180.87906414838264 703.5907478957372 174.8227853934018 # Ar
1398 1398 1 0.0 537.3858466378525 768.5811079139636 1005.5131800208167 # Ar
1399 1399 1 0.0 538.0390233401312 631.422779501532 855.2727604766999 # Ar
1400 1400 1 0.0 202.57584781635958 318.51426675246574 427.60869869109786 # Ar
1401 1401 1 0.0 628.2723198734265 273.3470967811317 479.4356724665118 # Ar
1402 1402 1 0.0 337.701314110926 484.0106244479397 511.4507249049462 # Ar
1403 1403 1 0.0 369.9870586510217 228.98395846032443 888.1902705800986 # Ar
1404 1404 1 0.0 432.45821748825887 507.7302095586108 227.12867488978034 # Ar
1405 1405 1 0.0 82.3994921597955 118.78984933565418 365.24297658422194 # Ar
1406 1406 1 0.0 600.8925277711819 958.3535402265502 849.5941115107257 # Ar
1407 1407 1 0.0 597.7669636596298 748.8296932173748 331.49919352206626 # Ar
1408 1408 1 0.0 825.4137349524055 348.52362932528933 759.0692970733347 # Ar
1409 1409 1 0.0 996.4198360663437 631.5263173702016 1012.5971379849254 # Ar
1410 1410 1 0.0 938.0014541715086 826.6939984126111 187.52017578576053 # Ar
1411 1411 1 0.0 882.2253168663603 1014.1763328501886 899.6198477671948 # Ar
1412 1412 1 0.0 209.53391900263992 856.4744333724985 21.243625807550483 # Ar
1413 1413 1 0.0 133.3367172579514 887.9735756219003 562.0827941390392 # Ar
1414 1414 1 0.0 82.54483154518554 234.04873167984783 446.104507200075 # Ar
1415 1415 1 0.0 439.1895374209342 454.5557676720975 284.9870224204667 # Ar
1416 1416 1 0.0 508.04687494075364 309.5954889545087 789.7949791769595 # Ar
1417 1417 1 0.0 603.8078588879758 154.87767833021218 666.1681149657447 # Ar
1418 1418 1 0.0 296.78498933997884 722.8373596317103 597.408964353881 # Ar
1419 1419 1 0.0 497.00591313589626 570.8412594441968 717.25287773378 # Ar
1420 1420 1 0.0 404.33674577337035 709.9343424962226 639.8814818713453 # Ar
1421 1421 1 0.0 455.704653468113 746.2837088588315 476.2066870695979 # Ar
1422 1422 1 0.0 558.1732525291108 238.97199288091556 612.4501506283881 # Ar
1423 1423 1 0.0 1002.7876963033151 429.56018942330365 575.2572684349573 # Ar
1424 1424 1 0.0 61.319222217591516 11.919428691430696 540.7253587097666 # Ar
1425 1425 1 0.0 240.3346638009904 372.28264980310047 845.0147513548113 # Ar
1426 1426 1 0.0 506.1752292939709 940.1728958370505 209.10177541088166 # Ar
1427 1427 1 0.0 762.154539413152 76.35119746175882 895.5781971519152 # Ar
1428 1428 1 0.0 590.2173353890648 106.90508806568019 310.18785187336545 # Ar
1429 1429 1 0.0 890.1610759027031 950.6979686934498 175.59143886757298 # Ar
1430 1430 1 0.0 962.6489722670407 120.58223277310175 712.8524131877252 # Ar
1431 1431 1 0.0 209.62085458509404 777.449826945759 163.28980129535123 # Ar
1432 1432 1 0.0 207.22622299563668 51.04349581759918 1021.6498016080571 # Ar
1433 1433 1 0.0 379.88155917780443 206.9314667091921 766.0640294093625 # Ar
1434 1434 1 0.0 519.2843955264924 431.21515411174244 84.94851942064274 # Ar
1435 1435 1 0.0 127.1889594656989 933.2696256181753 684.5862984836126 # Ar
1436 1436 1 0.0 307.10706184378705 861.3038017310206 352.2680149852046 # Ar
1437 1437 1 0.0 943.9530972871038 459.48177148981233 890.3329883407819 # Ar
1438 1438 1 0.0 15.033261725266927 984.783341485422 592.9457293225068 # Ar
1439 1439 1 0.0 712.1111792390511 101.54505034645786 233.84912947619088 # Ar
1440 1440 1 0.0 917.0871460871928 105.54329649456615 219.96762657399603 # Ar
1441 1441 1 0.0 89.16747435167807 444.1727356979721 666.6895349531306 # Ar
1442 1442 1 0.0 36.63937591169802 546.9260301567897 398.9541407684994 # Ar
1443 1443 1 0.0 452.3608048800794 720.8676234219191 43.459408614546525 # Ar
1444 1444 1 0.0 607.973777860402 571.060561105755 166.55385657821603 # Ar
1445 1445 1 0.0 903.0986814113988 864.3468613624569 143.27118475863074 # Ar
1446 1446 1 0.0 711.6974684883946 566.385895708617 201.75352988511352 # Ar
1447 1447 1 0.0 628.3355214946686 69.68622937941055 488.76588869348353 # Ar
1448 1448 1 0.0 101.32657520089278 249.6258205668452 992.9499117634664 # Ar
1449 1449 1 0.0 835.1044458414011 321.96872001749324 935.1433543255304 # Ar
1450 1450 1 0.0 91.28974304921226 977.4923375422444 597.9640800604463 # Ar
1451 1451 1 0.0 301.8015275962324 905.3857194854064 54.75562143104745 # Ar
1452 1452 1 0.0 336.5771264439508 662.0469113474762 632.6250432152885 # Ar
1453 1453 1 0.0 1007.9499089449977 261.6982821810702 450.8158151560124 # Ar
1454 1454 1 0.0 761.5725747868656 245.12612247247807 76.45684064670449 # Ar
1455 1455 1 0.0 385.07674273746835 283.49415308368623 9.82153896832948 # Ar
1456 1456 1 0.0 182.05679503967988 655.0182131587509 28.80042424436799 # Ar
1457 1457 1 0.0 550.0688594365139 215.09707314363772 736.4255699712912 # Ar
1458 1458 1 0.0 477.52708162541154 723.0269732401742 225.9087303436925 # Ar
1459 1459 1 0.0 212.51902080444415 198.19199236942012 485.4610082471765 # Ar
1460 1460 1 0.0 894.6843194847144 301.1507792040527 55.25491709897016 # Ar
1461 1461 1 0.0 352.1123416113418 1029.0293315601002 619.5111456663593 # Ar
1462 1462 1 0.0 956.6046062681812 796.7007158098934 461.88018685164263 # Ar
1463 1463 1 0.0 551.6052983159449 427.39807835600647 312.20906806521623 # Ar
1464 1464 1 0.0 62.62940536416643 89.50918234000201 484.56488792966627 # Ar
1465 1465 1 0.0 275.17062182068736 385.8012271212308 590.0478518465104 # Ar
1466 1466 1 0.0 221.76502250568535 23.00442191076589 270.2882743787157 # Ar
1467 1467 1 0.0 873.5135495843343 572.1841306567183 899.1699914161953 # Ar
1468 1468 1 0.0 677.4115149843332 132.2091340521739 850.7295564774887 # Ar
1469 1469 1 0.0 887.0024804306232 200.47217426826128 704.9674134424063 # Ar
1470 1470 1 0.0 263.65610235325005 421.6453495920537 643.1840545962649 # Ar
1471 1471 1 0.0 193.63179736952748 74.3837544672855 22.94063306677232 # Ar
1472 1472 1 0.0 732.4619235219352 347.93293203950043 457.2960549401087 # Ar
1473 1473 1 0.0 260.259375273168 188.06811984616053 329.05159614084346 # Ar
1474 1474 1 0.0 249.9534850733812 111.54412519697885 37.46857785466909 # Ar
1475 1475 1 0.0 414.30349754617873 911.1758681009443 402.46606512108036 # Ar
1476 1476 1 0.0 99.66884945793836 920.6354821181458 865.5707268110879 # Ar
1477 1477 1 0.0 176.62594429117235 389.5513595836058 697.1026118959527 # Ar
1478 1478 1 0.0 331.08286003293955 103.37416259304396 756.3909498367004 # Ar
1479 1479 1 0.0 139.71429765826184 1009.1392100546045 693.9729143922603 # Ar
1480 1480 1 0.0 772.2432799126282 964.7259926582625 479.53645545760645 # Ar
1481 1481 1 0.0 520.0517051984913 597.0310129565186 653.781276561512 # Ar
1482 1482 1 0.0 53.16609083223207 862.4056225901323 739.3516190843648 # Ar
1483 1483 1 0.0 706.4240675862751 700.3162613861673 1004.6260204544111 # Ar
1484 1484 1 0.0 527.8263728885341 583.045421104208 519.0908727244514 # Ar
1485 1485 1 0.0 365.2042245708534 169.41810086744448 680.9766974181616 # Ar
1486 1486 1 0.0 902.0218269613871 541.0608515490914 108.52419959456762 # Ar
1487 1487 1 0.0 835.5390897235175 1007.096575006689 700.1352404287641 # Ar
1488 1488 1 0.0 751.7700206698652 593.0442748517326 332.9761166070055 # Ar
1489 1489 1 0.0 713.2794211045741 892.8819587266224 525.1429773384498 # Ar
1490 1490 1 0.0 943.3459036537133 367.00652786669724 712.4062624974179 # Ar
1491 1491 1 0.0 19.314601143854212 649.2284996876197 959.548125688828 # Ar
1492 1492 1 0.0 433.1673397032918 203.49952702748678 957.3193339413218 # Ar
1493 1493 1 0.0 597.2863850453086 157.8311847461097 745.6198462782078 # Ar
1494 1494 1 0.0 287.13402207376424 566.789941443136 384.5957101485623 # Ar
1495 1495 1 0.0 609.4926716814354 474.13021922983023 444.38442280283954 # Ar
1496 1496 1 0.0 686.3240324621261 492.1663125584562 616.7600762133196 # Ar
1497 1497 1 0.0 758.5707978424563 281.6410311840593 372.7805673726716 # Ar
1498 1498 1 0.0 453.19700299866133 777.9170454483625 235.6179220867414 # Ar
1499 1499 1 0.0 516.9408205912194 457.6469270760963 819.0001039677667 # Ar
1500 1500 1 0.0 280.68057856663654 135.7330463170322 542.7710704741805 # Ar
1501 1501 1 0.0 348.8358020924509 878.090831236089 750.9961469314738 # Ar
1502 1502 1 0.0 402.9760491652679 795.0946140393722 69.56958127296704 # Ar
1503 1503 1 0.0 1016.1599604365286 397.6483904159405 50.81761703604265 # Ar
1504 1504 1 0.0 749.2574749677223 808.6053194496823 240.9245740645859 # Ar
1505 1505 1 0.0 12.965348423239133 751.4351266584904 919.8051531208596 # Ar
1506 1506 1 0.0 268.66297736185794 344.97160133954463 1027.212082490365 # Ar
1507 1507 1 0.0 902.1559591453181 926.9472248159499 741.0829123850141 # Ar
1508 1508 1 0.0 896.2614915381457 518.240413990386 1013.4358106320108 # Ar
1509 1509 1 0.0 922.2335311802185 477.2446745609305 275.04326426489257 # Ar
1510 1510 1 0.0 147.51660627051766 643.9650072382218 630.2019809016689 # Ar
1511 1511 1 0.0 596.9518530195736 542.4591431842715 1008.1726669980422 # Ar
1512 1512 1 0.0 20.677244018463522 363.9935600001393 330.58706840099364 # Ar
1513 1513 1 0.0 404.735973664239 532.4656853491899 881.052572980054 # Ar
1514 1514 1 0.0 211.05533869671808 506.34451041265345 767.3702071746318 # Ar
1515 1515 1 0.0 350.8470548057628 978.760414008295 349.1510968940654 # Ar
1516 1516 1 0.0 605.6515172161678 796.4994165095209 151.3978600293456 # Ar
1517 1517 1 0.0 701.6456688233258 289.4100571982308 599.7685121683678 # Ar
1518 1518 1 0.0 246.09331734781142 1009.8364542836573 448.3949511070884 # Ar
1519 1519 1 0.0 681.6368844846676 434.90997946676794 40.068441126387796 # Ar
1520 1520 1 0.0 273.8525672470455 70.38612918885052 815.6957217216168 # Ar
1521 1521 1 0.0 341.7828022848459 40.76903512422736 895.9039765396225 # Ar
1522 1522 1 0.0 12.779997195577836 755.1519975926557 475.1706690217617 # Ar
1523 1523 1 0.0 51.73349084916941 679.5343537702013 776.9199214796545 # Ar
1524 1524 1 0.0 701.6938386432977 287.4722322089561 27.57291075456946 # Ar
1525 1525 1 0.0 1011.6269748749007 822.9303030908416 1014.4021291309006 # Ar
1526 1526 1 0.0 792.5857162845645 770.7835978393603 351.3401178876191 # Ar
1527 1527 1 0.0 55.07291992992793 84.01217229130727 125.88584100608496 # Ar
1528 1528 1 0.0 374.1606012653509 750.6773551990325 521.2811544795616 # Ar
1529 1529 1 0.0 324.48130597112777 908.1412140175306 860.330813659784 # Ar
1530 1530 1 0.0 568.1186915415396 882.2410231668256 761.4796613798356 # Ar
1531 1531 1 0.0 49.18593308484443 430.2572922723722 150.4463201044996 # Ar
1532 1532 1 0.0 185.8758928990306 961.9874057365934 554.1334261632791 # Ar
1533 1533 1 0.0 259.35131892590636 228.95678310695766 528.7421428069674 # Ar
1534 1534 1 0.0 365.90130398324527 203.61474359224732 535.8403973649997 # Ar
1535 1535 1 0.0 65.41602267401886 449.84169782229856 560.066257191239 # Ar
1536 1536 1 0.0 781.0898590544853 859.028106198208 500.44503165067357 # Ar
1537 1537 1 0.0 653.2703438076466 784.7922090566419 510.1266862399652 # Ar
1538 1538 1 0.0 902.2673725964152 755.7087767659455 176.94317406223686 # Ar
1539 1539 1 0.0 889.6965342968077 548.7843628907017 499.6460233241538 # Ar
1540 1540 1 0.0 214.98091541615102 129.6754532363447 584.8809919673408 # Ar
1541 1541 1 0.0 198.3161639102641 843.1430345636845 639.4485337625858 # Ar
1542 1542 1 0.0 1016.9738184540829 148.27754016439442 605.5673738177893 # Ar
1543 1543 1 0.0 736.867250519265 572.5576605892371 883.3877774401443 # Ar
1544 1544 1 0.0 686.0662940037014 152.90759581257888 202.10918257654075 # Ar
1545 1545 1 0.0 206.91144801755624 554.7857070990565 872.051415268018 # Ar
1546 1546 1 0.0 534.4680678510351 850.8875669286316 421.821894706061 # Ar
1547 1547 1 0.0 57.83323170490433 521.1943290675921 12.263723006177226 # Ar
1548 1548 1 0.0 994.2150100951994 828.3273258804059 239.2383871777035 # Ar
1549 1549 1 0.0 898.9089428808378 251.59925307607364 138.3621479265745 # Ar
1550 1550 1 0.0 814.8251992299827 471.9977994729966 1012.2798365253282 # Ar
1551 1551 1 0.0 999.3470348564765 525.2355881957865 181.6225689563622 # Ar
1552 1552 1 0.0 312.9212053435578 75.26485724153969 682.7286891403367 # Ar
1553 1553 1 0.0 600.5478880677595 260.60542588562754 392.18284240575775 # Ar
1554 1554 1 0.0 478.70153915921327 22.00644908606009 641.2234736080172 # Ar
1555 1555 1 0.0 112.92071346402541 739.1898817428403 961.3748018045807 # Ar
1556 1556 1 0.0 177.90241993508673 747.4527444058878 292.75898848535047 # Ar
1557 1557 1 0.0 640.030631633187 924.7182458546233 196.43396459640024 # Ar
1558 1558 1 0.0 335.22984694908234 681.3923525241966 308.48072117339893 # Ar
1559 1559 1 0.0 578.3826115885236 316.36638049246574 666.6299398482493 # Ar
1560 1560 1 0.0 92.4882219104123 175.01104327757523 837.6161344863542 # Ar
1561 1561 1 0.0 634.0504973014398 556.3194258622 114.66216862079142 # Ar
1562 1562 1 0.0 30.836780621391718 248.44559156176638 40.408757276972025 # Ar
1563 1563 1 0.0 656.2959876610477 508.97318059687984 425.14385769540974 # Ar
1564 1564 1 0.0 638.990642713752 972.2745234982544 304.7860255114755 # Ar
1565 1565 1 0.0 222.35477684307355 1016.7802457363528 71.24416202061525 # Ar
1566 1566 1 0.0 883.694032680422 19.566224741736164 602.6787023132013 # Ar
1567 1567 1 0.0 452.03358519989337 542.5304884181547 327.37852784472335 # Ar
1568 1568 1 0.0 689.8129735994878 158.8352680368159 783.896409189326 # Ar
1569 1569 1 0.0 886.7907740366372 83.67390955409628 192.91260101093434 # Ar
1570 1570 1 0.0 1024.9095844525064 326.2992924524 933.568235881674 # Ar
1571 1571 1 0.0 664.015675226378 55.62212652363608 756.3666089616479 # Ar
1572 1572 1 0.0 314.77559420825474 600.9759793983229 512.6679498982628 # Ar
1573 1573 1 0.0 932.3239689566626 961.1403908105641 365.6301259169893 # Ar
1574 1574 1 0.0 588.8875516048857 312.4722003255243 837.3518166372344 # Ar
1575 1575 1 0.0 260.17993749982685 797.0840778484151 528.9206871331675 # Ar
1576 1576 1 0.0 149.37398006596723 198.2988281505899 36.79816893210668 # Ar
1577 1577 1 0.0 437.7263241013818 221.82686736471126 867.3852536721874 # Ar
1578 1578 1 0.0 805.4666371664248 840.62350955438 718.229217279201 # Ar
1579 1579 1 0.0 919.8927462620434 643.7901199719312 991.5144318266971 # Ar
1580 1580 1 0.0 252.94874026714191 314.1241725226841 875.3100022966295 # Ar
1581 1581 1 0.0 307.26101255728 708.4819171425748 472.4029627418221 # Ar
1582 1582 1 0.0 451.2699488473897 87.13916572967082 557.4243184083726 # Ar
1583 1583 1 0.0 222.75031683716426 536.4712878988462 628.9522079218403 # Ar
1584 1584 1 0.0 16.54664517812947 119.4351747855443 990.7864578151904 # Ar
1585 1585 1 0.0 703.2341584080932 988.8791022300509 253.284498201566 # Ar
1586 1586 1 0.0 633.1750279071714 412.86811949771953 715.291443673245 # Ar
1587 1587 1 0.0 981.6466296757598 1009.9722151212137 306.0924868953867 # Ar
1588 1588 1 0.0 909.9009097360902 761.684945564922 268.06187148537987 # Ar
1589 1589 1 0.0 659.1093470808789 867.8980673081657 949.8188909648163 # Ar
1590 1590 1 0.0 631.3037271438955 230.14186628745892 642.0595441113669 # Ar
1591 1591 1 0.0 215.06931400853745 361.71148291866825 285.1025194214412 # Ar
1592 1592 1 0.0 113.42485378418041 532.9654171280887 804.2589856237734 # Ar
1593 1593 1 0.0 252.51778089004296 32.824219828840434 840.9777045352391 # Ar
1594 1594 1 0.0 744.7851203769034 250.26473225215733 73.77474809713094 # Ar
1595 1595 1 0.0 695.7613097747293 851.7153491237476 205.39854586022662 # Ar
1596 1596 1 0.0 965.5225472483374 789.4794351939846 718.816355275062 # Ar
1597 1597 1 0.0 20.793444265415804 70.60834701941884 299.0152315112796 # Ar
1598 1598 1 0.0 652.1023700896792 134.53363703438035 935.3611637268831 # Ar
1599 1599 1 0.0 911.185630240278 19.707002947531468 199.5316039641591 # Ar
1600 1600 1 0.0 78.96037801394988 917.8571856561479 633.5538341970297 # Ar
1601 1601 1 0.0 521.5188633378309 315.57495208131394 485.44035242087347 # Ar
1602 1602 1 0.0 774.4324205299108 169.42870325948178 236.88034114234821 # Ar
1603 1603 1 0.0 550.9108796446191 537.1230122534225 295.5878062047758 # Ar
1604 1604 1 0.0 119.7148705084193 552.5042143818869 315.93445046358727 # Ar
1605 1605 1 0.0 1008.7809295431172 239.88338615619205 465.401736080728 # Ar
1606 1606 1 0.0 549.9983790034164 981.6265197839103 41.01815016806183 # Ar
1607 1607 1 0.0 601.9794182857543 799.2227093349975 214.42288164859266 # Ar
1608 1608 1 0.0 410.3902176171474 353.8401232751111 257.50820191125825 # Ar
1609 1609 1 0.0 560.1286348273795 606.3026713455037 932.6471889059085 # Ar
1610 1610 1 0.0 127.87217203146434 329.4536480546245 940.0509391041587 # Ar
1611 1611 1 0.0 386.64929337760515 612.9708024430229 621.2361259618049 # Ar
1612 1612 1 0.0 924.0239116147432 771.376551096024 273.129302212163 # Ar
1613 1613 1 0.0 290.551525856242 321.90457035930524 626.436570052152 # Ar
1614 1614 1 0.0 652.7528816787917 647.5926532437655 238.9111107941539 # Ar
1615 1615 1 0.0 449.1406046586866 196.81688320027965 881.9367366370734 # Ar
1616 1616 1 0.0 1019.9102080807612 43.9824938383561 558.7469325510708 # Ar
1617 1617 1 0.0 355.52340954250013 871.1342244437694 682.1424255920977 # Ar
1618 1618 1 0.0 484.23304939972587 569.1046767331881 822.9970112046973 # Ar
1619 1619 1 0.0 117.35582614244065 383.71579321451304 648.3975811547853 # Ar
1620 1620 1 0.0 899.8266653655531 918.6351485633772 704.4868266026639 # Ar
1621 1621 1 0.0 146.5314776760644 409.376247346087 892.1881182692069 # Ar
1622 1622 1 0.0 215.517684244275 301.00872488591165 921.7299094594894 # Ar
1623 1623 1 0.0 214.56737221160174 782.9534529372143 794.3968307669862 # Ar
1624 1624 1 0.0 640.4371489215766 604.9174667126775 621.0119972202184 # Ar
1625 1625 1 0.0 1017.611800366115 981.9239785803791 211.8662497145111 # Ar
1626 1626 1 0.0 1002.0697164789082 11.54807392947725 470.771639341072 # Ar
1627 1627 1 0.0 992.4983272739355 215.07987677281145 267.18507814810266 # Ar
1628 1628 1 0.0 35.52827940508595 559.2352949961496 618.1399235674578 # Ar
1629 1629 1 0.0 544.4476887646528 584.9141247549993 871.1052165141093 # Ar
1630 1630 1 0.0 518.2532497708887 322.3783395602742 255.43423637960552 # Ar
1631 1631 1 0.0 524.7487520200692 452.62103366645897 657.6419734192446 # Ar
1632 1632 1 0.0 441.72021252776983 478.4429851127115 346.6839349614225 # Ar
1633 1633 1 0.0 182.41360384164363 499.23644122397553 703.0650248959066 # Ar
1634 1634 1 0.0 584.2563190537625 676.5723949299005 372.93235661475035 # Ar
1635 1635 1 0.0 337.3479092511545 210.48688175108506 100.47379762767588 # Ar
1636 1636 1 0.0 153.1613663162974 810.2047010952338 285.6400695589201 # Ar
1637 1637 1 0.0 1020.5982575816104 580.5271230508306 108.05400668446003 # Ar
1638 1638 1 0.0 745.7735138701382 580.0874938798049 230.70335163488954 # Ar
1639 1639 1 0.0 370.73331515203256 967.9000019617132 682.9358413942281 # Ar
1640 1640 1 0.0 138.4580034162186 308.07599176857633 185.38089079233342 # Ar
1641 1641 1 0.0 555.2606644617626 381.3245280222115 465.88891739844854 # Ar
1642 1642 1 0.0 325.2048864450461 1003.9270291486888 595.400262367318 # Ar
1643 1643 1 0.0 14.743811241256452 864.2446799312333 667.9139667673463 # Ar
1644 1644 1 0.0 858.8966348774209 1011.0778284270659 563.9646129573923 # Ar
1645 1645 1 0.0 517.293099895455 1027.0089510033508 54.18397814634175 # Ar
1646 1646 1 0.0 74.16359166109916 72.910843008586 760.9284162088666 # Ar
1647 1647 1 0.0 101.38655550263863 711.3118913569136 7.596452323123974 # Ar
1648 1648 1 0.0 56.84698319929265 927.8640497781528 1010.9251533689869 # Ar
1649 1649 1 0.0 842.2000410729454 652.774579771696 90.92451481300161 # Ar
1650 1650 1 0.0 544.8418332508841 718.094493304625 175.14970951826103 # Ar
1651 1651 1 0.0 349.1983413586245 616.8345220272112 1022.4083248634371 # Ar
1652 1652 1 0.0 912.8415354009488 6.724339969362182 723.2620180010982 # Ar
1653 1653 1 0.0 944.5798410812943 883.4848179481698 389.2317452770648 # Ar
1654 1654 1 0.0 825.1889482542758 950.9175283630839 1026.2439440867297 # Ar
1655 1655 1 0.0 763.760530058228 1007.2257943459117 549.4119313583482 # Ar
1656 1656 1 0.0 500.34232038268846 213.40581095301852 79.1662010628922 # Ar
1657 1657 1 0.0 766.068709550229 160.23233216959972 823.1240728778082 # Ar
1658 1658 1 0.0 371.5042972650192 389.29206297066924 449.70534749752045 # Ar
1659 1659 1 0.0 989.5443092069706 130.32981422550185 1016.668895247888 # Ar
1660 1660 1 0.0 683.9899163555398 775.1749125522033 158.97801916372003 # Ar
1661 1661 1 0.0 651.5621243611929 70.03647277255378 315.76527777678575 # Ar
1662 1662 1 0.0 259.88484557632523 19.678685759874224 888.2213960729661 # Ar
1663 1663 1 0.0 719.3186545622607 555.9666084586722 104.85344486572939 # Ar
1664 1664 1 0.0 461.8021252389214 362.19984324184315 637.3370943096858 # Ar
1665 1665 1 0.0 270.22408464305823 895.9881980420591 815.869797793789 # Ar
1666 1666 1 0.0 802.4160541940789 942.436599381177 305.3838786055934 # Ar
1667 1667 1 0.0 227.70875951803126 558.9297782288659 1007.4773725565442 # Ar
1668 1668 1 0.0 593.4152411307608 912.4642824587132 205.7799039996111 # Ar
1669 1669 1 0.0 135.78280639944634 330.97727847212195 873.2411377157852 # Ar
1670 1670 1 0.0 608.442367297942 1007.8424937380469 269.9561751093486 # Ar
1671 1671 1 0.0 299.814551857063 506.11177768945913 605.5890443469298 # Ar
1672 1672 1 0.0 720.3381268562249 1.3856146650393124 633.6744737858819 # Ar
1673 1673 1 0.0 91.72425908205032 967.7111341283052 836.044069761101 # Ar
1674 1674 1 0.0 867.8477264930987 717.9197181801213 183.77500661785731 # Ar
1675 1675 1 0.0 186.37723414232033 714.6858097702581 248.39857469137652 # Ar
1676 1676 1 0.0 291.0494964413727 294.36508496018996 879.1578164344372 # Ar
1677 1677 1 0.0 441.2234623461746 892.4723330676784 604.2774051669446 # Ar
1678 1678 1 0.0 710.273843617507 752.9651913140003 359.1729567089709 # Ar
1679 1679 1 0.0 317.2031832399569 551.3131920843414 60.61395908149515 # Ar
1680 1680 1 0.0 857.6284382157193 976.2308893243734 850.5787603296513 # Ar
1681 1681 1 0.0 129.77254457777127 224.78936017564666 200.22369558333835 # Ar
1682 1682 1 0.0 857.8663459026104 473.0081786641774 218.12228156456536 # Ar
1683 1683 1 0.0 522.9338055384603 10.205525550650297 786.3525131707623 # Ar
1684 1684 1 0.0 701.3578883490273 710.63986364707 914.3913695839427 # Ar
1685 1685 1 0.0 364.2691064600239 143.95481122646083 425.1463369677451 # Ar
1686 1686 1 0.0 829.2907747388759 412.439016806202 738.6901073721613 # Ar
1687 1687 1 0.0 573.1126574566658 968.9156023295617 996.9221774857523 # Ar
1688 1688 1 0.0 993.573090658133 880.3327111597591 418.2431369198761 # Ar
1689 1689 1 0.0 925.6403310045431 234.3364700881821 708.0155857229421 # Ar
1690 1690 1 0.0 238.78829113494314 874.6570523127793 731.9283874047454 # Ar
1691 1691 1 0.0 11.06841875412255 213.66606672917547 649.7632221191062 # Ar
1692 1692 1 0.0 455.41916987431733 185.7761863150137 63.53660849446076 # Ar
1693 1693 1 0.0 897.5125767164825 208.10647442746773 497.20947292563216 # Ar
1694 1694 1 0.0 850.1468554644091 238.12893538280596 123.46435702099728 # Ar
1695 1695 1 0.0 919.1022953971951 173.98908508605123 692.0635110752611 # Ar
1696 1696 1 0.0 502.31807570666234 22.299124046258378 291.35855704734587 # Ar
1697 1697 1 0.0 911.3489153833558 1016.122719894959 401.6172775905069 # Ar
1698 1698 1 0.0 92.00708557572725 860.7518122693034 187.09594976088735 # Ar
1699 1699 1 0.0 970.2438008700201 646.4681943459703 206.67758799053271 # Ar
1700 1700 1 0.0 250.1506454414725 261.6847319313859 25.020873692755863 # Ar
1701 1701 1 0.0 287.5935390520548 680.1789593363853 930.120148111675 # Ar
1702 1702 1 0.0 586.8660342845188 955.3963101692494 63.074958548932045 # Ar
1703 1703 1 0.0 1016.8541975329538 796.0643653536149 7.461396058365864 # Ar
1704 1704 1 0.0 789.7267524289446 797.9253827154454 201.89522445646776 # Ar
1705 1705 1 0.0 255.92267243472804 1003.6087447177093 556.9271632252371 # Ar
1706 1706 1 0.0 202.8628538371491 451.29005284830953 948.6425426428434 # Ar
1707 1707 1 0.0 723.8583202075458 639.2940859810003 45.351757988217834 # Ar
1708 1708 1 0.0 323.90605172349274 176.8896698270115 765.1566538051455 # Ar
1709 1709 1 0.0 720.8871786634553 13.814986006320087 461.02256782295046 # Ar
1710 1710 1 0.0 85.31895641483669 833.2599829589697 338.4689610192766 # Ar
1711 1711 1 0.0 932.9699432507667 253.72452353902625 560.1368880238364 # Ar
1712 1712 1 0.0 382.6253586327752 120.27701503858502 520.7201018275141 # Ar
1713 1713 1 0.0 798.4416184809186 310.0202768896688 120.17444678517543 # Ar
1714 1714 1 0.0 481.92338899141845 809.5306866486912 492.1704442407615 # Ar
1715 1715 1 0.0 319.2266115773007 85.98364031674184 341.63887357623014 # Ar
1716 1716 1 0.0 225.17467579991987 236.24911958400716 624.2500539899096 # Ar
1717 1717 1 0.0 499.20678502976585 26.790142476640934 924.4288277533258 # Ar
1718 1718 1 0.0 174.98919421536712 871.4859518148359 760.5827262080309 # Ar
1719 1719 1 0.0 985.196274644489 489.5371797252572 380.8520127389423 # Ar
1720 1720 1 0.0 153.1268114592138 803.5266554339136 143.1001431876938 # Ar
1721 1721 1 0.0 656.9442826169413 793.6778074304655 61.270204715468154 # Ar
1722 1722 1 0.0 0.3850825207224554 407.75125053572816 615.0572410680621 # Ar
1723 1723 1 0.0 207.00534942338282 13.112362722836362 116.68626980296307 # Ar
1724 1724 1 0.0 695.3131264057743 326.51254550967826 425.45854455861917 # Ar
1725 1725 1 0.0 552.8183249384465 217.37079242753595 927.0824292691755 # Ar
1726 1726 1 0.0 764.8361619475514 1002.7751366183574 935.0814612191878 # Ar
1727 1727 1 0.0 923.6490142097199 819.4159829448712 407.43718444481397 # Ar
1728 1728 1 0.0 237.57098266612846 254.07238843764796 792.6693741301893 # Ar
1729 1729 1 0.0 10.303078428816827 483.51312002527794 71.22818463622252 # Ar
1730 1730 1 0.0 573.7463400183651 277.40931818911287 542.2966309354838 # Ar
1731 1731 1 0.0 752.6521497640642 566.4925361484608 656.7098281683794 # Ar
1732 1732 1 0.0 538.047862591426 697.1708742250778 615.472656539663 # Ar
1733 1733 1 0.0 702.5778388507523 361.4178750374143 835.2549870418358 # Ar
1734 1734 1 0.0 1001.473752871014 905.6710141833023 693.4701223378897 # Ar
1735 1735 1 0.0 773.5622391184279 554.3135309535514 59.90479030340168 # Ar
1736 1736 1 0.0 695.9466517328029 548.159006929839 540.9816958224797 # Ar
1737 1737 1 0.0 910.8296217103907 452.2386771913093 603.2516503415395 # Ar
1738 1738 1 0.0 393.69382992004563 442.94134407219457 47.53766046568451 # Ar
1739 1739 1 0.0 690.9082620297071 669.3217601295798 551.6851990114083 # Ar
1740 1740 1 0.0 819.7377070145432 236.33924243168335 989.2574258878587 # Ar
1741 1741 1 0.0 582.7031909063179 985.9913410557419 846.7007289764168 # Ar
1742 1742 1 0.0 349.9087177826032 172.62511925995724 411.49194886440415 # Ar
1743 1743 1 0.0 356.72896707306177 821.9618197106826 522.0544398756656 # Ar
1744 1744 1 0.0 692.0706321199173 260.7140160560329 885.6308279297265 # Ar
1745 1745 1 0.0 233.40264334964655 378.94968925546914 820.5539016927811 # Ar
1746 1746 1 0.0 132.93974868231336 480.17700764178204 321.83733254542517 # Ar
1747 1747 1 0.0 915.5689338999787 75.35864312865988 56.368605413397226 # Ar
1748 1748 1 0.0 386.59473727114613 682.8513706895523 188.71063087313044 # Ar
1749 1749 1 0.0 747.9628128759892 796.6509435121266 26.64476236712487 # Ar
1750 1750 1 0.0 733.8321570404333 762.2572116128664 443.89889375616514 # Ar
1751 1751 1 0.0 867.3612338941705 669.8474205951298 816.3546398643125 # Ar
1752 1752 1 0.0 76.83034761101486 824.9608886030359 467.5959144980496 # Ar
1753 1753 1 0.0 860.3865504679808 126.51617381817884 815.9214763099561 # Ar
1754 1754 1 0.0 851.2192750728232 718.5140130184003 32.06233889960555 # Ar
1755 1755 1 0.0 833.343887242894 51.07884251963295 42.54677629175085 # Ar
1756 1756 1 0.0 660.091562513799 70.46594385687055 319.047056128561 # Ar
1757 1757 1 0.0 996.8378255416778 344.0719725729056 365.8007029699193 # Ar
1758 1758 1 0.0 66.23531696983102 119.80581701694521 422.42434082521197 # Ar
1759 1759 1 0.0 616.8609568916976 506.30357094303207 384.38123807353963 # Ar
1760 1760 1 0.0 709.711192233815 1020.0396780119925 655.0114720900284 # Ar
1761 1761 1 0.0 80.95426170493104 214.65787663831958 278.96026071010135 # Ar
1762 1762 1 0.0 132.47075792681593 369.4869839108107 720.8993057176846 # Ar
1763 1763 1 0.0 734.5408435191097 458.43018916643587 591.78045374748 # Ar
1764 1764 1 0.0 475.75041996552716 238.7815701609892 922.6163684991003 # Ar
1765 1765 1 0.0 548.6238818312949 564.2172528678292 29.062791925030247 # Ar
1766 1766 1 0.0 442.8819673515626 923.6196056573231 539.8355381124333 # Ar
1767 1767 1 0.0 694.4339077318921 336.05646396204264 798.0545819306761 # Ar
1768 1768 1 0.0 609.4264341730365 171.07220578559665 513.2355228143841 # Ar
1769 1769 1 0.0 348.87670787570084 129.43931415619906 805.0906770882835 # Ar
1770 1770 1 0.0 907.4364223407991 564.8179110554682 325.30683420767343 # Ar
1771 1771 1 0.0 478.48971201053314 55.723534138895914 540.7854237243157 # Ar
1772 1772 1 0.0 786.3895528616697 1013.0095521049989 295.7815454045997 # Ar
1773 1773 1 0.0 293.92862900350406 33.583498591763835 823.5984472679768 # Ar
1774 1774 1 0.0 69.79334508459436 294.5077029846044 203.6542787955254 # Ar
1775 1775 1 0.0 522.3404288553895 86.67225089032586 74.66806433593446 # Ar
1776 1776 1 0.0 243.48984122521358 758.9479464265904 996.0052989404243 # Ar
1777 1777 1 0.0 771.347068493632 92.63501761305724 1001.002045727954 # Ar
1778 1778 1 0.0 455.7098210315991 590.7349187526555 468.94744635587665 # Ar
1779 1779 1 0.0 0.17862038623789386 679.7611348325742 821.8504180475863 # Ar
1780 1780 1 0.0 450.5699212724855 93.54274130795753 500.9926028741033 # Ar
1781 1781 1 0.0 66.91646729698088 793.3737043558505 770.5133042450046 # Ar
1782 1782 1 0.0 636.0850390332212 584.567303214307 993.6489997884652 # Ar
1783 1783 1 0.0 564.4030589489931 729.5873409379676 1009.5475847679152 # Ar
1784 1784 1 0.0 617.9374502025264 723.8126889413705 24.86534765562333 # Ar
1785 1785 1 0.0 160.9690392050137 803.769865910916 875.5927672604403 # Ar
1786 1786 1 0.0 700.7143880268433 988.0658327809651 591.9162885447084 # Ar
1787 1787 1 0.0 488.53655568712037 478.7846990552285 983.440010469108 # Ar
1788 1788 1 0.0 137.58945361519733 526.8264002937271 659.7301549212918 # Ar
1789 1789 1 0.0 523.9642145560022 81.53496771411601 506.69688564445346 # Ar
1790 1790 1 0.0 826.0702610197889 278.7396599336717 279.4062156952203 # Ar
1791 1791 1 0.0 702.80143398132 759.4599036520398 982.821941130417 # Ar
1792 1792 1 0.0 863.1521018139539 751.045619847289 682.8920292817031 # Ar
1793 1793 1 0.0 665.1468782756613 366.67125231477144 151.23396690769445 # Ar
1794 1794 1 0.0 696.3619832827907 606.7970481868158 674.9354281415746 # Ar
1795 1795 1 0.0 581.4542045354751 1023.59030975093 290.8257804457579 # Ar
1796 1796 1 0.0 665.3872255210937 861.2486763951168 63.90051722340892 # Ar
1797 1797 1 0.0 945.6458124131593 715.8772691415265 801.8627882182595 # Ar
1798 1798 1 0.0 716.3756759760594 347.8692610585977 705.9255370631115 # Ar
1799 1799 1 0.0 164.79148486615955 952.833006639093 992.6872118623037 # Ar
1800 1800 1 0.0 165.39848490386828 4.758169671314966 464.9035731805572 # Ar
1801 1801 1 0.0 854.6153476614655 218.8619255638404 554.5170323869619 # Ar
1802 1802 1 0.0 293.91952055317364 803.1173438861658 748.288505595844 # Ar
1803 1803 1 0.0 351.94943585156693 276.6299309242762 336.17855283288736 # Ar
1804 1804 1 0.0 730.8128030385456 152.22985761098857 191.46914120141219 # Ar
1805 1805 1 0.0 420.2521655998891 7.468049778802837 402.8703660631549 # Ar
1806 1806 1 0.0 591.8543059662979 147.5886972202929 23.580005454655108 # Ar
1807 1807 1 0.0 541.4941241436068 660.3464664845557 340.50644884131515 # Ar
1808 1808 1 0.0 271.07029747789187 365.74726125284315 441.945710737663 # Ar
1809 1809 1 0.0 827.3069055726457 501.88848141827555 100.93741418388848 # Ar
1810 1810 1 0.0 220.9464360520841 1004.617542446213 251.1446241154381 # Ar
1811 1811 1 0.0 145.1195151108258 766.8753720307972 671.9696737806944 # Ar
1812 1812 1 0.0 174.77602253095188 232.20386380168335 981.5888209812271 # Ar
1813 1813 1 0.0 117.37695474966607 826.1490157693125 0.027411119212058653 # Ar
1814 1814 1 0.0 164.25568494282493 328.89901188423386 1027.4217728796964 # Ar
1815 1815 1 0.0 861.2665379004768 447.8094221210395 755.040596925336 # Ar
1816 1816 1 0.0 642.7960073767082 540.4643315336285 392.3746088873858 # Ar
1817 1817 1 0.0 458.5083046608575 693.8023814233076 844.4680840835097 # Ar
1818 1818 1 0.0 393.6374919892308 421.57370645744766 528.137573592241 # Ar
1819 1819 1 0.0 81.46074838853337 747.273298135521 873.6802791261433 # Ar
1820 1820 1 0.0 896.3914544056672 483.4399935836623 977.3331491393359 # Ar
1821 1821 1 0.0 997.207249021584 781.5360917765837 273.3985911763614 # Ar
1822 1822 1 0.0 352.4406607952842 188.9615143153448 896.2842988515771 # Ar
1823 1823 1 0.0 522.2638500818999 333.58931192748975 192.5825640426005 # Ar
1824 1824 1 0.0 970.0905755234684 835.4695047171783 41.308819200077565 # Ar
1825 1825 1 0.0 311.4183267638841 346.0434789134925 785.7088297357648 # Ar
1826 1826 1 0.0 656.5253748617863 576.9960034164216 896.291415295419 # Ar
1827 1827 1 0.0 259.76251868960935 730.9974898508414 545.0316455485236 # Ar
1828 1828 1 0.0 749.4071051997573 490.5878942008976 984.2335846805228 # Ar
1829 1829 1 0.0 48.4465007360241 978.6093045866236 608.683116865506 # Ar
1830 1830 1 0.0 246.46086847438687 1011.0479001954681 428.121331491343 # Ar
1831 1831 1 0.0 131.82016140340573 1028.961965674716 928.1517941758207 # Ar
1832 1832 1 0.0 750.1619467165322 362.71168907131755 624.3888417314218 # Ar
1833 1833 1 0.0 1028.971823739129 33.84138875595632 849.3889973290173 # Ar
1834 1834 1 0.0 205.39935474729683 2.472452414804774 245.29915575139808 # Ar
1835 1835 1 0.0 3.381752900151667 972.5425947465937 629.6384666292639 # Ar
1836 1836 1 0.0 324.14598273314215 551.6811851578046 471.00001015791366 # Ar
1837 1837 1 0.0 317.08460800735094 782.5266489096616 930.6450950588445 # Ar
1838 1838 1 0.0 527.1325133485424 777.5007125440347 536.5370051872557 # Ar
1839 1839 1 0.0 473.29879119341564 953.6493634539331 900.4305702526796 # Ar
1840 1840 1 0.0 76.93949766741648 339.107309984004 433.89161047643444 # Ar
1841 1841 1 0.0 968.7081449955442 869.6350003461824 909.8467485428382 # Ar
1842 1842 1 0.0 730.372066620178 315.0481245144039 966.05024201735 # Ar
1843 1843 1 0.0 643.1603256115546 970.9601292227113 179.66678808705504 # Ar
1844 1844 1 0.0 752.4292053158202 722.5779198867226 98.10263911585984 # Ar
1845 1845 1 0.0 253.27249356960053 852.1540284166928 652.8597912627879 # Ar
1846 1846 1 0.0 872.8373226989662 973.1852883224277 309.01893766860064 # Ar
1847 1847 1 0.0 228.88420445419794 968.6878428392254 529.7919994228532 # Ar
1848 1848 1 0.0 952.6150857211035 555.9575934743849 474.960117706156 # Ar
1849 1849 1 0.0 985.5959511033961 167.5850616828717 73.80378077045751 # Ar
1850 1850 1 0.0 691.7521834501604 161.2339317270561 683.8083238188309 # Ar
1851 1851 1 0.0 740.9911671044258 12.766238788050229 965.5328620913712 # Ar
1852 1852 1 0.0 748.7244115355077 686.3389818831668 984.4706995269003 # Ar
1853 1853 1 0.0 440.39048945479414 658.5522936593994 456.2101112044362 # Ar
1854 1854 1 0.0 888.4651980531146 36.88236097784133 810.8514028322788 # Ar
1855 1855 1 0.0 520.3902423742766 558.4645866783106 156.70970407172223 # Ar
1856 1856 1 0.0 308.2813740272504 571.9526462564144 839.899794808042 # Ar
1857 1857 1 0.0 676.2300184015569 426.3361053592625 640.0245880458559 # Ar
1858 1858 1 0.0 633.8936749225638 535.4896380557474 296.19204036014213 # Ar
1859 1859 1 0.0 77.18477778555311 350.19352270983575 1027.781119945576 # Ar
1860 1860 1 0.0 822.0039236496763 618.8060168159813 583.0405287206032 # Ar
1861 1861 1 0.0 1023.1254350085148 190.73403994201072 639.7334828943992 # Ar
1862 1862 1 0.0 938.7370046522811 129.22104700183402 731.2809952198809 # Ar
1863 1863 1 0.0 944.2114410803506 607.5547731741829 494.24694088174584 # Ar
1864 1864 1 0.0 994.9035201886873 356.8299097494665 228.98010744118102 # Ar
1865 1865 1 0.0 263.1658087765816 42.345670667451515 198.54035868188865 # Ar
1866 1866 1 0.0 690.8986411900001 949.5108567792774 263.69500952024646 # Ar
1867 1867 1 0.0 835.5335943508398 572.3669231093083 932.4205144042882 # Ar
1868 1868 1 0.0 997.3530872988641 442.3796947431059 64.1445649123983 # Ar
1869 1869 1 0.0 996.132246556083 848.5796107506887 1006.3039157178013 # Ar
1870 1870 1 0.0 173.39735343861506 617.9791351651993 174.95073869201832 # Ar
1871 1871 1 0.0 568.2777355827286 506.7950890369039 289.55992869031576 # Ar
1872 1872 1 0.0 875.5540192838006 27.621665988202086 720.299087083013 # Ar
1873 1873 1 0.0 202.964703834118 106.66195697408 865.2580787922991 # Ar
1874 1874 1 0.0 455.5691381695092 887.7844048373664 951.8895569568284 # Ar
1875 1875 1 0.0 426.8101321455343 190.01714711979557 32.697945181210414 # Ar
1876 1876 1 0.0 848.743076120788 460.60692999612814 153.84092205492405 # Ar
1877 1877 1 0.0 638.4425904364379 94.8697570818364 56.200660920714455 # Ar
1878 1878 1 0.0 731.6368337529678 49.8552207257758 23.673986397856652 # Ar
1879 1879 1 0.0 793.3178944707913 654.2260993786593 235.8524532153722 # Ar
1880 1880 1 0.0 935.2361811274582 745.7987759391921 130.51821145177496 # Ar
1881 1881 1 0.0 725.7504249381064 234.32520696639136 512.694476005047 # Ar
1882 1882 1 0.0 124.61887918951895 974.8993836568454 400.20991516105397 # Ar
1883 1883 1 0.0 447.4199231618437 328.24776667322107 159.46135638415114 # Ar
1884 1884 1 0.0 187.92991346338394 6.919513336661398 314.05490341977 # Ar
1885 1885 1 0.0 1013.4866046103376 19.207766524732804 50.03699850574448 # Ar
1886 1886 1 0.0 516.2271724528806 1016.3757035994969 177.5564237923097 # Ar
1887 1887 1 0.0 437.35776205094834 827.0901978704036 726.3629010694611 # Ar
1888 1888 1 0.0 56.183756867313214 168.79799548604967 307.08595789144886 # Ar
1889 1889 1 0.0 978.5183675261447 957.9094648101474 47.165130950389326 # Ar
1890 1890 1 0.0 604.515491919141 199.36755775615197 336.47894429678644 # Ar
1891 1891 1 0.0 880.6583977888695 688.4501550736284 958.0611140703656 # Ar
1892 1892 1 0.0 411.69700580288935 65.89563009925568 709.1386750844132 # Ar
1893 1893 1 0.0 271.141579612599 302.5402241696765 635.1397024682822 # Ar
1894 1894 1 0.0 934.2451506753791 787.610079021107 284.6168608043137 # Ar
1895 1895 1 0.0 254.57913194811738 76.69018973206165 495.02263520595653 # Ar
1896 1896 1 0.0 1009.2184957701485 923.3437467691301 906.1243547473246 # Ar
1897 1897 1 0.0 431.3297832023587 882.0861931216969 609.9785977364452 # Ar
1898 1898 1 0.0 175.0365393449624 768.0925565383542 718.7128187658788 # Ar
1899 1899 1 0.0 756.5794153794072 182.82655015912343 259.1080430131427 # Ar
1900 1900 1 0.0 675.9333045646017 375.4757656043662 88.68982575959318 # Ar
1901 1901 1 0.0 76.05250262423806 524.1405383718063 748.1486768889175 # Ar
1902 1902 1 0.0 815.8960449961813 983.5930853197478 657.9183546454639 # Ar
1903 1903 1 0.0 69.06953255815816 745.5239240479211 158.9633414918703 # Ar
1904 1904 1 0.0 674.2996845502418 560.4617672262585 365.67365151689245 # Ar
1905 1905 1 0.0 592.4584727073855 23.477405003650038 402.8919989169595 # Ar
1906 1906 1 0.0 475.12139321041803 307.6485078881225 672.3001019099414 # Ar
1907 1907 1 0.0 438.32228822020363 300.9371554894816 560.4793163955875 # Ar
1908 1908 1 0.0 10.100737382486958 385.34045693567185 159.89742993037976 # Ar
1909 1909 1 0.0 214.20612081330208 201.92907237716273 515.389421709424 # Ar
1910 1910 1 0.0 870.7831399300964 133.52438035647984 95.64298288749478 # Ar
1911 1911 1 0.0 238.64918803816994 751.25237623139 750.6187347239801 # Ar
1912 1912 1 0.0 655.0015451545988 350.1271431587648 319.2068992839342 # Ar
1913 1913 1 0.0 182.53125818062804 883.0736814474209 935.6677445144624 # Ar
1914 1914 1 0.0 890.0836666036221 195.63109108146324 94.65565405606128 # Ar
1915 1915 1 0.0 887.223179266141 483.38079399600673 308.47048196455944 # Ar
1916 1916 1 0.0 482.05610607815777 63.1995402713101 798.02251801313 # Ar
1917 1917 1 0.0 535.9229045451455 454.4455437916691 196.66875135517154 # Ar
1918 1918 1 0.0 1027.424276309448 700.2706572211146 214.03962012155532 # Ar
1919 1919 1 0.0 268.15160846537185 907.1338776906438 156.74465047984944 # Ar
1920 1920 1 0.0 113.6953186434573 353.24852025821116 900.2224964817068 # Ar
1921 1921 1 0.0 657.6643102804724 875.1820224422601 480.4052790265858 # Ar
1922 1922 1 0.0 122.2776578263614 646.2080860774959 569.0684908190815 # Ar
1923 1923 1 0.0 546.8643166594089 836.7886850431487 722.4853676372213 # Ar
1924 1924 1 0.0 923.3095460096321 2.6237594480431685 185.09274815017335 # Ar
1925 1925 1 0.0 597.2565185999819 99.27423171098626 860.5737969975914 # Ar
1926 1926 1 0.0 1008.9488714347918 467.2418284834333 59.99875919409685 # Ar
1927 1927 1 0.0 160.82491209800042 711.0913003164573 881.0657227051764 # Ar
1928 1928 1 0.0 90.07706003415478 217.5908033553611 405.08885886844115 # Ar
1929 1929 1 0.0 25.80487573274047 1005.1934471622669 606.3875055639409 # Ar
1930 1930 1 0.0 1007.4898557947333 562.1493861558839 111.82856683341751 # Ar
1931 1931 1 0.0 33.910093356447085 799.34704452376 642.6471951700789 # Ar
1932 1932 1 0.0 243.39999406064908 331.66102584081534 281.5337181103878 # Ar
1933 1933 1 0.0 931.9221956935518 328.6158730273522 164.2836482195101 # Ar
1934 1934 1 0.0 711.1758175986214 942.6731581289515 14.207843200155978 # Ar
1935 1935 1 0.0 695.1817867052124 452.4304522219344 64.6381043646572 # Ar
1936 1936 1 0.0 47.59388155094463 121.53477823958843 134.2439537313761 # Ar
1937 1937 1 0.0 181.58424240897907 225.6904927577341 226.8130499937468 # Ar
1938 1938 1 0.0 865.9451147149827 22.638844954119175 664.7315628654158 # Ar
1939 1939 1 0.0 203.1097922443812 315.17662166955796 1002.1231814977225 # Ar
1940 1940 1 0.0 512.361464756135 178.3776177797739 793.1792857238169 # Ar
1941 1941 1 0.0 108.24852236841988 687.7455503591702 995.2763380080463 # Ar
1942 1942 1 0.0 935.4977196528547 294.84357969594095 840.417335699129 # Ar
1943 1943 1 0.0 206.04751188506845 384.71345088804526 509.094093181587 # Ar
1944 1944 1 0.0 949.9922901748708 91.0179314196388 668.1114749438568 # Ar
1945 1945 1 0.0 552.7718542042654 29.857094652048332 126.55381766887328 # Ar
1946 1946 1 0.0 272.29164381900875 83.90819779166772 669.6261981888824 # Ar
1947 1947 1 0.0 926.0241227760196 586.7038400476966 246.42832340197475 # Ar
1948 1948 1 0.0 992.6927077216988 874.4343181185864 144.19995678474743 # Ar
1949 1949 1 0.0 357.7761994248379 873.9213891789632 582.2330221274304 # Ar
1950 1950 1 0.0 209.4612051983385 474.04585216472793 38.241341441495805 # Ar
1951 1951 1 0.0 509.2367106787949 163.36827853554678 743.5510623019882 # Ar
1952 1952 1 0.0 431.7446911188321 669.0725732874845 753.1062425163748 # Ar
1953 1953 1 0.0 628.161739027932 929.8712510059476 68.94511356134146 # Ar
1954 1954 1 0.0 636.5599969758672 917.2203251657122 626.6407879542822 # Ar
1955 1955 1 0.0 604.7883573063581 814.8269075617303 770.8429993069341 # Ar
1956 1956 1 0.0 245.03738700941142 781.9796747928215 565.4847497298108 # Ar
1957 1957 1 0.0 383.1248942429849 909.0585570327789 415.3625000707339 # Ar
1958 1958 1 0.0 36.877005151171254 731.4423427273163 358.4072742625193 # Ar
1959 1959 1 0.0 822.2621855335844 184.78377332255698 455.38233768918116 # Ar
1960 1960 1 0.0 375.01904721005667 652.1424419219084 701.3932058302476 # Ar
1961 1961 1 0.0 850.4386521862633 439.96497669444307 946.1145219283072 # Ar
1962 1962 1 0.0 286.90891865606994 136.59901921932607 388.75929096740595 # Ar
1963 1963 1 0.0 193.98175050771843 1020.6131368589081 377.44644856540174 # Ar
1964 1964 1 0.0 315.99320660295245 834.931417730086 653.0688036695714 # Ar
1965 1965 1 0.0 838.4938828932545 57.719604744074196 339.08936274117315 # Ar
1966 1966 1 0.0 675.4074869925902 76.03437489052777 112.23863391075056 # Ar
1967 1967 1 0.0 729.1033445827359 970.3893243169318 880.510958558631 # Ar
1968 1968 1 0.0 488.19720500256784 993.8175802734208 164.5482794150174 # Ar
1969 1969 1 0.0 413.1202153413616 530.2022156460289 474.8850222975097 # Ar
1970 1970 1 0.0 1026.910369291589 563.3802592101682 206.79839122732935 # Ar
1971 1971 1 0.0 284.4322642614393 546.6660600934107 855.3597804328355 # Ar
1972 1972 1 0.0 985.2600104778394 809.2778676558341 168.8863782497533 # Ar
1973 1973 1 0.0 744.2996797014733 504.18547520391104 103.98841762313701 # Ar
1974 1974 1 0.0 337.25454909674403 155.88425334729263 458.70301895141984 # Ar
1975 1975 1 0.0 176.6620722806796 1024.8060528217625 973.1732039781431 # Ar
1976 1976 1 0.0 197.6748537530516 327.0579732167314 1002.4716604816272 # Ar
1977 1977 1 0.0 386.8654158891319 6.690762134497063 872.558948993682 # Ar
1978 1978 1 0.0 596.5104166107458 301.5068176211307 783.9291250729257 # Ar
1979 1979 1 0.0 123.06934675915355 315.8471298903843 26.538701697275506 # Ar
1980 1980 1 0.0 211.24179455932452 686.42606016887 101.08471420758569 # Ar
1981 1981 1 0.0 640.8705877804755 40.301082548886455 254.68396224935302 # Ar
1982 1982 1 0.0 115.58113702990262 94.54126721161259 451.0688367254945 # Ar
1983 1983 1 0.0 73.59726314149968 1008.7905640301209 565.0161522288826 # Ar
1984 1984 1 0.0 774.6462708610783 745.2758787719349 546.7199859088339 # Ar
1985 1985 1 0.0 200.8556587161512 507.4939411739543 181.44460948908792 # Ar
1986 1986 1 0.0 986.209390057841 904.4108943634476 415.61718955330076 # Ar
1987 1987 1 0.0 654.5363093657195 826.9517213894104 95.4146116570078 # Ar
1988 1988 1 0.0 107.78366268062543 782.9876728526107 779.1834618112994 # Ar
1989 1989 1 0.0 795.4467882426043 26.0071089253791 881.0830732915343 # Ar
1990 1990 1 0.0 279.03737610454925 444.3250916178908 504.80876843873574 # Ar
1991 1991 1 0.0 420.6957823253054 252.40281177732126 115.3664230522044 # Ar
1992 1992 1 0.0 779.1631454378941 52.6540254757661 38.40555584759043 # Ar
1993 1993 1 0.0 972.9093393657246 319.56104726386116 223.90142493785933 # Ar
1994 1994 1 0.0 983.8670616858634 505.617501952819 877.8201324359899 # Ar
1995 1995 1 0.0 442.3551266038371 447.6434484367861 404.037016436157 # Ar
1996 1996 1 0.0 1013.6660374595307 500.8397683870755 673.8348120125363 # Ar
1997 1997 1 0.0 585.6141375455027 21.698076710756975 680.1260349273167 # Ar
1998 1998 1 0.0 947.4008816308103 695.5437235947127 209.6084490072006 # Ar
1999 1999 1 0.0 408.81916987196246 746.1608320967201 842.9301976035716 # Ar
2000 2000 1 0.0 786.3197688722876 85.50380386373956 906.2091973845404 # Ar
