LAMMPS data file -- atom_style full -- generated by chemfiles
2000 atoms
0 bonds
0 angles
0 dihedrals
0 impropers
1 atom types
0 bond types
0 angle types
0 dihedral types
0 improper types
0.00000000 935.059629 xlo xhi
0.00000000 935.059629 ylo yhi
0.00000000 935.059629 zlo zhi

# Pair Coeffs
# 1 Ar

Masses

1 39.948 # Ar

Atoms # full

1 1 1 0.0 297.170321465664 630.1277403106827 549.6508634410507 # Ar
2 2 1 0.0 291.8389934930757 211.37912285739924 760.930727719422 # Ar
3 3 1 0.0 219.48778094135673 365.32953428727467 408.5936570302355 # Ar
4 4 1 0.0 668.0442395115945 598.9580924623885 245.2060565192185 # Ar
5 5 1 0.0 76.79401163577178 31.73182403159623 254.90583934584112 # Ar
6 6 1 0.0 723.4763191343962 902.9296897985173 657.1926843202805 # Ar
7 7 1 0.0 761.7222995576249 788.8088171065043 760.5228240859409 # Ar
8 8 1 0.0 714.8779436947118 395.8044126250122 684.6151420701268 # Ar
9 9 1 0.0 874.3077127451888 132.2867152866429 66.69350721066233 # Ar
10 10 1 0.0 250.60155176993104 620.0528543088325 502.988026922435 # Ar
11 11 1 0.0 312.41745652285255 899.7126501709322 88.32902028009454 # Ar
12 12 1 0.0 841.6336947194632 538.2208865460859 203.7870382904266 # Ar
13 13 1 0.0 251.98858363937183 914.8025963616526 776.1704743622985 # Ar
14 14 1 0.0 887.2143122460249 512.4772880679656 470.10418083680787 # Ar
15 15 1 0.0 273.6976326279847 696.9401406293146 149.1405379943655 # Ar
16 16 1 0.0 461.7447250959553 407.82565348591936 311.64854506334746 # Ar
17 17 1 0.0 897.9236347733886 89.15048510210487 67.90593872470107 # Ar
18 18 1 0.0 97.7054243908614 666.510417661041 915.0891591208691 # Ar
19 19 1 0.0 187.40344228836187 140.25794191417378 554.9687538078841 # Ar
20 20 1 0.0 612.7053819528721 680.2720764172393 735.5325320477317 # Ar
21 21 1 0.0 188.02281294609793 124.0763325953745 543.6917682974286 # Ar
22 22 1 0.0 632.4203225143391 436.53638696414487 911.4262362355008 # Ar
23 23 1 0.0 27.749092732780053 928.13422176686 924.7827083200717 # Ar
24 24 1 0.0 798.3642580282013 15.121658428347855 23.603141988933572 # Ar
25 25 1 0.0 403.58478962364927 459.62587106113074 233.58890771650564 # Ar
26 26 1 0.0 804.825323668186 691.6766840656303 257.36158722376683 # Ar
27 27 1 0.0 142.066241747477 754.9660593788658 510.71786768712644 # Ar
28 28 1 0.0 357.79902241277864 692.5645497411964 733.768617762428 # Ar
29 29 1 0.0 98.95496582514247 205.82708224078323 630.3074068974128 # Ar
30 30 1 0.0 352.2659252928906 933.2931881985128 26.800085435836248 # Ar
31 31 1 0.0 39.072980511645255 437.6958382213049 420.0835011802147 # Ar
32 32 1 0.0 55.60031505867884 828.8916144740954 911.8074085526937 # Ar
33 33 1 0.0 194.93618400833572 378.71272405126575 771.9776513177878 # Ar
34 34 1 0.0 54.57433357861924 606.5770917477462 113.34951104499514 # Ar
35 35 1 0.0 302.917742050763 133.83549927258557 793.1531709883861 # Ar
36 36 1 0.0 763.0145292210788 726.503920991796 51.93649158172609 # Ar
37 37 1 0.0 525.4013526035724 116.65747050760629 561.9607716832026 # Ar
38 38 1 0.0 814.152253027719 96.35850289508353 518.6843248108654 # Ar
39 39 1 0.0 703.2794276754345 683.8736749479118 845.1538843979841 # Ar
40 40 1 0.0 85.447915371838 123.0289592520513 335.3673920054213 # Ar
41 41 1 0.0 231.12929905398084 323.36245948258954 691.4702404986805 # Ar
42 42 1 0.0 479.2020501352497 527.5488275371072 44.06333971875387 # Ar
43 43 1 0.0 817.7383171322151 622.333492361455 392.50933306627957 # Ar
44 44 1 0.0 872.651275848944 361.5488707665445 402.47672394897785 # Ar
45 45 1 0.0 328.9670438802903 166.21188530247812 673.4798359493209 # Ar
46 46 1 0.0 431.7323203030712 716.3578441429411 808.769059626745 # Ar
47 47 1 0.0 188.54335579826773 337.78925479142026 29.52258362697953 # Ar
48 48 1 0.0 66.69615879799265 452.88301707792937 218.2778688247368 # Ar
49 49 1 0.0 635.5770813743076 13.319578456217927 862.1393068139168 # Ar
50 50 1 0.0 751.8833566269251 300.5273977083711 335.63193131364955 # Ar
51 51 1 0.0 675.7957649108332 781.8386958105474 869.490704316789 # Ar
52 52 1 0.0 855.6566889921924 588.4245088962576 137.53658692494517 # Ar
53 53 1 0.0 840.9175422269133 775.4737643660214 924.12528789709 # Ar
54 54 1 0.0 562.4130099951444 500.3270308013725 578.2000606855162 # Ar
55 55 1 0.0 449.885409739724 934.8198876640107 192.18770490846111 # Ar
56 56 1 0.0 164.79319347014584 519.2313212672493 853.4383708407992 # Ar
57 57 1 0.0 6.988598832247671 311.02271371139267 835.2987869910128 # Ar
58 58 1 0.0 305.99836822565993 252.829577226527 763.0463665091494 # Ar
59 59 1 0.0 201.260069390779 307.28556283138676 597.4379027982222 # Ar
60 60 1 0.0 552.2411530971859 875.3809774552601 650.7040108919477 # Ar
61 61 1 0.0 198.08987658395398 329.224415206172 474.5982815776757 # Ar
62 62 1 0.0 540.755864282038 914.5026369504675 10.020588718653883 # Ar
63 63 1 0.0 880.4993148387556 851.7790974201711 12.696494412106532 # Ar
64 64 1 0.0 531.0287075915033 225.37149829354556 698.9370204023255 # Ar
65 65 1 0.0 50.87317922040261 752.0850771618569 461.4080937557748 # Ar
66 66 1 0.0 99.48412911983802 139.55249603109203 301.2603107551145 # Ar
67 67 1 0.0 52.721723888076305 294.9279701447724 47.10225732081629 # Ar
68 68 1 0.0 56.041822416443075 161.9651844129524 11.01319690475944 # Ar
69 69 1 0.0 279.997864893964 240.40609965380094 801.5386735228602 # Ar
70 70 1 0.0 791.868065549214 446.7057691140952 161.95242384050087 # Ar
71 71 1 0.0 435.0051727598517 89.87154676272034 732.837534540312 # Ar
72 72 1 0.0 207.5333066285103 404.6584385078095 243.48438378542693 # Ar
73 73 1 0.0 429.78234489541364 474.1629176601973 200.4048340221848 # Ar
74 74 1 0.0 751.1850529389944 244.4211377144295 859.6370481757402 # Ar
75 75 1 0.0 448.7000568414792 208.86036498780726 15.837641749059465 # Ar
76 76 1 0.0 346.817100895058 621.6204535523012 147.15562777835945 # Ar
77 77 1 0.0 136.5025476958298 615.6407117713334 875.7901251315456 # Ar
78 78 1 0.0 422.68523296631867 393.26803894897637 313.0346063723502 # Ar
79 79 1 0.0 28.34796214618254 688.859751038631 847.3219369137166 # Ar
80 80 1 0.0 303.4178865964429 347.28948276004945 101.87849005917946 # Ar
81 81 1 0.0 120.2957387245503 709.9665599623943 795.9124686525124 # Ar
82 82 1 0.0 580.1285869547145 639.6638546466756 248.19350390649257 # Ar
83 83 1 0.0 490.9845912721224 81.20026272940152 838.1834937923338 # Ar
84 84 1 0.0 228.19852747378783 825.1894201505638 372.8060840378415 # Ar
85 85 1 0.0 578.5943432765813 173.8527460478779 587.3600745468968 # Ar
86 86 1 0.0 733.104302973996 334.8530698013537 566.1298883547362 # Ar
87 87 1 0.0 321.9349402106956 212.5390834962762 205.5312911445543 # Ar
88 88 1 0.0 86.40666793892525 779.7892749122228 435.8698926736949 # Ar
89 89 1 0.0 198.47766480002727 594.2961795924672 564.0246418758538 # Ar
90 90 1 0.0 236.77483261161424 182.17885113317166 554.5437182223197 # Ar
91 91 1 0.0 246.2489590445023 522.4981975045918 224.54236222720016 # Ar
92 92 1 0.0 647.2893535255299 443.2832866351713 116.42525617337063 # Ar
93 93 1 0.0 340.2008425263234 356.3162998218726 721.2800298851923 # Ar
94 94 1 0.0 6.3819224111348865 586.6411642903848 165.5687723192507 # Ar
95 95 1 0.0 681.0439113454798 884.5266926669843 603.0096814020562 # Ar
96 96 1 0.0 693.552391012537 394.82773211570395 38.798234989527685 # Ar
97 97 1 0.0 692.8193000486758 363.79815139050453 42.19423430984032 # Ar
98 98 1 0.0 400.2716864935002 873.7235544028548 129.36655156882935 # Ar
99 99 1 0.0 501.04975051335236 697.1892144071824 620.019230448124 # Ar
100 100 1 0.0 155.08656760994054 691.3810949215799 427.0285920455335 # Ar
101 101 1 0.0 186.2328708488648 913.3814360436422 858.004342573291 # Ar
102 102 1 0.0 370.2522611506085 878.4396063051662 379.64751952792165 # Ar
103 103 1 0.0 271.6701739203345 563.6643931375135 32.25361297146322 # Ar
104 104 1 0.0 843.9380290694784 425.7682135976357 893.7693628068998 # Ar
105 105 1 0.0 638.4590376031241 689.409104306433 807.3238923719017 # Ar
106 106 1 0.0 291.63693600990297 1.852907247845829 731.9954804178736 # Ar
107 107 1 0.0 764.6941561180532 325.32921870079065 539.7172522831413 # Ar
108 108 1 0.0 21.338228197223515 439.00738824735015 464.33064082444014 # Ar
109 109 1 0.0 888.5579321369751 517.2295506248921 825.7946926803004 # Ar
110 110 1 0.0 253.26448803597535 300.3431632893161 696.5264751331864 # Ar
111 111 1 0.0 572.3105049468124 577.9458443557232 621.2006620672611 # Ar
112 112 1 0.0 771.151862903422 494.4640608313254 731.8777764539674 # Ar
113 113 1 0.0 604.4961568580659 691.2994925384918 141.12610239327992 # Ar
114 114 1 0.0 789.8777388364459 11.057129132345727 296.1324954483987 # Ar
115 115 1 0.0 576.9484383760972 787.238323765852 384.36332142391586 # Ar
116 116 1 0.0 185.79615921511663 616.9519823086738 752.4176606995264 # Ar
117 117 1 0.0 709.006560082249 720.0259459399355 112.04041504940245 # Ar
118 118 1 0.0 801.8627996180242 290.9996782671964 147.4401212255411 # Ar
119 119 1 0.0 249.0816398351409 51.22737628825592 867.8678202466657 # Ar
120 120 1 0.0 585.8751382603448 846.7527236195918 407.9437341392521 # Ar
121 121 1 0.0 588.5853583476489 840.7795374431038 541.3703222623001 # Ar
122 122 1 0.0 219.1166636469281 545.9062034073032 61.33024041618842 # Ar
123 123 1 0.0 718.976833818911 139.05402492101123 735.1836031813941 # Ar
124 124 1 0.0 893.2017222352939 423.16065095929815 643.6974287082149 # Ar
125 125 1 0.0 251.34754405086358 44.85431817679545 18.744532602654566 # Ar
126 126 1 0.0 417.60734011168523 836.5758860774226 832.7007727904967 # Ar
127 127 1 0.0 857.4591128569672 673.1146299758484 108.5519198629443 # Ar
128 128 1 0.0 839.8951727620175 544.6050970376634 691.2450891063742 # Ar
129 129 1 0.0 542.6270102356124 64.31682643885536 929.8991903226197 # Ar
130 130 1 0.0 319.2494826623252 530.5981588350443 26.315046070198775 # Ar
131 131 1 0.0 510.1942425211074 568.9426618414684 232.632919627954 # Ar
132 132 1 0.0 710.6708174138333 653.1068155553214 275.396169469512 # Ar
133 133 1 0.0 839.2314313109248 278.64152375677185 759.167256349983 # Ar
134 134 1 0.0 329.5985181315907 769.2659500669328 892.6610854201119 # Ar
135 135 1 0.0 644.3829771985953 73.17903140089156 587.6098600506245 # Ar
136 136 1 0.0 517.6839565500065 138.77542925132698 415.2926223556654 # Ar
137 137 1 0.0 313.1322550916817 542.3441775377713 347.57330017952154 # Ar
138 138 1 0.0 780.9676812993488 241.5343085414195 718.7298813586788 # Ar
139 139 1 0.0 774.8521516874565 57.442827701490195 506.367903807444 # Ar
140 140 1 0.0 557.8034297330701 49.954325205876664 335.59036352603476 # Ar
141 141 1 0.0 484.05424028969264 401.8088904119003 361.76997897257235 # Ar
142 142 1 0.0 136.46004467160918 784.6708884786982 469.39943213085775 # Ar
143 143 1 0.0 184.37548817202546 694.1518125458808 581.6911364374834 # Ar
144 144 1 0.0 547.2303954980359 271.91614978254205 134.9098863387999 # Ar
145 145 1 0.0 344.46179992375966 694.3688534549448 683.9059579232625 # Ar
146 146 1 0.0 627.3263186109426 422.88441707792566 14.574601855839076 # Ar
147 147 1 0.0 647.3566598767928 528.9825114782075 127.71691764874326 # Ar
148 148 1 0.0 363.4492788321322 657.6297365595972 495.8146132192071 # Ar
149 149 1 0.0 140.09112704970116 886.3565243747078 282.441128440321 # Ar
150 150 1 0.0 736.2960415633645 449.11364607005873 784.6756236385045 # Ar
151 151 1 0.0 236.78729283877374 473.6535664857939 29.49064591660981 # Ar
152 152 1 0.0 333.38100322997036 457.5206376536581 52.84855653230322 # Ar
153 153 1 0.0 98.50058414420374 420.9825654013533 472.39501384921397 # Ar
154 154 1 0.0 80.61589551527224 699.889602733988 486.8539820424364 # Ar
155 155 1 0.0 840.8924836560836 76.15131556964128 118.19748713777501 # Ar
156 156 1 0.0 350.62028502004347 634.9316551562492 332.30762045971545 # Ar
157 157 1 0.0 230.84404259319848 409.2775513807588 499.4228525815342 # Ar
158 158 1 0.0 633.582395138098 398.1844828564631 378.26942362257313 # Ar
159 159 1 0.0 881.8457560070309 313.810959064772 188.99713589539414 # Ar
160 160 1 0.0 437.18090162718147 772.5254820417898 666.7966343658967 # Ar
161 161 1 0.0 510.43029655849324 858.9403681171722 828.0089736431844 # Ar
162 162 1 0.0 576.5527798959137 593.3091686864616 441.50070997788174 # Ar
163 163 1 0.0 111.80381881322639 466.26248829505886 27.394657053383817 # Ar
164 164 1 0.0 227.38966541508125 920.9669419644599 454.7072790684927 # Ar
165 165 1 0.0 557.445006607231 720.4542137694701 844.7205141004544 # Ar
166 166 1 0.0 767.6726234031911 605.3572908111921 764.8141673585613 # Ar
167 167 1 0.0 588.5387203820317 794.4124461096088 483.3666430079777 # Ar
168 168 1 0.0 930.3117309624636 147.86069672484928 717.1810757659659 # Ar
169 169 1 0.0 16.601571051305793 125.36179681898254 528.1694537760891 # Ar
170 170 1 0.0 834.0593100774831 39.009078109240484 853.5921918013719 # Ar
171 171 1 0.0 65.43328968977252 674.3817015683861 361.0397055028588 # Ar
172 172 1 0.0 932.6159307952298 810.3560346619244 29.880367518436696 # Ar
173 173 1 0.0 327.3944923546707 73.03946683678018 546.8886701751451 # Ar
174 174 1 0.0 547.9807653288447 559.6073447709367 770.7978257814045 # Ar
175 175 1 0.0 242.31132856231991 212.64032782422777 82.87838636180936 # Ar
176 176 1 0.0 288.2978443844176 283.5177185255974 21.917324490592673 # Ar
177 177 1 0.0 869.3361327709933 571.906781221197 286.1534840702393 # Ar
178 178 1 0.0 110.25432568674665 236.35445085129155 648.0962557906013 # Ar
179 179 1 0.0 149.75277756096955 361.7424054767636 901.5521077827941 # Ar
180 180 1 0.0 399.8480821864412 682.5080563473492 505.48521197313437 # Ar
181 181 1 0.0 410.01517071222963 792.3381954448128 605.7762249395928 # Ar
182 182 1 0.0 560.6737210991218 209.81717040442456 479.2915091880557 # Ar
183 183 1 0.0 362.96904012871653 924.5353974817123 349.64700739531395 # Ar
184 184 1 0.0 172.3921599981702 417.490148901637 13.952718768334192 # Ar
185 185 1 0.0 509.20363701995547 867.0876696397058 259.1672531541189 # Ar
186 186 1 0.0 895.3356367721071 500.68696321577664 636.0564347946466 # Ar
187 187 1 0.0 361.6915276864188 149.6026709528951 620.5138034215702 # Ar
188 188 1 0.0 558.6090680511319 187.591796084311 49.83843960807788 # Ar
189 189 1 0.0 101.80398418611409 179.4219587799178 533.817853983211 # Ar
190 190 1 0.0 568.1159012769991 110.91009122453457 878.265768885317 # Ar
191 191 1 0.0 570.0343014077806 751.6640196378578 882.9295657628537 # Ar
192 192 1 0.0 714.2652963221882 120.46257834457771 617.6942939123053 # Ar
193 193 1 0.0 523.5834845783405 201.01453387257877 540.3435743973246 # Ar
194 194 1 0.0 788.68498965711 1.1107347541922177 218.45483688021554 # Ar
195 195 1 0.0 718.0590381187832 706.7379781064969 489.1262602006106 # Ar
196 196 1 0.0 214.1545424567593 33.66787367351968 902.326293432651 # Ar
197 197 1 0.0 718.950547838903 556.0858189494111 559.6634050609803 # Ar
198 198 1 0.0 917.9648603027791 295.58970056951745 351.7332493746399 # Ar
199 199 1 0.0 224.49980125146993 641.1094595680321 752.1779053386066 # Ar
200 200 1 0.0 884.4871886185095 510.8407760842224 898.1649864000042 # Ar
201 201 1 0.0 206.4537023154423 459.91993059967155 51.29823174143294 # Ar
202 202 1 0.0 510.57866148708706 835.8816214181712 743.8782230338941 # Ar
203 203 1 0.0 405.19389231697096 884.0633555473842 285.91419146507303 # Ar
204 204 1 0.0 576.3992912391705 627.2586867643488 599.9203093628547 # Ar
205 205 1 0.0 127.07024818674516 827.0957501759469 878.2369402262839 # Ar
206 206 1 0.0 514.0581410655442 633.0000256175692 745.9511209886441 # Ar
207 207 1 0.0 155.17374740162387 111.29157274500439 698.7703432622817 # Ar
208 208 1 0.0 200.46227525061403 573.0306441684656 683.913928617841 # Ar
209 209 1 0.0 654.4957576009411 99.43984271285117 236.56083710088294 # Ar
210 210 1 0.0 651.6384859198898 510.2279408801785 671.9021930830576 # Ar
211 211 1 0.0 380.3775233997466 249.1948593899977 661.862808873641 # Ar
212 212 1 0.0 518.9807051616924 227.01144739042365 640.332257765704 # Ar
213 213 1 0.0 646.8680731450056 145.47386652057244 461.6551798853674 # Ar
214 214 1 0.0 576.7498002862118 415.45204757264895 905.4458847536608 # Ar
215 215 1 0.0 678.7526568378294 14.087750241327626 640.9317186370082 # Ar
216 216 1 0.0 588.728203133418 371.31496525639983 919.224102253926 # Ar
217 217 1 0.0 859.0559015727722 686.1917765998516 295.7719375031347 # Ar
218 218 1 0.0 386.6899960336462 315.1874347291862 508.67680310408207 # Ar
219 219 1 0.0 463.6963000300019 811.9991481560629 560.1010189056534 # Ar
220 220 1 0.0 589.5401285702978 437.68179693466027 631.9176859407373 # Ar
221 221 1 0.0 453.46759006179707 146.43507616322054 513.8485003337667 # Ar
222 222 1 0.0 65.42812303110425 741.587850567365 186.97400746707473 # Ar
223 223 1 0.0 763.9657123553351 801.2556253682734 582.1447995692746 # Ar
224 224 1 0.0 591.663117196121 916.0523856602721 332.226825548696 # Ar
225 225 1 0.0 4.304863482976083 156.02037313860754 820.1472975622075 # Ar
226 226 1 0.0 369.24636037809796 851.8526233985597 602.8694216414572 # Ar
227 227 1 0.0 830.410737193983 807.5028198033551 163.2339911433516 # Ar
228 228 1 0.0 23.745612543537014 505.21856196756784 828.1077543846587 # Ar
229 229 1 0.0 392.40385453503285 892.3771166625755 802.0432631765831 # Ar
230 230 1 0.0 883.8157302871708 445.68868937174153 385.8249349237389 # Ar
231 231 1 0.0 728.6930944403994 742.360468967403 719.1965054415238 # Ar
232 232 1 0.0 370.94001094918787 674.6595716377484 109.69630453289415 # Ar
233 233 1 0.0 446.24875177622516 520.9797227650143 321.7488681129372 # Ar
234 234 1 0.0 713.2987283902661 802.9947375650139 348.82806319682163 # Ar
235 235 1 0.0 530.6532214885897 905.8978244885003 398.8761628829419 # Ar
236 236 1 0.0 481.05180068619177 920.4108573889026 547.4367651779094 # Ar
237 237 1 0.0 350.6786110461661 546.085075222509 221.46967423334496 # Ar
238 238 1 0.0 501.3736468610785 886.3848230979058 454.66339104711125 # Ar
239 239 1 0.0 182.75980510672264 628.2753621153886 842.6533408925833 # Ar
240 240 1 0.0 148.16126218034728 326.068625031054 286.916292136658 # Ar
241 241 1 0.0 178.71540460670553 221.33925523450156 754.5585851170555 # Ar
242 242 1 0.0 889.9302351196313 373.6489042578125 264.7675538948714 # Ar
243 243 1 0.0 430.33862211034796 689.5907010576349 683.3220101743275 # Ar
244 244 1 0.0 271.95801023362316 540.3629579729442 818.8227182322089 # Ar
245 245 1 0.0 300.8347487062655 400.18377679643413 396.8499949009914 # Ar
246 246 1 0.0 905.7715151584216 352.03547887994574 626.8043520300522 # Ar
247 247 1 0.0 190.02066764787273 666.7245760380073 50.21427447332001 # Ar
248 248 1 0.0 217.7894115141857 694.9257386171137 387.6121298301837 # Ar
249 249 1 0.0 641.6751983333603 769.0324693836938 446.3238372603725 # Ar
250 250 1 0.0 780.3010658947481 208.13185060034525 666.4319594500708 # Ar
251 251 1 0.0 493.36840861380415 639.1378696532765 839.6977121395201 # Ar
252 252 1 0.0 904.2609983527168 810.5220811098848 11.412540038610349 # Ar
253 253 1 0.0 344.48302508655723 686.8038233652288 648.4360585254241 # Ar
254 254 1 0.0 227.09118956179478 737.3072973408273 453.8708240006421 # Ar
255 255 1 0.0 277.94448929542415 151.7491854976855 146.98353985184391 # Ar
256 256 1 0.0 796.0101490878694 876.8371948725407 215.18736847475714 # Ar
257 257 1 0.0 118.56289852992388 860.0009890395696 632.5169874592694 # Ar
258 258 1 0.0 144.34203604693838 679.4133307906353 386.24066416704983 # Ar
259 259 1 0.0 639.6131573573427 119.04678621288768 420.0276423372356 # Ar
260 260 1 0.0 422.64405978936236 71.89288335256573 861.3694794984797 # Ar
261 261 1 0.0 5.385576249140598 213.6234349115022 747.5523476776565 # Ar
262 262 1 0.0 888.5547356721905 550.161077983614 493.86047150761294 # Ar
263 263 1 0.0 189.7463868739207 342.6649843186196 165.26212678966854 # Ar
264 264 1 0.0 769.7036100870934 64.84208677691197 277.88868232330077 # Ar
265 265 1 0.0 652.6733431327216 132.32876175368918 785.117764895447 # Ar
266 266 1 0.0 122.82091996485124 871.7986859532072 415.01384674947843 # Ar
267 267 1 0.0 280.3691139138031 207.15541018346514 290.3510707217289 # Ar
268 268 1 0.0 877.1758451633721 244.95561837866092 31.180879383239713 # Ar
269 269 1 0.0 621.2991484059531 100.77968247845838 86.81798115667797 # Ar
270 270 1 0.0 715.4112464695215 870.7843021305308 267.36011907945857 # Ar
271 271 1 0.0 733.669639369519 310.15425094618666 21.28907634593962 # Ar
272 272 1 0.0 408.3797164905793 78.82780826789737 407.40838119996744 # Ar
273 273 1 0.0 215.86219222958337 676.3451906186733 607.8430768253666 # Ar
274 274 1 0.0 89.11156579152033 255.40416161701424 639.8901427386608 # Ar
275 275 1 0.0 477.4376716454423 719.5255988840707 132.51013106422997 # Ar
276 276 1 0.0 52.21704297409372 257.055829326496 875.2583398471837 # Ar
277 277 1 0.0 124.0270163126974 578.0668115889172 409.44328321847485 # Ar
278 278 1 0.0 189.09143891699927 382.4376278118123 193.25563433139962 # Ar
279 279 1 0.0 9.210306167180518 235.5826115039645 421.156599915073 # Ar
280 280 1 0.0 450.6885273315919 120.84321369146781 221.10311570134348 # Ar
281 281 1 0.0 882.7840303840228 891.258883428047 531.9848490873397 # Ar
282 282 1 0.0 88.28565588832703 256.591177509659 753.0484684724391 # Ar
283 283 1 0.0 316.28469621410886 404.14004589055565 73.72029461789026 # Ar
284 284 1 0.0 195.59883339446142 29.218574267618312 570.3466791731947 # Ar
285 285 1 0.0 681.316104140121 908.3286849297208 21.32167410439395 # Ar
286 286 1 0.0 336.1530277057869 809.6095068805682 52.53865369624875 # Ar
287 287 1 0.0 817.6786073628278 648.4805034092324 127.5512753916463 # Ar
288 288 1 0.0 485.756931889781 428.96234662599437 619.0910319101683 # Ar
289 289 1 0.0 607.0655915318695 481.15028455598207 198.50110748323806 # Ar
290 290 1 0.0 105.80336229295754 539.4071037427103 301.35294566333835 # Ar
291 291 1 0.0 335.17731347702 612.689071108889 192.47668934323397 # Ar
292 292 1 0.0 86.72832780774745 761.779369221738 926.2755174174141 # Ar
293 293 1 0.0 651.7924148833962 245.37259764853638 320.16320203481314 # Ar
294 294 1 0.0 8.859385975496068 875.3679430806874 480.3759604849832 # Ar
295 295 1 0.0 139.8652990941917 872.5428093333858 129.32809077828983 # Ar
296 296 1 0.0 529.6087102307532 546.0720433308192 398.0034878939982 # Ar
297 297 1 0.0 238.66487966528757 472.80924396544174 930.0003761208701 # Ar
298 298 1 0.0 235.3005760809149 563.9999056653767 84.1543175004235 # Ar
299 299 1 0.0 926.7900506103665 312.9594705625061 142.9531359927109 # Ar
300 300 1 0.0 77.69581127849816 379.15825739053327 512.722064422501 # Ar
301 301 1 0.0 262.9730222038503 345.58954644052994 607.2006612040863 # Ar
302 302 1 0.0 195.83766665378258 549.0576169026918 804.905109884278 # Ar
303 303 1 0.0 765.004365490854 635.2065257241283 490.6999014190682 # Ar
304 304 1 0.0 821.6058725737759 337.112958021045 94.03473143817551 # Ar
305 305 1 0.0 425.103980783828 844.2766498360899 296.0601577827059 # Ar
306 306 1 0.0 879.0480244741581 327.22186205973884 488.5765140009129 # Ar
307 307 1 0.0 158.60346862306548 86.2229231614772 701.5267585911323 # Ar
308 308 1 0.0 768.8454121482232 445.0874872334096 702.8176215251357 # Ar
309 309 1 0.0 229.5791329442496 571.7455942893006 625.9605822054509 # Ar
310 310 1 0.0 636.1018195958992 728.3030194718486 870.0102596673465 # Ar
311 311 1 0.0 90.4991355525113 662.1110695796187 625.4043119223953 # Ar
312 312 1 0.0 884.8120921180481 462.2477622078581 260.0915600857396 # Ar
313 313 1 0.0 443.0234962175566 217.49599474420478 891.1581110957717 # Ar
314 314 1 0.0 154.663864750722 378.96946647074026 141.19938597504637 # Ar
315 315 1 0.0 518.6690511481671 537.6949714652193 219.42836800717276 # Ar
316 316 1 0.0 697.5924607933499 873.7060731291155 98.70651457584627 # Ar
317 317 1 0.0 878.6716916634113 462.1788038547079 925.3258226235996 # Ar
318 318 1 0.0 367.73360388716236 926.5582658588976 902.1057439682577 # Ar
319 319 1 0.0 247.79343151625852 811.4573090660333 132.0648665626937 # Ar
320 320 1 0.0 798.6029524586797 147.44104466257534 121.51088109545103 # Ar
321 321 1 0.0 109.52728410144032 337.27327509972315 729.9114498212053 # Ar
322 322 1 0.0 868.2012110999419 358.4382855054122 369.87282272459515 # Ar
323 323 1 0.0 785.9407553355082 583.6497892086892 5.99936399842187 # Ar
324 324 1 0.0 77.73935039198719 197.31058502536533 903.0499200286853 # Ar
325 325 1 0.0 849.5371716696804 820.1879401130975 325.84068878887837 # Ar
326 326 1 0.0 848.1367938514826 701.9318923626457 790.8365964182808 # Ar
327 327 1 0.0 407.2400285997477 636.6108063755267 670.7523956073633 # Ar
328 328 1 0.0 78.54290190946287 315.5210736566049 439.94621835106165 # Ar
329 329 1 0.0 863.7823428796673 693.5229443716014 735.0723850051359 # Ar
330 330 1 0.0 355.2193857914219 906.0290822024974 857.374725760166 # Ar
331 331 1 0.0 18.781609755470825 160.69472503586422 417.3589108609077 # Ar
332 332 1 0.0 498.2846930743767 155.9618073345659 149.41692877082278 # Ar
333 333 1 0.0 334.92809013977694 76.54073119031348 53.88724984822701 # Ar
334 334 1 0.0 81.74275936435635 773.770537615374 4.80892331426965 # Ar
335 335 1 0.0 10.206046743014939 515.5743848452616 871.9420694488538 # Ar
336 336 1 0.0 908.4959799408067 149.96794211129543 249.24466030499553 # Ar
337 337 1 0.0 494.9316523407829 770.4265076870539 350.73625968475005 # Ar
338 338 1 0.0 844.6110086098384 787.8316260796277 82.1381556219093 # Ar
339 339 1 0.0 119.20995822876705 655.9028059110483 351.51301417273896 # Ar
340 340 1 0.0 381.41917403362936 714.5829565597734 311.3953323811896 # Ar
341 341 1 0.0 389.00704768643385 924.304340815809 688.3805142808725 # Ar
342 342 1 0.0 329.24403894687237 547.5389550594595 237.11941595474246 # Ar
343 343 1 0.0 233.11166497842825 2.7204804417800275 904.1428665885994 # Ar
344 344 1 0.0 773.1535467999568 23.32861449699583 449.63791607497467 # Ar
345 345 1 0.0 920.3120956135441 74.52676551200364 373.87992736739704 # Ar
346 346 1 0.0 213.26651610558838 396.22571240019147 918.924167822557 # Ar
347 347 1 0.0 575.0705647978888 748.0599983337488 686.8182680795636 # Ar
348 348 1 0.0 463.029234749182 628.7996230697523 128.44277053840528 # Ar
349 349 1 0.0 475.43970329137414 597.0791876218395 694.7561941376049 # Ar
350 350 1 0.0 427.5598674254413 54.25623855661441 559.250406635454 # Ar
351 351 1 0.0 692.4891384729908 769.4980547371222 211.42176898205744 # Ar
352 352 1 0.0 58.31377064939556 446.4252266020358 8.97384778352459 # Ar
353 353 1 0.0 42.843832014355286 151.81484828836943 840.434720960253 # Ar
354 354 1 0.0 181.1298781230038 201.92008692464896 133.62418191248483 # Ar
355 355 1 0.0 857.6458706218336 774.3231635921506 637.8135825395256 # Ar
356 356 1 0.0 714.12224157197 672.5728346701891 625.0082741440664 # Ar
357 357 1 0.0 881.4508269666254 537.9785089280613 702.1268466571787 # Ar
358 358 1 0.0 615.4408241096078 873.9965911560264 249.0738087763957 # Ar
359 359 1 0.0 863.4042377879229 521.7597417816816 320.5775420203169 # Ar
360 360 1 0.0 777.2452746851986 279.12974736618236 859.9393762880543 # Ar
361 361 1 0.0 104.5499962425663 859.0038118704935 623.2648458451399 # Ar
362 362 1 0.0 368.5517148926722 753.8138628005049 437.1985064778302 # Ar
363 363 1 0.0 592.6871256210796 200.6969688025467 402.3515804577356 # Ar
364 364 1 0.0 627.7008428337388 891.3211477152755 117.7997103944766 # Ar
365 365 1 0.0 357.1211729003532 232.0626801275206 511.93545292682944 # Ar
366 366 1 0.0 397.7417521192166 884.2925014880744 119.69275651261178 # Ar
367 367 1 0.0 120.81666441253917 414.6694742066454 553.1121512406019 # Ar
368 368 1 0.0 762.0849793764932 148.4456534247615 25.964686380315744 # Ar
369 369 1 0.0 336.21143588843375 644.1497247946392 517.5400987060924 # Ar
370 370 1 0.0 661.1971401131798 477.42395287699526 818.2335087430795 # Ar
371 371 1 0.0 533.4976949888262 535.2222998781306 361.80981634877986 # Ar
372 372 1 0.0 779.6479318910201 813.2724000831782 422.15832783891585 # Ar
373 373 1 0.0 847.3250337711274 592.5554660139271 886.8344618625965 # Ar
374 374 1 0.0 801.7005481732008 780.7485548209115 193.82306543039797 # Ar
375 375 1 0.0 545.274191686274 605.0318540167153 855.1730695966169 # Ar
376 376 1 0.0 840.4451986418535 49.146263319286945 422.1573462923893 # Ar
377 377 1 0.0 33.43708584681105 458.0817820649279 541.1126906341415 # Ar
378 378 1 0.0 837.3215962088763 767.0025365018686 267.58894693283736 # Ar
379 379 1 0.0 213.49122664199146 426.0546291010408 926.1908127452159 # Ar
380 380 1 0.0 146.14675834129363 831.5711641833419 276.67037948260344 # Ar
381 381 1 0.0 132.14717111376882 110.8935652702581 748.6022628692883 # Ar
382 382 1 0.0 673.7724077640216 893.975549135495 805.605113390496 # Ar
383 383 1 0.0 321.0833884385279 61.94126435437725 570.8598528697029 # Ar
384 384 1 0.0 111.7710439698718 80.38251537237227 20.879221213949624 # Ar
385 385 1 0.0 623.8242814229017 657.3277233718588 447.5719999863472 # Ar
386 386 1 0.0 634.8871412811569 862.1329864076816 520.8575450944855 # Ar
387 387 1 0.0 152.6583662168212 436.90443977817506 728.91398816431 # Ar
388 388 1 0.0 220.8033966755755 181.11926360911968 619.5539653139381 # Ar
389 389 1 0.0 715.4007401514042 13.008482168553758 185.93965668336162 # Ar
390 390 1 0.0 432.6291621769118 92.55949288069543 887.1456179645693 # Ar
391 391 1 0.0 345.91486987888146 357.5104126221988 639.7520370057309 # Ar
392 392 1 0.0 141.03402767807074 652.688611380532 608.6690593447908 # Ar
393 393 1 0.0 564.706063325838 99.52457795662139 916.8688798702224 # Ar
394 394 1 0.0 796.93762616467 424.28160916262306 20.11727274586763 # Ar
395 395 1 0.0 720.1835763012641 189.30651256622255 709.3799664754442 # Ar
396 396 1 0.0 139.7098926762521 315.9975062866896 263.2350748723886 # Ar
397 397 1 0.0 114.18781763936637 384.4657075148704 25.633174795309785 # Ar
398 398 1 0.0 339.4943575243883 878.22790829641 774.8808300536498 # Ar
399 399 1 0.0 471.5511033458484 216.62155564246345 45.00238731332443 # Ar
400 400 1 0.0 626.9381737472515 14.61816962532783 492.20432085318276 # Ar
401 401 1 0.0 844.9489411862326 426.0504457423824 598.2876424856998 # Ar
402 402 1 0.0 401.6295198076254 819.762734902526 515.3932657746857 # Ar
403 403 1 0.0 644.9382765904959 407.68722335901896 590.6777513291754 # Ar
404 404 1 0.0 413.27957284476776 927.5043807528336 757.3547693829277 # Ar
405 405 1 0.0 127.60974332918339 738.5963662130945 16.868841254909352 # Ar
406 406 1 0.0 255.59398947977368 65.55307346543135 364.7997349001574 # Ar
407 407 1 0.0 372.5501052508017 97.15295954343867 102.20148966610815 # Ar
408 408 1 0.0 790.1463313917869 736.8273753153961 930.1884388376617 # Ar
409 409 1 0.0 319.2644775555193 87.17761503213619 438.7584538360687 # Ar
410 410 1 0.0 854.9386129320862 3.5556889493650137 466.71107736254567 # Ar
411 411 1 0.0 384.35248164816085 478.7151766763573 757.3446062240357 # Ar
412 412 1 0.0 657.6555394041756 419.30840582110955 728.4651846730658 # Ar
413 413 1 0.0 839.4222445219933 748.8609735128383 918.6511375402663 # Ar
414 414 1 0.0 778.9150844226605 667.4523808749136 446.26432331843597 # Ar
415 415 1 0.0 593.9968840105026 34.96985841519959 24.702101905115608 # Ar
416 416 1 0.0 161.01916551993406 48.52670779043738 579.3663807781055 # Ar
417 417 1 0.0 786.6015502692267 709.1783622351884 138.4204588936047 # Ar
418 418 1 0.0 297.4015893549525 428.2461814452189 825.7448125881302 # Ar
419 419 1 0.0 730.3193131845399 98.24768244700475 693.3390381552736 # Ar
420 420 1 0.0 85.26055507775561 903.4266561308832 717.7269668512454 # Ar
421 421 1 0.0 242.74751875287038 914.4273218741434 888.4680641701087 # Ar
422 422 1 0.0 738.957030727708 692.1961648841223 207.92443557594908 # Ar
423 423 1 0.0 232.03216978424703 316.8871176092285 654.338073706906 # Ar
424 424 1 0.0 489.2107737865616 901.1773523879054 0.6887234963612581 # Ar
425 425 1 0.0 538.513523148972 41.98892128834743 462.73007038852705 # Ar
426 426 1 0.0 12.887720556781431 34.06762052057153 595.6172794439437 # Ar
427 427 1 0.0 896.8654488272399 537.81230157916 39.37231402567519 # Ar
428 428 1 0.0 511.9803095200856 687.0117620190704 130.50920296018492 # Ar
429 429 1 0.0 405.48974379683654 137.24047723710396 913.7109777444322 # Ar
430 430 1 0.0 416.13406032739937 0.9683303569072373 716.7586534885965 # Ar
431 431 1 0.0 873.9036275441713 557.3747328358623 771.9044233337785 # Ar
432 432 1 0.0 688.3766407953068 758.7976326460065 795.4390651870401 # Ar
433 433 1 0.0 570.3240852346162 704.5550192250236 229.7158190863783 # Ar
434 434 1 0.0 35.03937822263578 177.21090366621144 364.9321381442659 # Ar
435 435 1 0.0 813.9750550613253 81.57453444942155 632.2628253420963 # Ar
436 436 1 0.0 55.81847336080221 48.281486493933876 758.0153593906763 # Ar
437 437 1 0.0 490.4320491251704 855.7318730907369 863.1015362529362 # Ar
438 438 1 0.0 329.44290951850286 513.5849792755289 437.4262538092965 # Ar
439 439 1 0.0 288.25073494338807 382.74513775668464 821.2009298893505 # Ar
440 440 1 0.0 789.0733087900746 504.88209119494667 470.1385674094706 # Ar
441 441 1 0.0 620.6538682558493 660.5016177685372 761.8162526377824 # Ar
442 442 1 0.0 626.069314890249 75.80427097878864 859.7587127453737 # Ar
443 443 1 0.0 115.23343374430029 666.1351738892489 787.6479115821994 # Ar
444 444 1 0.0 143.07109486015995 911.9729883820827 269.26591124791474 # Ar
445 445 1 0.0 682.3284592033713 465.73504460828497 327.27433861579954 # Ar
446 446 1 0.0 105.35673407733469 510.51830325794595 871.1940084938412 # Ar
447 447 1 0.0 560.2837986407092 820.266175339253 581.6243137418426 # Ar
448 448 1 0.0 718.4725711353126 78.34223174456123 133.98557531999427 # Ar
449 449 1 0.0 30.968696856870825 538.9098539216303 776.5517871134786 # Ar
450 450 1 0.0 393.11935308283273 802.6622887308755 857.6314059751154 # Ar
451 451 1 0.0 626.4179696069758 545.6199999625885 611.6824622868489 # Ar
452 452 1 0.0 516.3796812409931 610.0601438039087 63.25990241979427 # Ar
453 453 1 0.0 501.6564988429107 530.4030439783319 665.2448520360742 # Ar
454 454 1 0.0 231.3495269269443 917.1396191962924 748.9408827155568 # Ar
455 455 1 0.0 561.3442017708563 856.3420408220184 766.711713856915 # Ar
456 456 1 0.0 129.5320065380064 479.8536639186366 80.32882607789554 # Ar
457 457 1 0.0 117.07031562268936 389.1834628412594 877.7396515678965 # Ar
458 458 1 0.0 777.9107294836477 266.4455754175202 924.4150229210586 # Ar
459 459 1 0.0 4.148239337575744 665.7161576226017 124.1569068836267 # Ar
460 460 1 0.0 12.428445028540885 115.6835752143768 788.9418765650479 # Ar
461 461 1 0.0 266.9747090352755 64.42636300630872 873.9918578806829 # Ar
462 462 1 0.0 833.1025796908515 661.47136214907 642.4362150212088 # Ar
463 463 1 0.0 545.6682840951345 104.65963744725946 512.0663696956341 # Ar
464 464 1 0.0 413.76811452996253 828.5401523043186 116.90296152686808 # Ar
465 465 1 0.0 924.7129161176736 495.7640117460564 287.0673244084516 # Ar
466 466 1 0.0 869.3377641441037 930.265589185301 655.1528059081444 # Ar
467 467 1 0.0 934.1613291132296 729.6987803113409 829.2613682751014 # Ar
468 468 1 0.0 780.5160473926611 848.4054032950235 155.55796038338985 # Ar
469 469 1 0.0 60.07426168348458 487.1317627919965 45.179956313128365 # Ar
470 470 1 0.0 738.7287506708989 776.6833845143068 642.1677683473948 # Ar
471 471 1 0.0 434.541297624651 635.5208653381967 124.07363144238447 # Ar
472 472 1 0.0 184.549426508469 53.30166569661086 407.24755968614375 # Ar
473 473 1 0.0 918.5288774303775 629.8850698239751 818.5509156658263 # Ar
474 474 1 0.0 643.3606358555888 410.4386626102271 74.40588169475687 # Ar
475 475 1 0.0 823.268476673009 918.470124803448 299.149756563491 # Ar
476 476 1 0.0 447.38152851836827 618.8843141687936 554.8528716922748 # Ar
477 477 1 0.0 274.73917798125524 257.2634050051569 547.1027606080542 # Ar
478 478 1 0.0 65.0985951101488 483.5898094812335 816.0990332243399 # Ar
479 479 1 0.0 256.1473187539775 368.3361191807433 470.1818104739786 # Ar
480 480 1 0.0 870.7620052124404 265.39966446310393 832.2224544176242 # Ar
481 481 1 0.0 74.19756591622713 781.208743740631 844.1753160575665 # Ar
482 482 1 0.0 27.67727969982917 184.66481272559272 47.64083570809059 # Ar
483 483 1 0.0 552.22252256074 156.75144706986774 64.51161452846085 # Ar
484 484 1 0.0 491.0182614340912 883.9364773170032 144.6026822625048 # Ar
485 485 1 0.0 64.6310561133752 316.80572874571294 405.5680146230205 # Ar
486 486 1 0.0 859.2593506326612 521.7308825192127 313.2316423800102 # Ar
487 487 1 0.0 330.8582655805241 152.5839802053724 151.61358101133874 # Ar
488 488 1 0.0 275.82595987820173 83.16443712272776 414.6377183852769 # Ar
489 489 1 0.0 159.60337152543323 882.4678009078652 757.8150769086534 # Ar
490 490 1 0.0 201.3170326654875 594.2348108674264 246.8956836525873 # Ar
491 491 1 0.0 872.256423430078 150.99199185519367 538.2493095735325 # Ar
492 492 1 0.0 79.41336953527083 858.2703903376746 749.0963148970213 # Ar
493 493 1 0.0 837.20391858828 289.4316358581743 332.2875586739227 # Ar
494 494 1 0.0 808.2644476026612 634.1962479069479 552.6926872287536 # Ar
495 495 1 0.0 829.3026502829357 881.9135131753847 374.716605712565 # Ar
496 496 1 0.0 277.99385923418146 661.7801747143891 637.3641299705882 # Ar
497 497 1 0.0 395.244982521722 590.9617864504908 597.4845786116782 # Ar
498 498 1 0.0 930.6502764814776 436.7666306836643 33.09307288004944 # Ar
499 499 1 0.0 247.30701428274688 454.7819748549492 615.8472135176081 # Ar
500 500 1 0.0 518.6815716925859 802.0899666263924 896.2136357148066 # Ar
501 501 1 0.0 708.266786384984 59.67259135766093 20.15939336726251 # Ar
502 502 1 0.0 575.3238711589869 418.1663661186366 901.0546671827243 # Ar
503 503 1 0.0 788.7240250730046 74.15741331518231 407.4782895376642 # Ar
504 504 1 0.0 535.1569804597764 822.8885374411207 330.2920894533528 # Ar
505 505 1 0.0 554.1136603285763 142.0225000254693 229.1691660221769 # Ar
506 506 1 0.0 517.7053185973803 765.9604936490755 763.8659173354431 # Ar
507 507 1 0.0 754.6193599181923 408.10251970267575 934.0095904662511 # Ar
508 508 1 0.0 389.51104156568306 261.39360674743176 731.5890043331607 # Ar
509 509 1 0.0 334.9321065479163 578.2995895317061 314.4131525008324 # Ar
510 510 1 0.0 521.7725211762059 192.8955610348966 836.9561003881597 # Ar
511 511 1 0.0 836.4573463738709 354.93029589691565 714.2404836808995 # Ar
512 512 1 0.0 596.8589629436883 730.0173020562867 525.2350355020981 # Ar
513 513 1 0.0 566.0318342522125 927.3442160446897 573.6145056209837 # Ar
514 514 1 0.0 283.9500037236659 824.339186349305 392.05078955735786 # Ar
515 515 1 0.0 211.03212022062436 709.405571238305 420.0117872454639 # Ar
516 516 1 0.0 926.4402803047385 539.0296616311163 929.4901787986911 # Ar
517 517 1 0.0 360.04991272324105 69.02701518073422 811.6074289943869 # Ar
518 518 1 0.0 456.00179291102444 472.7227074697948 885.6275736551731 # Ar
519 519 1 0.0 210.25550067127207 530.3517898750764 657.7794574142389 # Ar
520 520 1 0.0 543.4033208442202 70.45786254172911 52.474574126155574 # Ar
521 521 1 0.0 57.84997038168189 374.7929933746753 810.9442035100174 # Ar
522 522 1 0.0 365.3043394190298 861.8278930985452 533.2074253602163 # Ar
523 523 1 0.0 758.9978485424972 262.42162702819746 778.1667346882299 # Ar
524 524 1 0.0 141.18377363922426 668.8966319158362 364.77465996379425 # Ar
525 525 1 0.0 410.44559213866376 350.6513366595215 108.62446391302 # Ar
526 526 1 0.0 192.83739762210215 390.8083320738226 842.7338326268168 # Ar
527 527 1 0.0 858.1762303747644 768.0303665116755 735.3815700347606 # Ar
528 528 1 0.0 102.01564123002647 115.89034669164084 45.0457930915331 # Ar
529 529 1 0.0 343.8443926644465 27.14626726048331 771.9543554033102 # Ar
530 530 1 0.0 503.3467585841079 119.35965280902636 664.1877474704005 # Ar
531 531 1 0.0 398.09079298397273 646.6483038188937 364.29789519616526 # Ar
532 532 1 0.0 394.3608205602486 393.5566169269384 603.9255308970236 # Ar
533 533 1 0.0 638.084214015885 614.4399818823869 233.18494960291673 # Ar
534 534 1 0.0 890.3444783050293 856.5158929846003 396.9058860609386 # Ar
535 535 1 0.0 496.2356796032495 60.33270698712478 864.1568669420633 # Ar
536 536 1 0.0 250.4901070675902 380.20601652517354 302.6469642718568 # Ar
537 537 1 0.0 263.5235691563574 487.03288227918875 603.7775854726816 # Ar
538 538 1 0.0 77.19313143000501 622.2152545601128 427.0255437473413 # Ar
539 539 1 0.0 467.00088729508167 856.5692824019701 292.81326469645643 # Ar
540 540 1 0.0 788.2629102741314 254.76297477924754 124.58217809294773 # Ar
541 541 1 0.0 76.59151554653762 36.82753247558644 274.9463745294353 # Ar
542 542 1 0.0 633.3589548237072 700.9849717322462 921.5591398302588 # Ar
543 543 1 0.0 701.4730838013396 221.52661697749983 457.7923412075689 # Ar
544 544 1 0.0 926.3730561255445 591.2670838041413 589.8617083234878 # Ar
545 545 1 0.0 799.491539030252 251.89353127886753 574.5652842255115 # Ar
546 546 1 0.0 617.5652323872581 527.2199283034047 446.8968253985604 # Ar
547 547 1 0.0 399.54480143375207 537.540267602781 168.5392550908169 # Ar
548 548 1 0.0 430.7194839031789 421.06004829571197 584.7667250596154 # Ar
549 549 1 0.0 832.6249352749877 17.37302939857221 267.82048121303865 # Ar
550 550 1 0.0 733.887168257076 250.43170790544534 104.29324306589282 # Ar
551 551 1 0.0 720.6877138836451 779.3129923308848 871.8624435400181 # Ar
552 552 1 0.0 201.04136955771952 247.87466924045893 798.5620469924802 # Ar
553 553 1 0.0 408.47329520860745 700.9528511519211 9.217563157877283 # Ar
554 554 1 0.0 79.24954561503525 642.3655080168265 41.418772560555915 # Ar
555 555 1 0.0 717.7065148559658 906.2531122664772 533.945093012742 # Ar
556 556 1 0.0 348.7570044385461 487.3108455835514 341.7238305821134 # Ar
557 557 1 0.0 712.6450731974659 268.83379804301023 408.9845126496875 # Ar
558 558 1 0.0 82.30483891428831 426.68577868000887 912.8635028816377 # Ar
559 559 1 0.0 110.96292628867022 844.0562023163748 551.5412547514413 # Ar
560 560 1 0.0 817.032502651852 624.6065038379114 552.3642325710157 # Ar
561 561 1 0.0 913.439914004236 448.78497270732123 426.30653887649606 # Ar
562 562 1 0.0 840.9464350688756 630.9973964911534 5.853592564620608 # Ar
563 563 1 0.0 153.12480006731337 935.0515588743093 740.292508214534 # Ar
564 564 1 0.0 198.04860813592774 198.13317578123704 676.3391340644453 # Ar
565 565 1 0.0 396.3959974810969 693.9661510820858 643.7898085208994 # Ar
566 566 1 0.0 319.1832096375178 545.9141219822897 573.4327314656327 # Ar
567 567 1 0.0 784.1153810715655 45.42739822556534 261.53371389249014 # Ar
568 568 1 0.0 41.077317947627265 615.9769585677545 287.3411988129079 # Ar
569 569 1 0.0 371.97142703078293 132.24388641200147 788.207517138809 # Ar
570 570 1 0.0 24.13373777118926 532.8352030329316 199.7860298103497 # Ar
571 571 1 0.0 827.3308437125519 618.0374937848115 894.8526609173895 # Ar
572 572 1 0.0 761.0387013434115 500.56421013425023 229.30382270294373 # Ar
573 573 1 0.0 649.0702172646203 379.9695371962417 58.318843845287375 # Ar
574 574 1 0.0 885.3747354558764 509.03697394749196 501.6643108795552 # Ar
575 575 1 0.0 692.8541625639378 65.33641874817401 521.4301561719157 # Ar
576 576 1 0.0 826.6298134641837 784.3625164228071 298.6854325989881 # Ar
577 577 1 0.0 316.9962209438772 166.44130393729094 237.89642917683454 # Ar
578 578 1 0.0 212.4549079223945 69.61150111276766 428.2668334720059 # Ar
579 579 1 0.0 313.77703451688154 270.56006976716407 3.389008222332567 # Ar
580 580 1 0.0 847.6314718285239 402.1084408788848 390.7784415823177 # Ar
581 581 1 0.0 456.75627831905285 586.2315043665112 487.79321940812434 # Ar
582 582 1 0.0 505.0682890232984 158.57579144750997 881.6914076869073 # Ar
583 583 1 0.0 540.9885099920466 853.8549589465553 839.3116854915618 # Ar
584 584 1 0.0 775.5433650580117 885.9560965182998 60.487233334642205 # Ar
585 585 1 0.0 402.3977184385671 589.268314078391 105.64647051950863 # Ar
586 586 1 0.0 928.8992500436489 576.5018477250378 926.9086464071507 # Ar
587 587 1 0.0 487.47389491853284 798.5711209882369 308.47714575943 # Ar
588 588 1 0.0 853.3029729133839 161.64086286363604 415.3486495227015 # Ar
589 589 1 0.0 371.1009264304788 910.0914805909072 157.55479529885542 # Ar
590 590 1 0.0 513.6554258656764 715.1062174388284 268.126318937064 # Ar
591 591 1 0.0 151.77204995522476 909.5798133083902 506.97363908580434 # Ar
592 592 1 0.0 314.0812108800221 619.5502710060665 793.9207400858024 # Ar
593 593 1 0.0 48.134737495921 754.8322652625114 750.7232691677826 # Ar
594 594 1 0.0 281.2867135271964 634.3785829249814 281.42361419220674 # Ar
595 595 1 0.0 23.328452541484133 474.6525870044467 123.6398751044651 # Ar
596 596 1 0.0 352.45794171938957 90.62887931489873 99.8749196318664 # Ar
597 597 1 0.0 837.2403409169799 454.2666593626716 602.5327023808409 # Ar
598 598 1 0.0 820.9167537697423 761.6731805793432 157.1312710106688 # Ar
599 599 1 0.0 606.0040498625991 189.9320847343305 797.3494961858571 # Ar
600 600 1 0.0 612.0743088420094 772.7000650345864 304.831532252235 # Ar
601 601 1 0.0 400.6507055416051 883.892139784785 680.233447904121 # Ar
602 602 1 0.0 24.474976764709023 770.1860593538095 774.8539744208932 # Ar
603 603 1 0.0 857.5180597461947 778.2054153962614 731.7892919511522 # Ar
604 604 1 0.0 594.4676983058267 915.8166911475461 882.946732990937 # Ar
605 605 1 0.0 504.57106914028515 849.3380370088835 744.6813865739545 # Ar
606 606 1 0.0 559.4164773094367 33.973980971163016 712.8537113729202 # Ar
607 607 1 0.0 741.5898790643037 267.1584881832815 815.0389301995424 # Ar
608 608 1 0.0 216.840249594572 710.8069863150172 829.97167854935 # Ar
609 609 1 0.0 372.3532788384268 823.9368012386299 223.8229091739391 # Ar
610 610 1 0.0 735.2776965609526 130.95926518562382 229.50374405544693 # Ar
611 611 1 0.0 274.62319229197027 171.83085554677058 299.7125703798353 # Ar
612 612 1 0.0 749.7821945428078 738.7935145657168 763.5831961891437 # Ar
613 613 1 0.0 66.55684544511779 716.4665451550918 682.9327432309743 # Ar
614 614 1 0.0 785.3227413097021 399.2620306610131 277.2525000037684 # Ar
615 615 1 0.0 792.8125162641984 566.0232649621441 811.598785413284 # Ar
616 616 1 0.0 159.81717729654238 873.7529971129746 189.75379333001837 # Ar
617 617 1 0.0 753.2870147010216 815.4370716812098 736.7251881742278 # Ar
618 618 1 0.0 140.91263652836824 172.43965935040583 197.23482525682672 # Ar
619 619 1 0.0 683.0780419995032 117.0076166084428 796.7608738110748 # Ar
620 620 1 0.0 396.36936939070216 396.04114826208723 291.2591769093653 # Ar
621 621 1 0.0 484.6556517953053 427.95598655876614 693.768670075563 # Ar
622 622 1 0.0 27.924148171630435 143.27125721585227 252.03471415640604 # Ar
623 623 1 0.0 130.17001524281324 932.8745181784748 489.2942024619065 # Ar
624 624 1 0.0 270.6692534977665 215.54815614399868 708.1357737099917 # Ar
625 625 1 0.0 925.2528448996197 334.6738180591828 923.4105549557506 # Ar
626 626 1 0.0 296.4437850657742 185.92798532104771 488.10005621844294 # Ar
627 627 1 0.0 379.70109756881953 888.7603025886 448.77548775781946 # Ar
628 628 1 0.0 557.2596822882402 8.92287872732583 77.31802968593118 # Ar
629 629 1 0.0 485.9980671652958 194.31295508753425 199.8262878397292 # Ar
630 630 1 0.0 802.4115330718264 65.74038705408219 215.50018839863796 # Ar
631 631 1 0.0 555.4515574403858 880.1442019638412 454.12796491611226 # Ar
632 632 1 0.0 580.3195599353444 313.09906710757645 911.0478439288371 # Ar
633 633 1 0.0 558.7579295249776 609.7833495946954 920.7875948502783 # Ar
634 634 1 0.0 331.1809068964309 49.10265753078107 286.05311741739484 # Ar
635 635 1 0.0 643.2845846765258 203.3419756369674 588.4903889232827 # Ar
636 636 1 0.0 655.3481028895106 302.73874591197074 652.4384873315373 # Ar
637 637 1 0.0 795.0511683868548 627.7018816471749 227.81234950418164 # Ar
638 638 1 0.0 414.5002881115489 538.6946847328682 150.02389385737325 # Ar
639 639 1 0.0 746.7934575227476 273.4950743159597 463.65420651786724 # Ar
640 640 1 0.0 276.89560954818614 533.1109916243117 64.32791583110986 # Ar
641 641 1 0.0 841.0476845155988 724.3599985368112 233.17231532699643 # Ar
642 642 1 0.0 925.9252165545654 801.4861658891705 707.2614815180513 # Ar
643 643 1 0.0 406.8727840713363 903.7731120290925 250.83785421167664 # Ar
644 644 1 0.0 661.0939277351033 426.81443318118085 813.8029976803834 # Ar
645 645 1 0.0 869.682399953246 863.5584981357338 581.8394556740997 # Ar
646 646 1 0.0 368.18766037216744 34.15879293077018 748.1247471505433 # Ar
647 647 1 0.0 522.4015928536169 767.1269179974852 41.126956341746215 # Ar
648 648 1 0.0 633.4642438786669 420.77695357048555 381.12721833764925 # Ar
649 649 1 0.0 689.8708763542165 821.5793037915806 714.8107412733488 # Ar
650 650 1 0.0 237.8761695742777 599.8784080669095 822.8096859457629 # Ar
651 651 1 0.0 168.6450560659538 413.5407601313299 259.5505669237401 # Ar
652 652 1 0.0 633.154175572419 685.7127937457678 683.5656637768566 # Ar
653 653 1 0.0 805.5794591714238 517.1260225589078 716.3412323310672 # Ar
654 654 1 0.0 831.49938063895 455.217667341779 919.4628030990817 # Ar
655 655 1 0.0 489.7637669453706 672.8413073315033 889.5892266598014 # Ar
656 656 1 0.0 713.2375431819446 142.7261579869294 35.32083806201111 # Ar
657 657 1 0.0 912.8611791815358 880.4647145917489 450.90764518492387 # Ar
658 658 1 0.0 815.1049645913562 220.14134419290906 301.95373549722694 # Ar
659 659 1 0.0 552.7019223060579 863.4646155059335 698.1567749501648 # Ar
660 660 1 0.0 824.0275317736379 322.1587927309107 487.1605852886969 # Ar
661 661 1 0.0 930.7068539062199 467.68488199233536 152.0485336409064 # Ar
662 662 1 0.0 180.3196973086649 269.4431772519847 453.0938922702344 # Ar
663 663 1 0.0 138.83835941096703 387.68016807211393 727.309830630074 # Ar
664 664 1 0.0 661.55286938056 482.8487743454253 474.55650041190074 # Ar
665 665 1 0.0 523.6298199485327 848.6936744789415 868.4103695257938 # Ar
666 666 1 0.0 907.2086295530199 774.9469763814561 903.0870282000144 # Ar
667 667 1 0.0 873.8605996347572 247.65542730351896 54.46706740447837 # Ar
668 668 1 0.0 125.61042314189247 202.2649646961435 273.61883311173557 # Ar
669 669 1 0.0 687.2604776195118 441.0217842407783 226.90164874749595 # Ar
670 670 1 0.0 890.0287066745841 681.4552727589289 616.7578744717574 # Ar
671 671 1 0.0 502.374573066327 14.144333428050492 129.29337867873576 # Ar
672 672 1 0.0 563.2856376313979 526.7352317023204 430.24469502643495 # Ar
673 673 1 0.0 730.8679921121611 830.814069475461 310.7401819861577 # Ar
674 674 1 0.0 124.45558778567421 532.3709564354058 464.96035357110446 # Ar
675 675 1 0.0 679.0910573938411 79.47878617325237 222.89549803719413 # Ar
676 676 1 0.0 683.2369796689875 22.405911826944557 413.84756776158446 # Ar
677 677 1 0.0 470.20117359655274 462.3478878457444 176.6807292620722 # Ar
678 678 1 0.0 271.6629983954998 739.8344241112331 745.3915186089516 # Ar
679 679 1 0.0 799.2256390582138 870.8057674035276 832.2584626652359 # Ar
680 680 1 0.0 466.8989019501176 63.68870362220633 252.48494075398187 # Ar
681 681 1 0.0 150.5227542342513 319.6814856860648 60.82863673534236 # Ar
682 682 1 0.0 385.24397930205396 736.8934192078905 759.7683243005666 # Ar
683 683 1 0.0 521.7693205743598 905.7449495444948 443.3943348602377 # Ar
684 684 1 0.0 885.9520618733235 29.385759677364966 227.47490787186308 # Ar
685 685 1 0.0 487.05262219913897 732.4594388920281 900.7830354261694 # Ar
686 686 1 0.0 261.3936546958635 435.61646488870656 782.4175632091327 # Ar
687 687 1 0.0 366.39639749964175 813.5090668865631 770.4002889495065 # Ar
688 688 1 0.0 192.12930662853572 695.3866833101252 817.8048528419462 # Ar
689 689 1 0.0 873.85303626105 745.6868494298456 703.8005303792492 # Ar
690 690 1 0.0 903.1389471432274 668.6501818447372 88.77476375534991 # Ar
691 691 1 0.0 806.8368469126362 122.01910816855538 56.629069964793985 # Ar
692 692 1 0.0 438.2076902769028 646.6101776839529 146.82443880969478 # Ar
693 693 1 0.0 92.97094563530513 80.15409625632695 112.09740446944235 # Ar
694 694 1 0.0 76.34219984154588 24.013254871893043 419.0379289910822 # Ar
695 695 1 0.0 208.419458535566 363.9812661027247 533.5337179047589 # Ar
696 696 1 0.0 838.5423947135256 463.08643377876575 184.08378001261204 # Ar
697 697 1 0.0 405.93415439469607 642.8077987264287 878.7575839260235 # Ar
698 698 1 0.0 757.8511510218465 301.96477250290104 577.7879124943713 # Ar
699 699 1 0.0 329.42746281440225 898.5064244482396 169.72343079470713 # Ar
700 700 1 0.0 839.7371040202166 173.0740312712165 903.4330936977847 # Ar
701 701 1 0.0 871.2202249549193 32.627032155969474 377.300463702701 # Ar
702 702 1 0.0 361.45377267143084 58.23701887914584 254.82739867049332 # Ar
703 703 1 0.0 272.39245903384557 690.5512804853619 663.0406738367367 # Ar
704 704 1 0.0 177.70335947778213 638.8512616178698 598.0636309817844 # Ar
705 705 1 0.0 96.71458608833866 48.70119429955408 551.1027848409343 # Ar
706 706 1 0.0 588.6110455198461 383.81726598355607 391.9972923693856 # Ar
707 707 1 0.0 171.910884902782 118.62282179505576 403.16184288656535 # Ar
708 708 1 0.0 402.4294278736529 243.87603958571725 713.3768325293813 # Ar
709 709 1 0.0 409.3965092055779 774.4799067188341 807.2772536331809 # Ar
710 710 1 0.0 597.43306940311 693.5450885177543 386.3938061102134 # Ar
711 711 1 0.0 582.3783889278286 242.05302190821908 575.7029514391385 # Ar
712 712 1 0.0 189.33012628039657 826.2708338070476 864.9180714827921 # Ar
713 713 1 0.0 870.8116696300667 229.21280311987113 546.4607994628443 # Ar
714 714 1 0.0 697.2358058961014 930.3212574738965 154.6512817687783 # Ar
715 715 1 0.0 304.1794965342746 633.9491124300639 680.1919751101801 # Ar
716 716 1 0.0 701.547350545227 290.1390337787034 620.307884215305 # Ar
717 717 1 0.0 113.7334914193118 97.06737112923383 437.94182001572403 # Ar
718 718 1 0.0 149.2667648519451 479.17872185364314 439.9304651181461 # Ar
719 719 1 0.0 880.6556089926524 69.4075598055369 581.9892632892005 # Ar
720 720 1 0.0 142.76947492842626 807.8066471099911 124.41345630894257 # Ar
721 721 1 0.0 736.443060542966 200.41501901450198 111.31940780371592 # Ar
722 722 1 0.0 825.3373978676839 885.5657759729913 12.791806191070954 # Ar
723 723 1 0.0 515.3275024785996 312.9311226263911 672.4206443081398 # Ar
724 724 1 0.0 686.7630818766478 493.44078674567123 928.3659616212722 # Ar
725 725 1 0.0 234.76684305592218 384.01448162695254 853.97231405378 # Ar
726 726 1 0.0 293.5466232506627 796.7498958176203 567.9158363839675 # Ar
727 727 1 0.0 444.8233478387231 452.59210095289023 826.5501874633077 # Ar
728 728 1 0.0 389.4005574787034 846.4751635533272 104.25222806555254 # Ar
729 729 1 0.0 665.072600462274 578.6913612751362 916.906110240127 # Ar
730 730 1 0.0 613.3605793286172 605.0622567815586 927.0563290543888 # Ar
731 731 1 0.0 506.7424624624488 429.8237095476103 245.00423013043653 # Ar
732 732 1 0.0 167.8120532084631 604.1195810913111 189.03515542080487 # Ar
733 733 1 0.0 336.95663503592607 363.58736352998073 461.08788656018186 # Ar
734 734 1 0.0 116.75061938624275 780.1122326631753 287.6030259081815 # Ar
735 735 1 0.0 684.0425351172255 703.9961587311977 625.633680100417 # Ar
736 736 1 0.0 99.30883074060202 234.5661266994373 622.3148390250687 # Ar
737 737 1 0.0 276.2064908663811 459.3137734773381 270.39331977439673 # Ar
738 738 1 0.0 398.8182621751264 911.7079789584583 261.4699111609896 # Ar
739 739 1 0.0 430.7391875069717 333.694391724477 281.5497704028514 # Ar
740 740 1 0.0 195.96942373797063 191.69080025310865 609.8358135754488 # Ar
741 741 1 0.0 215.1076672377118 813.8529549464344 595.1552179917675 # Ar
742 742 1 0.0 603.0362872744802 247.2009405402571 810.8124038553059 # Ar
743 743 1 0.0 482.7085723911297 438.58460961386146 878.2131033522478 # Ar
744 744 1 0.0 57.20853886521321 486.6754881624782 244.58757020413293 # Ar
745 745 1 0.0 762.540104702057 880.9967305925654 457.8847926486232 # Ar
746 746 1 0.0 573.6282851578721 222.93498322163273 560.1897538475911 # Ar
747 747 1 0.0 596.0418256003732 633.0983009062571 289.29108923535546 # Ar
748 748 1 0.0 175.06379940021674 483.41390114928714 600.158907799558 # Ar
749 749 1 0.0 762.3430897481524 205.9534468172506 739.5515903378689 # Ar
750 750 1 0.0 216.11051358222292 213.10598427083335 795.3575550482584 # Ar
751 751 1 0.0 597.9932741148323 847.692267401127 677.8977854054782 # Ar
752 752 1 0.0 646.854539034744 339.30270614013415 62.44440813627049 # Ar
753 753 1 0.0 707.7915322485609 508.29391704034026 624.9384510671273 # Ar
754 754 1 0.0 661.3772645277794 149.93749684663408 3.2682284129489965 # Ar
755 755 1 0.0 877.8270700139826 114.05037697154533 61.877408934031656 # Ar
756 756 1 0.0 928.6944258540083 843.2118575325536 625.0941506548235 # Ar
757 757 1 0.0 773.0299989779851 389.8578364495703 892.3293053418454 # Ar
758 758 1 0.0 4.290145809310868 632.6625655848643 181.8401925149215 # Ar
759 759 1 0.0 619.6712149736396 520.0027526815549 267.6160572618609 # Ar
760 760 1 0.0 38.36885398141289 463.0884960568692 436.63775311350366 # Ar
761 761 1 0.0 456.8923169985389 583.7020328837315 409.40090267835376 # Ar
762 762 1 0.0 881.1775974230821 87.86075525030448 210.87663179174396 # Ar
763 763 1 0.0 235.50463416929378 752.4249941478788 135.53393144258035 # Ar
764 764 1 0.0 889.6406050524245 14.139382139046644 854.6224496534378 # Ar
765 765 1 0.0 830.9570352576361 353.3743592703889 9.179414942414615 # Ar
766 766 1 0.0 208.52801422479305 721.8651133947965 602.6426729340159 # Ar
767 767 1 0.0 639.8611504201856 258.78621386068573 21.23196686598805 # Ar
768 768 1 0.0 597.6458685389175 553.4525795345365 925.9511457861287 # Ar
769 769 1 0.0 390.6735499117948 114.74026517138778 628.4697879319206 # Ar
770 770 1 0.0 526.05895758948 494.42388145191677 445.3908989380888 # Ar
771 771 1 0.0 641.2015224462821 101.97454882910972 700.7365429038115 # Ar
772 772 1 0.0 48.24678282098148 349.82853318875107 40.16369151693796 # Ar
773 773 1 0.0 786.9032002474505 244.8970493057125 12.361501126880258 # Ar
774 774 1 0.0 393.96905548543623 917.8115718711384 637.3500397027858 # Ar
775 775 1 0.0 853.9593837444985 252.24796736185323 860.0999809721467 # Ar
776 776 1 0.0 194.12633155640117 562.0845234542992 7.057291490936466 # Ar
777 777 1 0.0 650.2888434086007 808.0162181653402 28.29982411735976 # Ar
778 778 1 0.0 505.6825274923141 245.99331369696725 535.9877795913081 # Ar
779 779 1 0.0 520.4597237272893 771.9839168978571 807.9347492310557 # Ar
780 780 1 0.0 161.7944051018803 373.48846897470656 14.38266277974223 # Ar
781 781 1 0.0 200.3074752248797 315.9765866672282 171.7784192265291 # Ar
782 782 1 0.0 202.35111679665528 298.30643355025336 337.57885915445746 # Ar
783 783 1 0.0 921.9205475967858 234.65603545543127 478.6715945230637 # Ar
784 784 1 0.0 832.8600474221204 154.10672212442208 560.3199129158301 # Ar
785 785 1 0.0 414.05656418601205 905.6381130300167 855.9102386678239 # Ar
786 786 1 0.0 24.11768659520318 870.584607350471 509.9357139290685 # Ar
787 787 1 0.0 788.0527149785006 729.7835786834388 337.2243681928415 # Ar
788 788 1 0.0 442.77187457434803 774.1090407108611 480.91215732591724 # Ar
789 789 1 0.0 257.2113037212846 311.3676848143338 787.5105752991735 # Ar
790 790 1 0.0 478.82996913358375 85.23622887740657 704.1215529279292 # Ar
791 791 1 0.0 297.76572386064026 746.962392060816 159.03881181850616 # Ar
792 792 1 0.0 25.211606531604758 479.9862959875064 239.28814928713024 # Ar
793 793 1 0.0 901.1595361241045 614.822953332432 927.8333131748061 # Ar
794 794 1 0.0 701.7419924768748 105.16212973907425 618.3024931252789 # Ar
795 795 1 0.0 398.8571619791684 347.7553715464764 404.3193711442465 # Ar
796 796 1 0.0 118.84871309590486 637.1082343621533 453.1219663521707 # Ar
797 797 1 0.0 337.2548280211897 154.42684142514727 730.7282749348441 # Ar
798 798 1 0.0 8.138515200405342 724.7530831618969 326.0056011173257 # Ar
799 799 1 0.0 373.2777701901357 164.63056316259 71.51629236677424 # Ar
800 800 1 0.0 56.515874239155096 559.4097554855292 79.98979464975426 # Ar
801 801 1 0.0 436.8625099805287 146.6942064757966 502.8164089815367 # Ar
802 802 1 0.0 630.5209058762575 568.2230082860196 384.9162858900215 # Ar
803 803 1 0.0 612.0586906895243 332.8421114054578 613.8479770310278 # Ar
804 804 1 0.0 410.74141192771305 760.974304831438 507.1019062539306 # Ar
805 805 1 0.0 858.1741692828678 359.03436627028975 180.15092264889603 # Ar
806 806 1 0.0 793.4534407277971 190.55925433504538 878.2823615788669 # Ar
807 807 1 0.0 480.5927827481006 700.574866079768 662.7832851768576 # Ar
808 808 1 0.0 736.8973860297577 497.18250733578907 762.5602379202428 # Ar
809 809 1 0.0 636.9777716130839 410.25379372055596 866.8732986924535 # Ar
810 810 1 0.0 185.6773922782635 920.8302503125208 634.9432827600918 # Ar
811 811 1 0.0 899.7697760608095 878.3963513593609 253.34348273923175 # Ar
812 812 1 0.0 170.1723334284291 683.7858979507714 874.6477792633366 # Ar
813 813 1 0.0 41.94915330192025 426.86794131688526 581.214382760693 # Ar
814 814 1 0.0 802.4944892950327 449.79605027122716 283.3843440780228 # Ar
815 815 1 0.0 93.52401552827389 911.7630504650546 684.066533110307 # Ar
816 816 1 0.0 103.68154255924107 831.1251662331024 781.8637827051382 # Ar
817 817 1 0.0 576.2833328867412 926.736678137127 404.9830509560954 # Ar
818 818 1 0.0 159.35218646281677 874.9328115335555 86.29372985594787 # Ar
819 819 1 0.0 194.00418317110274 909.7773072396312 143.2867430502794 # Ar
820 820 1 0.0 48.013639781582164 661.0252324480059 848.2485868688076 # Ar
821 821 1 0.0 107.50122782659845 143.2643187514119 830.4723507580195 # Ar
822 822 1 0.0 490.9690947759853 634.6162363273122 930.9475686035605 # Ar
823 823 1 0.0 617.2288801827693 663.1489998027955 531.6452410232004 # Ar
824 824 1 0.0 598.1383439276842 650.8531740640809 402.2555118735878 # Ar
825 825 1 0.0 596.6934006788534 548.4585940048561 736.7725309779631 # Ar
826 826 1 0.0 570.7188882966121 343.3275883459006 427.36860796245793 # Ar
827 827 1 0.0 73.00479425046575 651.6925157976943 186.86925077601938 # Ar
828 828 1 0.0 162.79376691479345 783.8430630528675 294.60906070098747 # Ar
829 829 1 0.0 208.44165227541794 418.5480025158265 712.4818049882756 # Ar
830 830 1 0.0 90.761824728446 352.64568296922954 269.32866884277695 # Ar
831 831 1 0.0 494.3686178462405 636.9668750036467 234.10714440150412 # Ar
832 832 1 0.0 129.8299416845845 899.7002837931183 291.3179179422301 # Ar
833 833 1 0.0 370.87488071360247 737.9170162704146 188.1314933881401 # Ar
834 834 1 0.0 139.5829830215759 22.87880654264417 880.7629226546363 # Ar
835 835 1 0.0 66.51916661683963 53.41767847764099 919.268610465909 # Ar
836 836 1 0.0 448.5421813461026 514.3307882046731 694.3800229758889 # Ar
837 837 1 0.0 332.6363828353742 626.6988520179875 66.07660128414572 # Ar
838 838 1 0.0 189.01042087681537 601.187803532943 757.553346910797 # Ar
839 839 1 0.0 1.6141886160708234 358.5492345917633 376.957467964825 # Ar
840 840 1 0.0 589.8201163306189 847.5658792495232 383.57711151737044 # Ar
841 841 1 0.0 406.70206322855785 758.8453704909986 887.2859636746329 # Ar
842 842 1 0.0 603.7023887028104 295.24450718757765 655.6631025940715 # Ar
843 843 1 0.0 427.9972437939099 288.91321966258874 299.13075264121403 # Ar
844 844 1 0.0 383.9614515798706 492.2296671923867 519.8999394486766 # Ar
845 845 1 0.0 701.1160806108228 852.8339127796947 883.8337118030765 # Ar
846 846 1 0.0 223.29092072206782 405.03902842100075 589.2927408584311 # Ar
847 847 1 0.0 931.04603937937 323.9025498171879 230.98027012441457 # Ar
848 848 1 0.0 690.8176348848885 221.8628702067876 886.4191534732794 # Ar
849 849 1 0.0 403.84995548797 216.0643656985381 151.3275685861878 # Ar
850 850 1 0.0 144.13796961981552 780.8711282668684 613.2655712244499 # Ar
851 851 1 0.0 810.9344235807557 183.0969119186257 924.2499707235202 # Ar
852 852 1 0.0 879.9216894722199 117.52383748785871 189.27592297819712 # Ar
853 853 1 0.0 551.502477253957 442.62613979808697 639.3654111745951 # Ar
854 854 1 0.0 92.3173036570918 112.3263989329816 611.5428259102512 # Ar
855 855 1 0.0 614.180948044987 212.1436551700557 393.01792994992576 # Ar
856 856 1 0.0 236.8059445302268 65.51565929394222 248.5465235915404 # Ar
857 857 1 0.0 737.5654514095069 141.51673755668452 19.35241137633074 # Ar
858 858 1 0.0 247.28582708622156 205.27836514049287 658.990090184403 # Ar
859 859 1 0.0 767.6237397667524 560.0161917408811 909.6992109912412 # Ar
860 860 1 0.0 592.0096989440129 812.212232470599 275.0014284252515 # Ar
861 861 1 0.0 481.48693633621133 311.4358390018323 551.143473188848 # Ar
862 862 1 0.0 327.86409075485335 390.9201653059598 114.41454105429705 # Ar
863 863 1 0.0 879.1695753638465 563.051107253639 18.449678481634614 # Ar
864 864 1 0.0 915.4532345427588 750.5419971901125 123.58230252854749 # Ar
865 865 1 0.0 442.25234634703065 567.8983900752892 733.7230696804718 # Ar
866 866 1 0.0 668.1836446562587 687.8708906400647 278.30275478856726 # Ar
867 867 1 0.0 589.0599188079148 601.4672306388628 713.9993017282347 # Ar
868 868 1 0.0 702.728769006949 132.15530045143254 41.79201978877163 # Ar
869 869 1 0.0 478.97367099201097 150.61210030544683 778.6316854762604 # Ar
870 870 1 0.0 467.2790609297062 156.48261355599197 413.99747735119706 # Ar
871 871 1 0.0 212.05977611492042 324.4182785592757 788.3838425134567 # Ar
872 872 1 0.0 452.0321798354015 241.84254921238679 177.26691219700376 # Ar
873 873 1 0.0 462.3587765598488 179.44707397640187 560.6019628514374 # Ar
874 874 1 0.0 558.2293939485181 534.7605791318013 614.997043724798 # Ar
875 875 1 0.0 885.308215105552 55.34387232839106 698.2212436961561 # Ar
876 876 1 0.0 510.7528602953132 11.055419774887028 156.00654548783825 # Ar
877 877 1 0.0 463.86961800117103 565.0304629657035 379.92845857201473 # Ar
878 878 1 0.0 616.1438126468106 720.5662833509571 9.856819874353533 # Ar
879 879 1 0.0 494.70997741608574 536.2259541667028 865.749052744104 # Ar
880 880 1 0.0 50.408513684521054 469.20813133465555 497.6385684176514 # Ar
881 881 1 0.0 68.94064081858299 458.11769759860016 544.6728435011739 # Ar
882 882 1 0.0 6.038373719864323 80.94889214045591 669.0878919694295 # Ar
883 883 1 0.0 750.1694158210324 90.68515511382242 831.6829179885729 # Ar
884 884 1 0.0 35.48635797652839 50.25336970450918 776.5568660579139 # Ar
885 885 1 0.0 199.64469290333594 672.7015764948733 67.99670249588384 # Ar
886 886 1 0.0 111.35140003818492 28.44070382103028 456.78632920718417 # Ar
887 887 1 0.0 484.57635875759064 334.0327006726391 682.1599652035113 # Ar
888 888 1 0.0 324.55169770714076 54.77461068523249 761.0499145249571 # Ar
889 889 1 0.0 212.46198104707963 281.53657976517064 229.2634088927496 # Ar
890 890 1 0.0 334.7503595716092 621.166397050612 91.13145086653027 # Ar
891 891 1 0.0 726.7259205843129 415.5261239273898 144.29970526205278 # Ar
892 892 1 0.0 100.21985168858522 146.12918687661153 597.9251234291875 # Ar
893 893 1 0.0 562.3681644978404 429.85730510522325 756.7384442144325 # Ar
894 894 1 0.0 471.2768252045331 448.5880280984256 321.71846686447475 # Ar
895 895 1 0.0 594.9190192506843 578.193697317262 453.6268878309659 # Ar
896 896 1 0.0 675.6749771673119 280.74121436701665 413.40433312600624 # Ar
897 897 1 0.0 545.557107707544 66.00892809595794 465.42294101924045 # Ar
898 898 1 0.0 901.2509560675163 11.496094067484341 674.6474849100413 # Ar
899 899 1 0.0 770.0606859316871 498.9693980033782 99.13102140443863 # Ar
900 900 1 0.0 460.0828742801397 338.10135522441277 644.0923813056854 # Ar
901 901 1 0.0 826.1013078714943 361.6372990843959 119.0301080485524 # Ar
902 902 1 0.0 379.09641968803845 844.9096501680353 63.52220949661326 # Ar
903 903 1 0.0 924.6615012711858 54.27821650986744 934.8012394971583 # Ar
904 904 1 0.0 630.8063352847025 375.62094720155284 82.12994074933503 # Ar
905 905 1 0.0 879.0570555513544 576.9453055883837 635.0148618487208 # Ar
906 906 1 0.0 301.9358891121889 654.4649945786507 896.4929477408776 # Ar
907 907 1 0.0 332.7773668406919 124.37566282013881 604.4234505328554 # Ar
908 908 1 0.0 180.86895814790637 907.1848705336699 116.08394777890628 # Ar
909 909 1 0.0 523.2411803408253 32.14808027276011 97.52821348719745 # Ar
910 910 1 0.0 783.9573450679065 160.06880597677667 403.8256354130133 # Ar
911 911 1 0.0 139.94641900567518 341.8925631598547 377.17497496143005 # Ar
912 912 1 0.0 611.2563680376506 222.97299839046332 17.066234278872372 # Ar
913 913 1 0.0 432.58396613038764 738.3820463060745 21.210816931899757 # Ar
914 914 1 0.0 758.2610328768903 456.9857863971669 798.0654402634709 # Ar
915 915 1 0.0 507.7510857802106 600.5610190599681 626.2788602250952 # Ar
916 916 1 0.0 364.7406805703506 666.9934569997896 185.2236967474838 # Ar
917 917 1 0.0 73.87842896345532 579.8346374555059 444.9246840013244 # Ar
918 918 1 0.0 661.3073493350602 335.5838067585302 407.5338033124209 # Ar
919 919 1 0.0 726.4446229108312 360.38699130658125 302.6481903094253 # Ar
920 920 1 0.0 66.9667987952879 425.7919492340476 591.1673073578356 # Ar
921 921 1 0.0 500.88011649664077 358.32144996150697 32.824380429535765 # Ar
922 922 1 0.0 423.8564901345379 271.0967151807442 809.2046655274822 # Ar
923 923 1 0.0 460.9844252588767 855.7059994710819 866.7422826296216 # Ar
924 924 1 0.0 520.2873401367315 63.38467972679167 870.139621632181 # Ar
925 925 1 0.0 17.624214300920354 874.7259882556496 791.1837824883052 # Ar
926 926 1 0.0 60.2802482895016 732.0082745561779 236.5089495173688 # Ar
927 927 1 0.0 744.5805900482775 89.61092169116205 788.4572635481595 # Ar
928 928 1 0.0 683.8884112010355 921.6681105645121 650.0797733791933 # Ar
929 929 1 0.0 508.41494443783563 611.7080634432903 201.52632435932 # Ar
930 930 1 0.0 739.5913030981562 183.59002701982863 303.02886607055535 # Ar
931 931 1 0.0 717.7397549805632 448.0681154210053 802.9279183172333 # Ar
932 932 1 0.0 465.6183534122365 523.7427277445605 213.41669827987457 # Ar
933 933 1 0.0 536.9794196724426 99.29590347502247 156.33012094196116 # Ar
934 934 1 0.0 197.41312892378312 109.98017837692163 753.436407924371 # Ar
935 935 1 0.0 159.86545885599563 635.5396354636586 514.863266888719 # Ar
936 936 1 0.0 170.4051695725747 417.22486121852245 646.1095315920702 # Ar
937 937 1 0.0 538.308858671411 738.8675947004194 350.54851776566375 # Ar
938 938 1 0.0 806.5402954863423 63.428614661122815 790.402570877785 # Ar
939 939 1 0.0 801.0953359970987 154.74124895128983 920.4309000780138 # Ar
940 940 1 0.0 195.27235283659462 75.35623761263466 25.687183696744043 # Ar
941 941 1 0.0 321.64518617607655 262.63032008934476 78.10405598435506 # Ar
942 942 1 0.0 928.9232042751513 251.60462206220066 136.81008308824815 # Ar
943 943 1 0.0 691.9830522486596 571.1101350335942 471.64627776584217 # Ar
944 944 1 0.0 306.82948522656557 760.1208258232954 594.9488366135375 # Ar
945 945 1 0.0 798.2582796100818 772.6810560324997 307.74959570776696 # Ar
946 946 1 0.0 534.0081317852323 356.43584076174807 851.4428429690876 # Ar
947 947 1 0.0 33.308999686440735 458.58709974116914 188.1614850003138 # Ar
948 948 1 0.0 603.1789485179172 705.6570392437392 680.7901589160405 # Ar
949 949 1 0.0 217.16808316478924 266.8292718008124 101.4772057955132 # Ar
950 950 1 0.0 106.76415815777943 469.3698035030416 375.464085499039 # Ar
951 951 1 0.0 453.69645833757994 733.0440442626586 575.1205688693941 # Ar
952 952 1 0.0 295.42992587475254 175.25534701320723 70.82933474851372 # Ar
953 953 1 0.0 863.4731657763418 570.5561800004326 509.6369714321125 # Ar
954 954 1 0.0 229.25911444260666 81.20296348176115 103.63491628152951 # Ar
955 955 1 0.0 490.2854644310722 467.9272399385934 495.0249618253957 # Ar
956 956 1 0.0 535.9941901432726 722.140898973392 797.7190668466853 # Ar
957 957 1 0.0 550.82739233211 2.092265205248211 294.27670538291625 # Ar
958 958 1 0.0 756.1967955209793 561.9476376920004 848.1608068975868 # Ar
959 959 1 0.0 47.65985591769415 80.43393635171957 613.0231980111313 # Ar
960 960 1 0.0 111.12326985006919 541.9412145366024 703.2201834485952 # Ar
961 961 1 0.0 36.74368070252343 476.3588952728092 263.04399956149365 # Ar
962 962 1 0.0 891.9294899112678 453.4191937563971 456.706600913894 # Ar
963 963 1 0.0 648.9468626281684 469.671697705766 79.23560315029823 # Ar
964 964 1 0.0 16.675008924526363 240.6454524813136 47.15603709790124 # Ar
965 965 1 0.0 628.7571524381748 276.0550838290738 655.449833500313 # Ar
966 966 1 0.0 556.6455853525521 218.01132158527173 220.49274819601766 # Ar
967 967 1 0.0 576.6137999003419 450.4439880903922 429.2058860977819 # Ar
968 968 1 0.0 922.9751784887591 361.2638640528227 549.0804952582488 # Ar
969 969 1 0.0 333.7251574712965 593.7186898803743 258.7422198353063 # Ar
970 970 1 0.0 453.78708689526616 466.65248647582285 134.45302872561922 # Ar
971 971 1 0.0 392.30478488760724 596.0752845238763 550.0846464700065 # Ar
972 972 1 0.0 297.76734771421405 435.9790026592814 522.5695943464993 # Ar
973 973 1 0.0 313.86319678311236 870.8883867946306 726.5228829608503 # Ar
974 974 1 0.0 789.7396335878374 600.3129870262107 462.3129203373961 # Ar
975 975 1 0.0 426.46485326540267 529.4237074778312 899.8574093300685 # Ar
976 976 1 0.0 481.3269906229962 557.9200099087851 863.4382956276623 # Ar
977 977 1 0.0 207.5330682344841 533.8163165306648 432.9043835181713 # Ar
978 978 1 0.0 237.39259177442088 89.13982119272204 692.6088094699214 # Ar
979 979 1 0.0 94.42079551127789 196.0329367651486 384.352743826972 # Ar
980 980 1 0.0 111.48549893491165 13.98475201077325 857.6955838394178 # Ar
981 981 1 0.0 390.30537995766747 723.6993173270444 391.8627966148121 # Ar
982 982 1 0.0 617.347108900175 122.48044638604689 483.77844203616536 # Ar
983 983 1 0.0 793.8876369546522 116.95316401332596 529.8979843772669 # Ar
984 984 1 0.0 764.0712155948577 919.6182220977657 294.71422599132876 # Ar
985 985 1 0.0 479.3289179706299 222.74369542177828 687.1281424998436 # Ar
986 986 1 0.0 860.1809779044909 54.050251897354876 568.0175169335802 # Ar
987 987 1 0.0 516.3764564018543 491.3342589810794 353.9497804192424 # Ar
988 988 1 0.0 578.4164813550476 196.5382967901751 667.865310958198 # Ar
989 989 1 0.0 596.1991361461291 199.488707206329 609.9047200732092 # Ar
990 990 1 0.0 316.50233025752226 772.5647649444131 145.81006898309406 # Ar
991 991 1 0.0 569.2008880007459 198.81969613601737 536.042972644515 # Ar
992 992 1 0.0 289.45170594006447 737.4736034560523 862.8006707999808 # Ar
993 993 1 0.0 18.714147934358934 397.58332068998885 523.1634949397258 # Ar
994 994 1 0.0 841.0680317434652 408.09790853520155 542.5119312134937 # Ar
995 995 1 0.0 660.8615312568352 883.2595913454081 511.2373495793412 # Ar
996 996 1 0.0 268.4856329334679 715.4068978783732 95.4462096205439 # Ar
997 997 1 0.0 646.7778799157813 465.6779224846604 670.9018829741606 # Ar
998 998 1 0.0 918.504966558642 169.00422318533728 38.28505428220063 # Ar
999 999 1 0.0 649.05603792097 624.0224957326532 9.589639946625114 # Ar
1000 1000 1 0.0 448.0099545580471 313.28382112694743 680.0751680864718 # Ar
1001 1001 1 0.0 595.1740685811961 810.1499239711915 69.09081822680938 # Ar
1002 1002 1 0.0 592.8816423731196 477.47779025825673 290.47349845636097 # Ar
1003 1003 1 0.0 907.3896845069886 836.5459313749047 573.1619502264008 # Ar
1004 1004 1 0.0 570.9253049164168 382.40815293927994 123.28377620752201 # Ar
1005 1005 1 0.0 716.9087108634404 89.32427523678709 771.1836670394658 # Ar
1006 1006 1 0.0 444.07498997035054 698.1845185482786 448.3749370244598 # Ar
1007 1007 1 0.0 547.5649098242079 929.415793556151 478.6891544632632 # Ar
1008 1008 1 0.0 510.06938362722497 210.94514255636355 593.8248989578228 # Ar
1009 1009 1 0.0 274.2570514448929 555.2722055762138 49.84581059453656 # Ar
1010 1010 1 0.0 928.1754066457589 116.23259457266008 167.94950451111677 # Ar
1011 1011 1 0.0 126.47200607104142 385.99394671452956 510.28773322002473 # Ar
1012 1012 1 0.0 420.7445699904146 525.9214241320225 97.25377576088336 # Ar
1013 1013 1 0.0 633.6581843545089 598.8005231914497 474.54903096189366 # Ar
1014 1014 1 0.0 504.77705878400764 541.6794998603419 705.9810459617171 # Ar
1015 1015 1 0.0 869.9643930436807 804.6122004789594 333.7853429858025 # Ar
1016 1016 1 0.0 907.5283881334716 671.2540046719869 380.23298790894455 # Ar
1017 1017 1 0.0 885.993091666629 313.93237266918936 737.9324107146073 # Ar
1018 1018 1 0.0 662.8330115120534 81.82416708929333 615.9215261752179 # Ar
1019 1019 1 0.0 418.20429389921645 840.6247152435234 135.99524589135606 # Ar
1020 1020 1 0.0 9.3310492259613 235.3649151701909 517.7871986892525 # Ar
1021 1021 1 0.0 470.1305387331341 261.84142185386565 606.6661844164641 # Ar
1022 1022 1 0.0 878.6517305683503 855.1165698325257 881.2057255278544 # Ar
1023 1023 1 0.0 218.0878877333611 234.509106691476 885.434762912507 # Ar
1024 1024 1 0.0 721.9714851443663 341.68683389842715 836.5779269496701 # Ar
1025 1025 1 0.0 487.6860499581774 301.5387231905654 54.34229613216408 # Ar
1026 1026 1 0.0 327.8967201605518 343.1863493074436 650.4845742638629 # Ar
1027 1027 1 0.0 273.25260880588684 449.74861243119875 28.442366964466764 # Ar
1028 1028 1 0.0 752.6370503720323 41.226657476645826 748.8377786595213 # Ar
1029 1029 1 0.0 638.8701985885431 889.9913015200084 538.6607277757687 # Ar
1030 1030 1 0.0 619.8155149828235 431.77331045824036 114.50417316347975 # Ar
1031 1031 1 0.0 904.1092896124269 180.11128019113588 609.245108340395 # Ar
1032 1032 1 0.0 457.9001288411924 88.04424887493514 374.78261818415837 # Ar
1033 1033 1 0.0 169.526844705843 409.8394381826606 300.73616136702174 # Ar
1034 1034 1 0.0 266.4569225301763 159.47283334522132 369.35947393873084 # Ar
1035 1035 1 0.0 351.52930994201927 301.3869257219464 751.361309416609 # Ar
1036 1036 1 0.0 145.56490199762666 913.4036051307703 468.99408532668576 # Ar
1037 1037 1 0.0 456.169940287335 241.46665242714093 561.5955449781374 # Ar
1038 1038 1 0.0 607.3605246192378 104.60937271604733 531.6511768791098 # Ar
1039 1039 1 0.0 672.367441988029 132.6384852530241 928.9686914662593 # Ar
1040 1040 1 0.0 123.25024670389631 584.0628313693594 474.44241316816067 # Ar
1041 1041 1 0.0 793.9468854514208 803.4265985131055 307.90221808986036 # Ar
1042 1042 1 0.0 785.6124920786858 632.9978635258885 174.67201253548077 # Ar
1043 1043 1 0.0 197.77497212412652 690.0426004459026 496.77349174223315 # Ar
1044 1044 1 0.0 774.0770926061315 99.0230883061912 194.21503333647547 # Ar
1045 1045 1 0.0 273.09089700473635 695.9711558895302 802.6960772242536 # Ar
1046 1046 1 0.0 75.99976500007146 392.4663451979253 111.930670931371 # Ar
1047 1047 1 0.0 180.8121777127015 246.13113087758467 158.08549138145813 # Ar
1048 1048 1 0.0 819.2859514557474 511.5637123863754 653.1927361081603 # Ar
1049 1049 1 0.0 331.1136648536846 830.8235358738439 652.8519168778961 # Ar
1050 1050 1 0.0 476.98586505074036 739.8153401735634 781.5299944129426 # Ar
1051 1051 1 0.0 147.6904518802034 811.9471118833816 140.87155089973353 # Ar
1052 1052 1 0.0 740.8806751297923 577.7795682064691 575.9409907134466 # Ar
1053 1053 1 0.0 535.8455784656371 809.1118504010274 267.50428847603683 # Ar
1054 1054 1 0.0 652.0734188219188 781.1185761217306 357.2978587933897 # Ar
1055 1055 1 0.0 349.1677117554242 591.2335000734921 152.94505594756342 # Ar
1056 1056 1 0.0 162.33641709142498 389.56225321919015 780.2746617446224 # Ar
1057 1057 1 0.0 28.182163054070234 850.5406027973007 258.9104316253383 # Ar
1058 1058 1 0.0 328.9929763169689 60.476978072814475 171.49840340229818 # Ar
1059 1059 1 0.0 168.489988819726 70.03831899981205 199.35437997132476 # Ar
1060 1060 1 0.0 696.6923114134158 747.5440692552592 762.4610107525856 # Ar
1061 1061 1 0.0 417.622795453694 408.66090321379914 353.416789901767 # Ar
1062 1062 1 0.0 885.7175553414164 261.2935262912384 217.51645215709377 # Ar
1063 1063 1 0.0 452.07395363682286 71.47589128741012 620.8492591214739 # Ar
1064 1064 1 0.0 338.31709180848384 526.3579961546665 866.7028731810076 # Ar
1065 1065 1 0.0 123.94630171400664 418.4850733182329 306.84775748942064 # Ar
1066 1066 1 0.0 545.1418044733001 84.41707864791968 414.6611466320404 # Ar
1067 1067 1 0.0 376.74019381126476 667.7439727262491 854.3470451433163 # Ar
1068 1068 1 0.0 639.3659154576204 834.6216306318312 650.462834860182 # Ar
1069 1069 1 0.0 463.3583266673459 34.05871292207655 480.40690029454737 # Ar
1070 1070 1 0.0 702.0522685218835 144.76851656343786 390.08603101574 # Ar
1071 1071 1 0.0 329.86219815025663 923.0291292610019 802.56072135085 # Ar
1072 1072 1 0.0 17.779142262931195 303.7906081067582 141.73660901827395 # Ar
1073 1073 1 0.0 452.84106935365503 514.4873807547433 893.8817390318001 # Ar
1074 1074 1 0.0 333.1237701642436 475.7487806553998 131.64231176031075 # Ar
1075 1075 1 0.0 429.6206833856485 596.3356048138215 614.3094694160704 # Ar
1076 1076 1 0.0 626.4521277812502 158.87146010480006 194.2818826833059 # Ar
1077 1077 1 0.0 790.711250544085 217.64527078998617 897.2323776030896 # Ar
1078 1078 1 0.0 593.1294690267198 513.1535716398047 51.03890320570763 # Ar
1079 1079 1 0.0 629.8530406169759 700.097340923903 269.6159552789743 # Ar
1080 1080 1 0.0 384.8480260335897 690.5130706038857 763.1659041963582 # Ar
1081 1081 1 0.0 337.97620116688637 442.33928546531956 526.6179401845578 # Ar
1082 1082 1 0.0 308.0455782128046 190.09505442642055 517.7847850891369 # Ar
1083 1083 1 0.0 872.3964492884874 696.3163504891312 192.0362390282804 # Ar
1084 1084 1 0.0 165.4243140294595 781.7220997609952 24.50769591866703 # Ar
1085 1085 1 0.0 634.683281759639 378.19522485632694 388.6372320314569 # Ar
1086 1086 1 0.0 94.8424172893235 45.596702682663015 174.32819147564518 # Ar
1087 1087 1 0.0 74.84758775283497 358.86422381628915 252.93020504488845 # Ar
1088 1088 1 0.0 346.0499718692666 766.4154172647342 373.2378096225259 # Ar
1089 1089 1 0.0 335.04613800711655 279.85655010895925 884.8596255643379 # Ar
1090 1090 1 0.0 253.16894117880264 821.2664044109641 708.383884620114 # Ar
1091 1091 1 0.0 379.9758690391044 378.52138485452025 1.883839741377201 # Ar
1092 1092 1 0.0 574.7817019658386 35.08780309577663 417.3578595076476 # Ar
1093 1093 1 0.0 425.7334022920323 589.2124504233753 595.3640357846042 # Ar
1094 1094 1 0.0 721.1515747689554 909.2759845336075 229.83477442857622 # Ar
1095 1095 1 0.0 167.4988249282595 196.9097674372422 605.0617901216032 # Ar
1096 1096 1 0.0 815.1814395603101 881.4793689596481 631.3745768832109 # Ar
1097 1097 1 0.0 873.7278589480425 726.9496166455192 189.23269231674414 # Ar
1098 1098 1 0.0 580.0348938122337 328.644647457267 564.5914032513606 # Ar
1099 1099 1 0.0 152.28077223429293 615.0141837959413 666.8123297425769 # Ar
1100 1100 1 0.0 295.61393558409634 572.6015400478145 877.2927683159478 # Ar
1101 1101 1 0.0 67.81152413173027 399.22018173713974 749.3224348186797 # Ar
1102 1102 1 0.0 558.077161333005 672.6913020400524 68.10571526386525 # Ar
1103 1103 1 0.0 286.9307131820009 95.95598885363574 482.69489473192675 # Ar
1104 1104 1 0.0 645.5266522770862 460.19979251367397 153.4846732595627 # Ar
1105 1105 1 0.0 542.4664040545263 135.23488627507163 182.58866593502506 # Ar
1106 1106 1 0.0 34.75058566650514 891.6339074069248 515.3949525884142 # Ar
1107 1107 1 0.0 386.55482665434323 621.3305051600908 86.55628413535801 # Ar
1108 1108 1 0.0 76.31145138006517 676.4476235459821 7.924615560511622 # Ar
1109 1109 1 0.0 826.9999900493247 711.4580347264423 566.6278809584545 # Ar
1110 1110 1 0.0 840.1368958404686 791.7824790347198 337.81032817632837 # Ar
1111 1111 1 0.0 295.46166961837844 355.553358127231 295.0580476040469 # Ar
1112 1112 1 0.0 350.8912901759663 65.8224168311621 858.2282512432919 # Ar
1113 1113 1 0.0 385.9023111366586 197.42497851393927 543.490049855656 # Ar
1114 1114 1 0.0 49.24822409699494 629.3411171735881 100.72889215445265 # Ar
1115 1115 1 0.0 213.14512284827 510.47793732686324 170.64665616302108 # Ar
1116 1116 1 0.0 616.1669512539113 39.64359279596487 21.970228678251512 # Ar
1117 1117 1 0.0 560.6620782681056 907.4555028884309 19.912074288855845 # Ar
1118 1118 1 0.0 305.6270621809239 230.14171795277173 564.511175746022 # Ar
1119 1119 1 0.0 53.07269403098901 271.14206934715094 391.3047111295084 # Ar
1120 1120 1 0.0 605.8297710464988 217.71090715763756 287.48261845141485 # Ar
1121 1121 1 0.0 342.1950943771655 400.88382917434325 375.86697912089693 # Ar
1122 1122 1 0.0 451.6440788177641 252.46156569703845 931.7217642300806 # Ar
1123 1123 1 0.0 420.37488898280617 34.59352142233178 349.7402865785822 # Ar
1124 1124 1 0.0 551.1224152582505 58.914026387992955 708.8456856148355 # Ar
1125 1125 1 0.0 409.96167019488394 247.08918700859934 933.5479554663211 # Ar
1126 1126 1 0.0 508.3148113619534 295.0848543231465 637.9355061328573 # Ar
1127 1127 1 0.0 739.4927044281937 277.71569674106166 618.5697175700864 # Ar
1128 1128 1 0.0 528.7329864219233 733.6516901223553 221.4759272619268 # Ar
1129 1129 1 0.0 456.97776960735314 482.7639335079353 923.8229991966556 # Ar
1130 1130 1 0.0 183.05080325773812 752.9647128826884 924.2680215080721 # Ar
1131 1131 1 0.0 159.12534270735532 82.60716854441678 331.8629533914896 # Ar
1132 1132 1 0.0 528.0944713042124 190.894638217425 584.7127888111572 # Ar
1133 1133 1 0.0 145.55215463383053 350.05465285637024 569.2008699558031 # Ar
1134 1134 1 0.0 49.16373842010529 526.0360888397333 932.9339320377495 # Ar
1135 1135 1 0.0 369.95784740221575 754.8348110027641 751.2492197894984 # Ar
1136 1136 1 0.0 290.375896874509 53.64751310668638 114.80732938824148 # Ar
1137 1137 1 0.0 41.32136308708712 870.8748059215674 178.84895302996358 # Ar
1138 1138 1 0.0 192.60156401935583 621.8722884700139 286.29707658770997 # Ar
1139 1139 1 0.0 343.7620554468236 43.359774704796685 500.4385748307348 # Ar
1140 1140 1 0.0 123.06420352977092 890.8609528261268 510.24217094194177 # Ar
1141 1141 1 0.0 867.5787576899621 607.5367380507215 576.1038259680008 # Ar
1142 1142 1 0.0 107.81292994174133 377.30001911774326 864.8446698550214 # Ar
1143 1143 1 0.0 882.3017808624307 791.9107798276156 418.72476281617696 # Ar
1144 1144 1 0.0 655.5708614443445 634.476410359356 657.4941240596434 # Ar
1145 1145 1 0.0 379.5684180015471 799.2799402487208 338.37924238823575 # Ar
1146 1146 1 0.0 15.207735058093718 336.63626426873446 165.00573758982816 # Ar
1147 1147 1 0.0 278.7000236291622 317.5526716568316 262.6231985669468 # Ar
1148 1148 1 0.0 254.0007140892569 221.2261571753747 26.047599275351722 # Ar
1149 1149 1 0.0 424.6658031221257 386.78131422789085 229.73276261913566 # Ar
1150 1150 1 0.0 622.7082711198326 370.5911582354417 577.5383181506696 # Ar
1151 1151 1 0.0 87.25706814311975 268.1701528054784 708.0480480555858 # Ar
1152 1152 1 0.0 54.16504036484763 922.2665844102376 187.7178504314819 # Ar
1153 1153 1 0.0 421.88298888499276 29.67601185821005 371.76194279848255 # Ar
1154 1154 1 0.0 496.09838903751944 476.9315757998597 278.79873124553586 # Ar
1155 1155 1 0.0 118.81901419409124 328.02003245745215 254.57258124560298 # Ar
1156 1156 1 0.0 835.0442619889651 688.7426244374631 57.95614001150408 # Ar
1157 1157 1 0.0 872.485582426987 293.34579287326557 348.1081045537715 # Ar
1158 1158 1 0.0 500.2716579628403 31.91484465502301 438.38644010006277 # Ar
1159 1159 1 0.0 392.7430200382502 177.38836269935805 258.3805781178886 # Ar
1160 1160 1 0.0 826.7765714250174 572.2781119836142 850.5460326020335 # Ar
1161 1161 1 0.0 803.9823282586975 734.2208129658202 223.30730153916411 # Ar
1162 1162 1 0.0 268.91448464289914 314.64042635737957 159.10506968161357 # Ar
1163 1163 1 0.0 125.04398233173625 248.68834993014838 511.3457526469789 # Ar
1164 1164 1 0.0 360.9576499054062 765.2752558316059 617.0810158968383 # Ar
1165 1165 1 0.0 194.1833021600671 354.87775212282077 171.64345987921922 # Ar
1166 1166 1 0.0 930.7078618645671 209.02677425154425 227.9694523662917 # Ar
1167 1167 1 0.0 700.6978045500923 378.3815968342755 626.2473210929603 # Ar
1168 1168 1 0.0 359.5035898579642 396.55696879592506 830.1212747237172 # Ar
1169 1169 1 0.0 612.9980008820186 472.9019969377647 166.3181296547284 # Ar
1170 1170 1 0.0 894.7551779443473 315.05759240994075 618.357654960533 # Ar
1171 1171 1 0.0 409.626867091955 267.9173909618948 314.0018857845453 # Ar
1172 1172 1 0.0 564.9284967403099 778.5900740318174 900.3486181378406 # Ar
1173 1173 1 0.0 468.4833488026082 357.7407525536749 272.2651197651934 # Ar
1174 1174 1 0.0 277.8007374445596 493.8537051628681 904.2237277115938 # Ar
1175 1175 1 0.0 253.97797487665952 71.51053648061718 171.2912117022248 # Ar
1176 1176 1 0.0 735.3541021898027 226.23680827097402 908.2460407458849 # Ar
1177 1177 1 0.0 231.4215300630231 376.92072885150196 931.8403202997986 # Ar
1178 1178 1 0.0 248.90395950692138 666.8830460691686 717.857283330621 # Ar
1179 1179 1 0.0 79.4984586159108 624.5677097749076 789.9725769507653 # Ar
1180 1180 1 0.0 756.2405183970062 578.0346827599334 469.4687292851059 # Ar
1181 1181 1 0.0 786.5835603465985 454.4944885108119 420.9231130311701 # Ar
1182 1182 1 0.0 890.7815585792848 9.816368193654345 63.86120752359081 # Ar
1183 1183 1 0.0 57.45728350979678 876.5589564010294 683.3968983264688 # Ar
1184 1184 1 0.0 843.3970885417906 298.8500173277883 526.6569373920908 # Ar
1185 1185 1 0.0 171.65761857337594 145.83860231271706 490.39063921025803 # Ar
1186 1186 1 0.0 285.9331103057947 750.2037307209947 356.2161869281967 # Ar
1187 1187 1 0.0 645.7812051059456 872.2641549088931 241.30177623789092 # Ar
1188 1188 1 0.0 801.6083439623064 844.6287756590833 521.2254309460794 # Ar
1189 1189 1 0.0 836.4668300002634 23.13252453772284 830.9510932439803 # Ar
1190 1190 1 0.0 589.0086658417664 118.28765849154911 691.6150458145104 # Ar
1191 1191 1 0.0 236.54690663865412 569.6855651335011 795.312815802169 # Ar
1192 1192 1 0.0 542.2081493181113 364.4641561566719 103.51977293381772 # Ar
1193 1193 1 0.0 3.0260432821736054 685.653271043239 36.58801439254232 # Ar
1194 1194 1 0.0 652.8262631185279 846.3038840926874 256.97165296956314 # Ar
1195 1195 1 0.0 181.7289647392506 212.15796784692796 40.825535041330326 # Ar
1196 1196 1 0.0 931.0161843448682 716.241784286459 618.1414434447794 # Ar
1197 1197 1 0.0 538.0380627213392 350.96759239343214 670.2206710801543 # Ar
1198 1198 1 0.0 273.58602810444273 698.5568294771549 439.37869349381225 # Ar
1199 1199 1 0.0 885.1690812202696 384.59813872274367 361.26375198015535 # Ar
1200 1200 1 0.0 628.20653891635 383.4235498583014 120.53291359633195 # Ar
1201 1201 1 0.0 355.1044709911777 252.99686149708526 519.0741935003063 # Ar
1202 1202 1 0.0 690.5203926336911 133.74311683476216 723.0496398554286 # Ar
1203 1203 1 0.0 480.9824779048049 89.42627350851185 572.4610994493838 # Ar
1204 1204 1 0.0 896.7503784226769 827.2011766450184 232.6194284580258 # Ar
1205 1205 1 0.0 588.9229211876071 907.5876269854598 139.79615199252854 # Ar
1206 1206 1 0.0 629.3948643312241 229.77748258010263 865.8532062414422 # Ar
1207 1207 1 0.0 570.5624402388831 148.83034364161614 293.6124662393089 # Ar
1208 1208 1 0.0 498.868693919113 295.55283474828485 877.143618461764 # Ar
1209 1209 1 0.0 714.6713496183286 697.9426174246487 717.5611878499943 # Ar
1210 1210 1 0.0 691.6865159505616 881.5226740888918 392.22501462387106 # Ar
1211 1211 1 0.0 232.78827296947605 714.7690458952377 196.87907839778413 # Ar
1212 1212 1 0.0 743.3021684969464 312.44482116374877 490.8491879565636 # Ar
1213 1213 1 0.0 85.80963333941118 766.9364118729231 359.8889311483596 # Ar
1214 1214 1 0.0 71.25087409018784 297.9029070069124 744.9297143857365 # Ar
1215 1215 1 0.0 926.5490383660422 777.9869616435917 684.1364398885936 # Ar
1216 1216 1 0.0 224.286958858948 260.0750751538187 708.4731451067746 # Ar
1217 1217 1 0.0 348.4383778859177 535.2175222699727 700.351204878976 # Ar
1218 1218 1 0.0 229.63916022903797 644.3522721120693 825.8641681951183 # Ar
1219 1219 1 0.0 696.2191649272481 911.7203925284467 648.8807572434107 # Ar
1220 1220 1 0.0 703.7232050675311 637.2314819653483 606.7452196159305 # Ar
1221 1221 1 0.0 678.6658707714498 513.8532001334918 615.7994073519826 # Ar
1222 1222 1 0.0 822.271914450706 751.2487535221298 643.8337593982823 # Ar
1223 1223 1 0.0 14.894958131942074 107.28521582063291 802.3239699304761 # Ar
1224 1224 1 0.0 764.6900247254144 801.88061737718 30.166020767220008 # Ar
1225 1225 1 0.0 37.558600182689354 520.4943101026233 194.92656670957766 # Ar
1226 1226 1 0.0 114.3455428882786 361.8584950556152 15.920820727382257 # Ar
1227 1227 1 0.0 813.994262825234 600.9184219120393 189.12607098508147 # Ar
1228 1228 1 0.0 683.2851577849185 459.23927391513104 879.4042790393897 # Ar
1229 1229 1 0.0 215.02190966410313 532.635052448954 667.5969428321984 # Ar
1230 1230 1 0.0 535.6521852494283 171.38870328950304 262.91603919257 # Ar
1231 1231 1 0.0 495.64796304433463 796.9576323221974 257.46140050551065 # Ar
1232 1232 1 0.0 386.9962980896834 658.2574405354217 648.9307393007612 # Ar
1233 1233 1 0.0 634.0839983378946 678.02120727601 406.3300686290055 # Ar
1234 1234 1 0.0 314.7291581514675 187.6871859310618 453.9862752814954 # Ar
1235 1235 1 0.0 250.6693451314148 459.0029421880703 133.15622865606164 # Ar
1236 1236 1 0.0 156.28896993156087 846.4914991243502 726.7591718969045 # Ar
1237 1237 1 0.0 307.3451907336061 392.81701816305144 466.792660272204 # Ar
1238 1238 1 0.0 467.7875058782263 559.050558390589 622.2366267377716 # Ar
1239 1239 1 0.0 586.2837095734436 511.11663975592523 11.150620567973977 # Ar
1240 1240 1 0.0 181.41910346189752 760.1711645824128 787.9653390402061 # Ar
1241 1241 1 0.0 542.7484865156564 260.82657888265595 810.6361353325972 # Ar
1242 1242 1 0.0 30.275584777036965 646.6583835347503 780.2366959527909 # Ar
1243 1243 1 0.0 470.07150855628197 655.2210104332141 319.54329735744534 # Ar
1244 1244 1 0.0 428.6525702305535 431.09894213642934 84.20287582869372 # Ar
1245 1245 1 0.0 164.5739861718225 868.0124047943 818.7892128274833 # Ar
1246 1246 1 0.0 752.838794440266 862.5699295426198 443.8390746565224 # Ar
1247 1247 1 0.0 738.9276142645963 837.392198921605 606.3917504815774 # Ar
1248 1248 1 0.0 841.0533168332513 139.99385565845526 86.81663412727599 # Ar
1249 1249 1 0.0 754.8074952277982 71.54577245216028 211.0633095946646 # Ar
1250 1250 1 0.0 739.0637126821285 102.29938009627237 565.3885467038413 # Ar
1251 1251 1 0.0 385.23481949145884 217.09479377071165 215.89881497496742 # Ar
1252 1252 1 0.0 626.7828188327062 822.4885921836402 891.3926785020622 # Ar
1253 1253 1 0.0 170.54182547483686 175.91605577400082 613.3909257020098 # Ar
1254 1254 1 0.0 292.0232942938987 760.676016647609 872.1882290498604 # Ar
1255 1255 1 0.0 167.046731082397 851.9457706747593 881.800974982667 # Ar
1256 1256 1 0.0 544.0678420803439 127.78934138543593 334.321240251022 # Ar
1257 1257 1 0.0 710.5267211949152 538.4717914947265 225.4107467443933 # Ar
1258 1258 1 0.0 443.91991291171036 632.483656394291 442.62210298799727 # Ar
1259 1259 1 0.0 73.71018854962861 827.1304324862241 665.2986340254668 # Ar
1260 1260 1 0.0 1.799900322251709 682.2949365580656 336.3348219811878 # Ar
1261 1261 1 0.0 230.0303771949933 371.31819719006904 557.7907072640955 # Ar
1262 1262 1 0.0 470.6230191192836 819.4893930684585 874.1143611577361 # Ar
1263 1263 1 0.0 513.8841580170168 721.9320835115326 879.6480069019069 # Ar
1264 1264 1 0.0 82.20106602839249 287.0727531465258 735.415544162607 # Ar
1265 1265 1 0.0 255.23163346834508 690.9371007148944 571.0323767420331 # Ar
1266 1266 1 0.0 796.6110943390415 289.56674939721427 124.5617283059731 # Ar
1267 1267 1 0.0 590.9290498779112 229.8353206564111 498.03865471426104 # Ar
1268 1268 1 0.0 802.4891372651542 407.1390750420138 680.5273119789415 # Ar
1269 1269 1 0.0 931.0820964943872 766.7199559700489 270.99185893287233 # Ar
1270 1270 1 0.0 378.95357895996307 745.4780347194036 920.466846472697 # Ar
1271 1271 1 0.0 489.01496378882086 118.7548205202776 625.0931199994446 # Ar
1272 1272 1 0.0 521.4248829448928 278.0777342181715 456.6161707589298 # Ar
1273 1273 1 0.0 195.0709556013198 192.95863837155966 528.1381444659455 # Ar
1274 1274 1 0.0 345.6470468505121 896.9317562936732 90.68723216031431 # Ar
1275 1275 1 0.0 231.33913752746844 450.24195857414685 438.12554564004995 # Ar
1276 1276 1 0.0 546.4294919858467 601.0045222513496 678.9174070610129 # Ar
1277 1277 1 0.0 496.41614391894296 682.5749067926447 873.6295115668819 # Ar
1278 1278 1 0.0 885.9142535501386 73.97994551680891 861.861851226128 # Ar
1279 1279 1 0.0 750.3331218361932 119.70939548385125 423.0090075207077 # Ar
1280 1280 1 0.0 835.8556367049404 630.0654887254451 192.74671214757717 # Ar
1281 1281 1 0.0 300.51245839833456 860.2622785803686 629.4326919267629 # Ar
1282 1282 1 0.0 490.1794649355307 230.99476739398352 905.3153059798984 # Ar
1283 1283 1 0.0 719.4184102220034 609.8195747045261 932.464908463091 # Ar
1284 1284 1 0.0 197.03175863434475 26.720511198664727 468.09194045906094 # Ar
1285 1285 1 0.0 609.3683879362694 635.5334754182522 713.8848248144018 # Ar
1286 1286 1 0.0 697.401257592615 776.5134486670545 316.30331170287326 # Ar
1287 1287 1 0.0 834.7242542049053 390.29702091170657 21.50979441419217 # Ar
1288 1288 1 0.0 580.9534919983256 391.11135063251015 611.5918236275344 # Ar
1289 1289 1 0.0 575.5893904104933 309.76874211577365 486.8682132161241 # Ar
1290 1290 1 0.0 172.61311661757068 517.7393877921337 484.52041750009744 # Ar
1291 1291 1 0.0 384.20580487648886 253.99325987193075 394.7515268867271 # Ar
1292 1292 1 0.0 822.2406790190219 302.1157186724525 292.76854080062344 # Ar
1293 1293 1 0.0 721.3517140709367 500.1663518244647 312.7672487439669 # Ar
1294 1294 1 0.0 223.68959039098232 761.5705823697343 166.52399075548294 # Ar
1295 1295 1 0.0 0.2991969547311406 689.6656856622459 880.0221733979092 # Ar
1296 1296 1 0.0 808.0887375898799 182.23643616035167 151.32168468214886 # Ar
1297 1297 1 0.0 861.119739283358 625.2682376393591 508.76818736492675 # Ar
1298 1298 1 0.0 699.7549544634423 495.10741701856625 385.67645916037054 # Ar
1299 1299 1 0.0 520.63233912646 594.8026851530624 344.398443605948 # Ar
1300 1300 1 0.0 582.7191310130165 184.47486811386065 578.423325769858 # Ar
1301 1301 1 0.0 239.0029347291935 389.24607733973846 703.8728953497193 # Ar
1302 1302 1 0.0 494.2114669780722 908.0724006676537 488.81664894221313 # Ar
1303 1303 1 0.0 426.3557416966245 814.2642473525677 348.3092551751672 # Ar
1304 1304 1 0.0 425.87968108571073 807.8311699716248 417.6152875689331 # Ar
1305 1305 1 0.0 438.88191983570954 756.3026241549092 589.196853454649 # Ar
1306 1306 1 0.0 385.81141991418787 39.369264607130816 438.64714430424914 # Ar
1307 1307 1 0.0 307.25677002789905 69.5576439796881 544.3493201971303 # Ar
1308 1308 1 0.0 875.3890163472639 74.36574411085792 722.3754614006058 # Ar
1309 1309 1 0.0 657.9859007786986 215.30526674817705 700.3552316693244 # Ar
1310 1310 1 0.0 253.2776402832274 702.5179948521082 928.5206364550812 # Ar
1311 1311 1 0.0 301.68368453279385 571.3684529481176 831.6429226742276 # Ar
1312 1312 1 0.0 65.60764242556363 831.5456870943294 526.6195046757977 # Ar
1313 1313 1 0.0 352.1074029641421 143.563828879184 524.3112236297661 # Ar
1314 1314 1 0.0 164.65857994623096 616.1999177040693 638.9557936548861 # Ar
1315 1315 1 0.0 358.92178489200376 834.6854030470618 404.31837146169096 # Ar
1316 1316 1 0.0 374.45396193167585 382.3004761550756 516.6884285271994 # Ar
1317 1317 1 0.0 791.953172482183 666.4314181452781 316.0010274036364 # Ar
1318 1318 1 0.0 710.1179281620621 524.146004716352 381.3737335888074 # Ar
1319 1319 1 0.0 931.909647283078 872.280487109092 825.9901217319502 # Ar
1320 1320 1 0.0 812.5855979787151 533.5183062858455 84.2018172488549 # Ar
1321 1321 1 0.0 243.56960712107085 382.0743424613759 421.49607942259354 # Ar
1322 1322 1 0.0 919.9470228359623 286.0350881852413 53.862641220658745 # Ar
1323 1323 1 0.0 65.88705326807906 171.3257310029746 138.72474025673307 # Ar
1324 1324 1 0.0 152.1490540980441 902.2192694117671 428.17367800344437 # Ar
1325 1325 1 0.0 345.4571550573454 384.56925654223704 509.0438197621746 # Ar
1326 1326 1 0.0 366.6875865892642 616.022462923295 52.04659320127132 # Ar
1327 1327 1 0.0 614.141619080454 192.62240790222276 908.5925774388242 # Ar
1328 1328 1 0.0 84.7571859999411 170.5974400827571 185.88825681157846 # Ar
1329 1329 1 0.0 217.34463024305094 711.6845091245556 602.9915736860947 # Ar
1330 1330 1 0.0 916.2464657918191 93.58998117074864 646.3396126552268 # Ar
1331 1331 1 0.0 208.42918907720494 744.1898552115345 702.9668187075416 # Ar
1332 1332 1 0.0 161.24758047038605 232.50135670831688 628.3340345079628 # Ar
1333 1333 1 0.0 182.65008349923914 462.1960138483622 415.2573663423117 # Ar
1334 1334 1 0.0 466.31314229082244 873.1959841393289 611.9748449166169 # Ar
1335 1335 1 0.0 615.1715271351395 215.12345594551383 508.69263626294156 # Ar
1336 1336 1 0.0 716.1539306158431 443.47356601665757 253.2596443795021 # Ar
1337 1337 1 0.0 152.4658174584939 263.21165007490623 676.1683369074409 # Ar
1338 1338 1 0.0 512.2772193320623 570.016275314007 19.137451484247357 # Ar
1339 1339 1 0.0 883.0821949785385 93.6534445654854 599.0665438251322 # Ar
1340 1340 1 0.0 18.64673556806555 104.67080024760786 482.41365019927014 # Ar
1341 1341 1 0.0 842.1626731666807 739.9679944662427 287.56788576063036 # Ar
1342 1342 1 0.0 53.48640460838872 160.71167791686253 305.8507313339313 # Ar
1343 1343 1 0.0 247.71958240608947 688.3722807069497 214.89058042360594 # Ar
1344 1344 1 0.0 498.50057643411054 501.65640592813725 318.6350584109039 # Ar
1345 1345 1 0.0 347.64833211542884 720.0036427875866 754.6628616612439 # Ar
1346 1346 1 0.0 640.2481015546664 371.00244580361635 226.32762951040365 # Ar
1347 1347 1 0.0 787.2475122757636 888.3812281784984 213.66795830833942 # Ar
1348 1348 1 0.0 807.9239607083834 761.4628445227643 370.07122850972013 # Ar
1349 1349 1 0.0 306.55606137626063 613.6483506768541 780.2552222433037 # Ar
1350 1350 1 0.0 637.4733506759543 853.8700356891761 143.24940289300358 # Ar
1351 1351 1 0.0 264.3564794838495 46.416438684322955 367.68079641586036 # Ar
1352 1352 1 0.0 509.2822385314186 582.1755921364073 743.9059731375462 # Ar
1353 1353 1 0.0 311.499603690682 496.71868989432903 906.227730254048 # Ar
1354 1354 1 0.0 554.9532334594256 55.4178505498274 98.8095688310353 # Ar
1355 1355 1 0.0 777.2646343562953 144.43063329949115 793.6766490540564 # Ar
1356 1356 1 0.0 306.29372194035807 406.58139066970057 75.76611258969666 # Ar
1357 1357 1 0.0 368.95514068847564 602.557979876431 64.03163476247649 # Ar
1358 1358 1 0.0 424.38953055536234 441.118399993494 369.3439677161776 # Ar
1359 1359 1 0.0 391.7640699443974 791.4596763905339 208.42502863406668 # Ar
1360 1360 1 0.0 364.86695888693583 620.6827820345792 399.4296948477893 # Ar
1361 1361 1 0.0 160.08885987625274 477.6426292100251 415.90760983515105 # Ar
1362 1362 1 0.0 835.498906363943 283.56228343360067 334.8734699268963 # Ar
1363 1363 1 0.0 861.5305364701519 270.6269244319497 839.3086697443016 # Ar
1364 1364 1 0.0 166.6573098347839 921.5430515679501 403.6995183460033 # Ar
1365 1365 1 0.0 225.53312523672056 240.21410410913066 315.29713123435903 # Ar
1366 1366 1 0.0 486.29559761254353 790.8303065487139 349.76707504987195 # Ar
1367 1367 1 0.0 21.329312802367696 69.4732999796283 301.98680241044826 # Ar
1368 1368 1 0.0 350.31819059206356 762.2531446276914 230.21966845171616 # Ar
1369 1369 1 0.0 96.9853123037419 823.0091469693302 272.05167758604523 # Ar
1370 1370 1 0.0 785.3371029235391 741.165070793395 868.2871937341743 # Ar
1371 1371 1 0.0 288.46330691731805 919.0577549206017 512.7848349329005 # Ar
1372 1372 1 0.0 860.5045918525678 430.24366111252976 506.20397849827054 # Ar
1373 1373 1 0.0 793.8352382583414 207.66478130567833 475.7466814345091 # Ar
1374 1374 1 0.0 271.36974238034395 216.06542262609065 110.32220169849153 # Ar
1375 1375 1 0.0 267.9924742005169 910.3576986205868 516.2286703549138 # Ar
1376 1376 1 0.0 71.1896793275288 484.7218577941604 733.8305800959669 # Ar
1377 1377 1 0.0 416.5102483193987 773.9966986506013 352.74391284453736 # Ar
1378 1378 1 0.0 904.5569567773681 2.8038713033422304 711.355717499642 # Ar
1379 1379 1 0.0 511.05002773562813 428.93219622743555 882.4988510786085 # Ar
1380 1380 1 0.0 324.64677120246836 80.45354913651553 381.24631976262134 # Ar
1381 1381 1 0.0 398.55852114061025 891.6857810582686 244.9735454623102 # Ar
1382 1382 1 0.0 261.9994089572931 329.8352389426735 691.7611549764481 # Ar
1383 1383 1 0.0 181.86423230080837 209.11709509230445 14.035323581118291 # Ar
1384 1384 1 0.0 497.013763964756 7.757189951012869 569.9475461674834 # Ar
1385 1385 1 0.0 751.6579326588817 359.1127499628838 43.99215577849964 # Ar
1386 1386 1 0.0 123.33555232331196 681.0535394254894 351.44943551115557 # Ar
1387 1387 1 0.0 778.54146008494 117.39190369024996 14.579372246019936 # Ar
1388 1388 1 0.0 831.4378888738803 328.18856717738055 467.99514624119956 # Ar
1389 1389 1 0.0 68.36100111941221 218.05333143254882 717.6140264233871 # Ar
1390 1390 1 0.0 243.9562305277161 837.3348640116111 166.62618600383155 # Ar
1391 1391 1 0.0 374.7784135784421 328.9036644735726 515.5994539362711 # Ar
1392 1392 1 0.0 926.5592538173559 245.68217577659837 545.4795618075867 # Ar
1393 1393 1 0.0 781.7298980239656 808.8972458081589 666.3085181801157 # Ar
1394 1394 1 0.0 697.2101481729998 929.5659081549097 292.37166740029585 # Ar
1395 1395 1 0.0 335.8112734554321 464.2685131722558 541.0934801403251 # Ar
1396 1396 1 0.0 172.05537525662135 102.24260936800587 695.4077479250392 # Ar
1397 1397 1 0.0 296.3176595009685 0.3406057098564851 330.6992138479957 # Ar
1398 1398 1 0.0 441.4334919543368 580.4748909214983 750.4706674116456 # Ar
1399 1399 1 0.0 884.2481770590614 96.90817100041804 819.8113519480044 # Ar
1400 1400 1 0.0 249.14791551730548 561.2356678999337 354.06725352137806 # Ar
1401 1401 1 0.0 231.93841392388563 656.565886114312 848.3484619266814 # Ar
1402 1402 1 0.0 733.7068212897279 532.920092315336 783.0967730173553 # Ar
1403 1403 1 0.0 922.9923483534856 397.81487050958395 527.4068688325619 # Ar
1404 1404 1 0.0 832.4585458131241 893.8678707667347 562.7237802849727 # Ar
1405 1405 1 0.0 450.1704304232547 423.34708052402624 6.526858423145742 # Ar
1406 1406 1 0.0 822.1057660128065 909.9255726609874 450.2480808380476 # Ar
1407 1407 1 0.0 564.427246523776 297.39010482465613 425.6775675438058 # Ar
1408 1408 1 0.0 90.26912025653934 411.06888275421073 223.92696196103913 # Ar
1409 1409 1 0.0 146.5930062208886 229.787039908654 692.5551026743668 # Ar
1410 1410 1 0.0 458.13682956269116 689.765736393932 60.15730375978219 # Ar
1411 1411 1 0.0 712.6467119518845 796.8817853991713 729.8297501215941 # Ar
1412 1412 1 0.0 480.8718165154161 443.69141526421976 461.8083314012084 # Ar
1413 1413 1 0.0 432.4018199977705 327.4571812845156 519.9755364028157 # Ar
1414 1414 1 0.0 591.7802982971172 830.5064635891123 417.3483885404778 # Ar
1415 1415 1 0.0 724.6493033202213 707.8962725012857 610.6802606973041 # Ar
1416 1416 1 0.0 729.4289570374231 59.453124444183125 304.9338599956424 # Ar
1417 1417 1 0.0 62.4888502033964 37.795481271093976 747.8465075414831 # Ar
1418 1418 1 0.0 152.49868194875611 240.64332528260607 138.44670024314064 # Ar
1419 1419 1 0.0 876.7864679283512 853.0148699274997 764.8430166552567 # Ar
1420 1420 1 0.0 643.3754668730036 821.6335104109323 586.1906205792184 # Ar
1421 1421 1 0.0 88.29126503152771 9.087325634182923 17.780586216433843 # Ar
1422 1422 1 0.0 459.0467461011433 74.42399908532566 934.7687675555927 # Ar
1423 1423 1 0.0 557.6912745245957 5.334897201295488 849.7996296315183 # Ar
1424 1424 1 0.0 94.63047371249787 156.35841878952846 46.54904609249366 # Ar
1425 1425 1 0.0 778.7980985590044 155.11922285718592 785.9154244525226 # Ar
1426 1426 1 0.0 875.6460848694702 523.9399913629708 731.702605708816 # Ar
1427 1427 1 0.0 823.9385557987592 683.6581054682795 709.2933329782004 # Ar
1428 1428 1 0.0 869.72116428167 388.9228897430333 827.1213194701669 # Ar
1429 1429 1 0.0 458.45940505657336 840.3575486543832 782.8390060763414 # Ar
1430 1430 1 0.0 862.1220860405759 739.8786572692279 256.15218432249003 # Ar
1431 1431 1 0.0 818.0448689132987 498.60741525358526 671.9378660436316 # Ar
1432 1432 1 0.0 494.229473432522 616.5212712104744 217.17022273471574 # Ar
1433 1433 1 0.0 541.8553889893368 719.3623399077045 250.1828500799753 # Ar
1434 1434 1 0.0 147.869891855702 302.51853355284493 869.4574961388275 # Ar
1435 1435 1 0.0 818.3203791517409 356.7741516213142 107.81105443002356 # Ar
1436 1436 1 0.0 923.0771024415776 458.0855427964851 622.8898392621045 # Ar
1437 1437 1 0.0 204.7999262396817 160.68773036700603 133.14115275070017 # Ar
1438 1438 1 0.0 498.3787486304707 847.3625062212351 102.16572474014158 # Ar
1439 1439 1 0.0 262.6032766251246 432.0064564967757 867.8619390300394 # Ar
1440 1440 1 0.0 270.6537789208717 362.664279983226 529.5541607669804 # Ar
1441 1441 1 0.0 484.81909602387606 2.7865022330837337 188.2216775004557 # Ar
1442 1442 1 0.0 732.6513300648764 182.7454663786636 254.3008360577919 # Ar
1443 1443 1 0.0 204.60085914679334 321.43961063526655 186.84856422743064 # Ar
1444 1444 1 0.0 721.5213289907612 268.5054380306101 743.5150629176836 # Ar
1445 1445 1 0.0 472.76072633242313 264.4500112630886 537.9706245755752 # Ar
1446 1446 1 0.0 31.151488270658664 223.30881002853167 199.4852161560798 # Ar
1447 1447 1 0.0 11.089145477780946 443.96740184316224 367.51046877470776 # Ar
1448 1448 1 0.0 249.3741316275322 858.6253867858546 86.33804163237667 # Ar
1449 1449 1 0.0 594.980449032398 487.49011495025866 224.83469317214698 # Ar
1450 1450 1 0.0 177.60704561044878 425.5473856120272 932.2096350514752 # Ar
1451 1451 1 0.0 151.6123278980032 346.8945500965959 805.7338939184323 # Ar
1452 1452 1 0.0 127.01101471785063 714.070770637648 192.97699662541893 # Ar
1453 1453 1 0.0 704.7640024941634 612.454099178585 896.336671103444 # Ar
1454 1454 1 0.0 327.39835777673284 69.65220581088508 900.6327847284975 # Ar
1455 1455 1 0.0 373.33652817400485 317.00846594321683 256.7396187177691 # Ar
1456 1456 1 0.0 440.30171614236133 640.7819572557187 447.6803773967598 # Ar
1457 1457 1 0.0 694.7426278946688 737.2188734458175 31.191501217984094 # Ar
1458 1458 1 0.0 428.0789885788519 669.240609082289 235.95460394813563 # Ar
1459 1459 1 0.0 803.964796059868 92.53531575388988 804.6527206232472 # Ar
1460 1460 1 0.0 759.7339230996965 881.3660227054415 106.1970706072485 # Ar
1461 1461 1 0.0 553.9903180261078 184.1963379864439 707.232269225645 # Ar
1462 1462 1 0.0 143.83849874629104 390.67592258971206 277.20718397991806 # Ar
1463 1463 1 0.0 521.9500142427197 424.8228455652004 420.0586865336235 # Ar
1464 1464 1 0.0 599.3736771595694 822.4249905094669 695.8762959373252 # Ar
1465 1465 1 0.0 192.75927342170309 533.8804091477513 193.91512313688253 # Ar
1466 1466 1 0.0 800.3586759769793 177.14886888150158 660.5617659555821 # Ar
1467 1467 1 0.0 475.3274392802376 135.19088676598162 682.6020561744053 # Ar
1468 1468 1 0.0 439.75474491990866 748.4986978679411 90.86800013790949 # Ar
1469 1469 1 0.0 642.4778133417072 736.3753079827961 84.77967641801553 # Ar
1470 1470 1 0.0 361.96113498900655 898.9435037196826 761.7225438748092 # Ar
1471 1471 1 0.0 30.89995145674015 399.6690970485674 308.7879677974735 # Ar
1472 1472 1 0.0 658.4804525581342 685.9094227590926 506.6263773538019 # Ar
1473 1473 1 0.0 874.6773765499108 642.5553079483184 164.78665920896535 # Ar
1474 1474 1 0.0 164.98621152959547 479.24374890549547 702.3240617987609 # Ar
1475 1475 1 0.0 108.08200945345214 39.72388887736948 473.83012472511376 # Ar
1476 1476 1 0.0 239.83418618301658 913.808846885027 612.6027817448955 # Ar
1477 1477 1 0.0 22.075348954959786 571.773170822364 48.549560912811586 # Ar
1478 1478 1 0.0 44.24182126517841 611.6035044377101 392.0767735868087 # Ar
1479 1479 1 0.0 826.4843038318421 149.77167932852257 866.9401539133678 # Ar
1480 1480 1 0.0 293.46048181827433 447.3552636028475 420.89635770355767 # Ar
1481 1481 1 0.0 23.522580496268866 151.98532356796036 42.009888901884 # Ar
1482 1482 1 0.0 310.3995862787216 758.8755750392753 860.951204542482 # Ar
1483 1483 1 0.0 427.5906505108219 127.7933658505014 502.98536763816816 # Ar
1484 1484 1 0.0 372.33675795539074 655.7476056804874 27.19305838887002 # Ar
1485 1485 1 0.0 172.36809999205494 635.7162636629026 313.8482117061899 # Ar
1486 1486 1 0.0 596.8593056838631 187.2122934538762 76.68489679752408 # Ar
1487 1487 1 0.0 157.81836349747059 592.4562174122174 407.021685582779 # Ar
1488 1488 1 0.0 611.6173697468136 775.7165074397175 670.3483010497566 # Ar
1489 1489 1 0.0 35.06772860156607 668.7225507647927 67.58507442943103 # Ar
1490 1490 1 0.0 281.77194260894953 454.02468615300296 856.9231103860303 # Ar
1491 1491 1 0.0 119.57897728180035 503.42788035174925 178.61914399444063 # Ar
1492 1492 1 0.0 767.9997523668953 528.628155598035 299.59273558022466 # Ar
1493 1493 1 0.0 756.2921872831884 316.89817504615075 461.89758324724863 # Ar
1494 1494 1 0.0 406.6084107837538 824.5938773953762 373.8868560153129 # Ar
1495 1495 1 0.0 285.61673082840457 221.24788764103334 531.1108876895127 # Ar
1496 1496 1 0.0 0.9488800808491783 912.5997053108485 652.8459418515885 # Ar
1497 1497 1 0.0 109.66395956246322 782.8120350108738 233.938807016948 # Ar
1498 1498 1 0.0 156.01905506229852 57.6783242129602 430.6949936159877 # Ar
1499 1499 1 0.0 621.6141054135833 732.2071106983757 679.3678273648733 # Ar
1500 1500 1 0.0 852.5454800030407 63.59570542300709 907.6849742982636 # Ar
1501 1501 1 0.0 553.4867325522101 466.605193739345 169.5576170428105 # Ar
1502 1502 1 0.0 474.9931894239789 119.86112045010555 668.2430234602566 # Ar
1503 1503 1 0.0 463.78416323382515 759.7537694564251 157.83532287729048 # Ar
1504 1504 1 0.0 312.1512666582756 379.6077299573946 874.5939109542994 # Ar
1505 1505 1 0.0 230.80639794028292 682.2355493986322 117.91707725275485 # Ar
1506 1506 1 0.0 863.7340733902327 404.99519676096537 654.4472024923854 # Ar
1507 1507 1 0.0 362.55899111448355 822.6127510979419 125.24970027144114 # Ar
1508 1508 1 0.0 454.53221960651143 278.0200853771393 463.594065336906 # Ar
1509 1509 1 0.0 260.42722518359363 796.4787581337885 53.23711009499086 # Ar
1510 1510 1 0.0 42.27779266815609 127.29209065316617 796.7659297036944 # Ar
1511 1511 1 0.0 77.17172333218355 78.35163745871785 603.0679121442329 # Ar
1512 1512 1 0.0 615.9519146967987 526.9895675285727 695.3880621686318 # Ar
1513 1513 1 0.0 125.67367857495871 314.1661456157909 297.5152694052285 # Ar
1514 1514 1 0.0 109.659148683964 858.4983180123604 560.9800902112596 # Ar
1515 1515 1 0.0 412.8670115478054 325.4174690594895 413.1624302532783 # Ar
1516 1516 1 0.0 831.6325291763071 129.9457594019804 872.9034737136265 # Ar
1517 1517 1 0.0 816.079471491847 557.2012739601047 842.5948333906979 # Ar
1518 1518 1 0.0 593.6279262588433 730.1480784310997 769.7463037202652 # Ar
1519 1519 1 0.0 111.88640535363277 487.0237060233269 537.0034664696403 # Ar
1520 1520 1 0.0 167.39850987802498 220.20287880254898 24.050482860980075 # Ar
1521 1521 1 0.0 36.33267983708632 489.0582868289205 132.15971806306533 # Ar
1522 1522 1 0.0 208.00927098582048 778.618455585094 446.1287000885995 # Ar
1523 1523 1 0.0 621.3267870154677 497.9939638403466 596.5802729369893 # Ar
1524 1524 1 0.0 887.4888882960132 30.064955219449 775.2766930243553 # Ar
1525 1525 1 0.0 376.86456826200174 71.1889947854664 140.31144246508154 # Ar
1526 1526 1 0.0 681.4973480519354 310.73021067068544 516.6487467798562 # Ar
1527 1527 1 0.0 101.49227774487012 498.26319828185643 684.3524723512728 # Ar
1528 1528 1 0.0 243.7586686973323 680.7946919378022 291.81764592197425 # Ar
1529 1529 1 0.0 210.0894671684881 831.2992118468195 259.89872699616177 # Ar
1530 1530 1 0.0 102.31355563768236 662.7286717907438 352.8959941545181 # Ar
1531 1531 1 0.0 322.0829137458285 605.7235760135393 857.3629697435223 # Ar
1532 1532 1 0.0 462.0138846728274 98.65786910384084 417.07354184019835 # Ar
1533 1533 1 0.0 781.00542903487 40.35326650321384 519.5686801798129 # Ar
1534 1534 1 0.0 329.42485358467013 463.008039404391 835.0005543391227 # Ar
1535 1535 1 0.0 564.0796824025074 45.61193184637863 653.9120275999252 # Ar
1536 1536 1 0.0 712.9735043154176 712.6935886417346 384.4427179715426 # Ar
1537 1537 1 0.0 66.66443910259517 875.4723650833799 808.2278973121963 # Ar
1538 1538 1 0.0 508.9087232607368 162.36523790533485 792.097531087501 # Ar
1539 1539 1 0.0 132.50608825453455 257.2194751538369 785.9425005279141 # Ar
1540 1540 1 0.0 871.2699547328187 220.50660856930332 116.62364861127556 # Ar
1541 1541 1 0.0 747.4942157852536 183.7281707581096 835.4949898898223 # Ar
1542 1542 1 0.0 419.1468747861714 30.06894442824001 806.4265596944996 # Ar
1543 1543 1 0.0 373.83116412657546 510.10990651726996 340.2213524501474 # Ar
1544 1544 1 0.0 833.3660562541323 656.4341086158381 268.2450223475109 # Ar
1545 1545 1 0.0 470.3371880157525 519.5673252750363 717.1193344816801 # Ar
1546 1546 1 0.0 521.5006141022361 716.3649752756854 528.0627753208952 # Ar
1547 1547 1 0.0 319.91404112054386 118.66089341420178 440.0643867577821 # Ar
1548 1548 1 0.0 590.2971633049643 449.22587897230324 167.68394688780566 # Ar
1549 1549 1 0.0 455.7989342601363 33.662449913044476 96.89330981735503 # Ar
1550 1550 1 0.0 902.3669499383077 910.6395489536471 467.5314363013685 # Ar
1551 1551 1 0.0 720.6256699730359 737.7073867161629 446.0081724162681 # Ar
1552 1552 1 0.0 863.4096335807945 899.7946458957439 439.09080659364963 # Ar
1553 1553 1 0.0 265.2834552438211 846.335843346303 816.9422457512148 # Ar
1554 1554 1 0.0 7.908777922037056 180.61011386769803 494.57641652441134 # Ar
1555 1555 1 0.0 75.8129843707856 474.37397159299894 479.3618212688779 # Ar
1556 1556 1 0.0 148.625331438854 843.9151254210497 162.2369960972975 # Ar
1557 1557 1 0.0 682.6602744489596 619.2495781119898 386.18964097104833 # Ar
1558 1558 1 0.0 721.1426781116019 651.9039662289861 405.561125142607 # Ar
1559 1559 1 0.0 128.73026068143932 283.1280673032537 408.18801779203096 # Ar
1560 1560 1 0.0 864.7403121341945 592.0058614331086 164.34142462200896 # Ar
1561 1561 1 0.0 650.0299580244528 50.29074436342418 338.61287940477416 # Ar
1562 1562 1 0.0 378.6963539544591 526.2152805403093 744.9337204925218 # Ar
1563 1563 1 0.0 20.567713402806785 128.20916361689277 277.30824503899646 # Ar
1564 1564 1 0.0 897.0370031019204 410.62518500415905 827.2114039035353 # Ar
1565 1565 1 0.0 591.8164162286114 143.86154155486608 699.4551484982899 # Ar
1566 1566 1 0.0 32.33829709781074 109.67669875184922 108.1907313619258 # Ar
1567 1567 1 0.0 433.4426406526389 666.0850078669578 497.7359587746649 # Ar
1568 1568 1 0.0 924.9920394029423 533.5474848813507 606.0905509955647 # Ar
1569 1569 1 0.0 516.6434268497605 856.1059177250269 469.79509714334574 # Ar
1570 1570 1 0.0 815.4360431537011 228.03758406577157 103.26895441873278 # Ar
1571 1571 1 0.0 249.3030957559608 910.0110381645081 821.6239464628252 # Ar
1572 1572 1 0.0 874.0206220797414 62.77139567861414 147.75510118823868 # Ar
1573 1573 1 0.0 816.8519166310606 915.8029511342205 428.8942115812806 # Ar
1574 1574 1 0.0 145.41962526288393 705.0005345373983 834.9923419659953 # Ar
1575 1575 1 0.0 262.12513577260125 150.65027984418705 72.92412841237831 # Ar
1576 1576 1 0.0 330.5312464009956 260.74801220006225 362.2250819854408 # Ar
1577 1577 1 0.0 418.6090220331092 315.4573363499339 524.9123458542152 # Ar
1578 1578 1 0.0 717.6371323661286 856.4954798619391 749.0982146270022 # Ar
1579 1579 1 0.0 517.3230076334924 708.7941561613583 440.8279112917649 # Ar
1580 1580 1 0.0 776.429897970004 619.4994116990232 91.27238465094399 # Ar
1581 1581 1 0.0 530.6332820228831 472.2429451737619 212.66808069225425 # Ar
1582 1582 1 0.0 914.4349248591134 134.7734672064775 257.59129948798824 # Ar
1583 1583 1 0.0 382.42744999624404 928.4731691101526 418.3661039741308 # Ar
1584 1584 1 0.0 431.10060134889795 835.0633284372054 30.351066208680223 # Ar
1585 1585 1 0.0 647.4093637687067 233.34356246173994 746.9559330259134 # Ar
1586 1586 1 0.0 406.40608624735273 112.05112043784627 433.44531554395894 # Ar
1587 1587 1 0.0 117.08577912607731 121.52598947043607 371.1554194932864 # Ar
1588 1588 1 0.0 797.9247004453288 621.7399991503065 174.15753738400537 # Ar
1589 1589 1 0.0 269.55372618705394 908.3291947512207 379.82627042689944 # Ar
1590 1590 1 0.0 645.4078049283544 734.1937038086975 76.04170888002862 # Ar
1591 1591 1 0.0 753.1054296485963 690.4166907446531 155.1904587926589 # Ar
1592 1592 1 0.0 73.3323499804015 711.8119889076161 789.1100575617712 # Ar
1593 1593 1 0.0 48.84920152966217 840.1997657052494 630.5956543476049 # Ar
1594 1594 1 0.0 27.74646564735244 908.9793237200266 799.4855465333399 # Ar
1595 1595 1 0.0 55.69280874130235 243.41283038179247 89.11807536300135 # Ar
1596 1596 1 0.0 854.8277801305321 844.5401660293467 583.9001735738736 # Ar
1597 1597 1 0.0 72.00274126222983 108.93303462311088 775.9147695132376 # Ar
1598 1598 1 0.0 343.0980290969431 70.4988835157442 514.6098735559865 # Ar
1599 1599 1 0.0 155.63214871430037 223.41549646938887 717.7699792822998 # Ar
1600 1600 1 0.0 573.7523763312332 150.52294651117285 485.3395995796722 # Ar
1601 1601 1 0.0 70.17334994322806 471.12180428632223 73.014608130036 # Ar
1602 1602 1 0.0 687.4708442151389 752.3838103415624 163.50065541721762 # Ar
1603 1603 1 0.0 281.55092206449285 316.05163046675955 194.04810836871494 # Ar
1604 1604 1 0.0 97.01085779647356 884.8855325537967 97.78069317529534 # Ar
1605 1605 1 0.0 801.899169541275 609.2052412354541 125.62314863075099 # Ar
1606 1606 1 0.0 276.76061986190007 195.6624403104741 919.5313272379678 # Ar
1607 1607 1 0.0 506.8218912284716 826.6676930686365 364.47263729355865 # Ar
1608 1608 1 0.0 440.26537290827486 400.105159197661 840.624340101784 # Ar
1609 1609 1 0.0 442.25236428766647 92.78214692186233 871.0304783056032 # Ar
1610 1610 1 0.0 638.4543030151669 874.9461379992161 99.44755563178937 # Ar
1611 1611 1 0.0 648.5834965997346 622.1751754517326 681.5644496630615 # Ar
1612 1612 1 0.0 467.7123183527333 399.26335878813467 898.3682594919796 # Ar
1613 1613 1 0.0 566.9124593597155 321.9199731456759 775.5260926311979 # Ar
1614 1614 1 0.0 453.5548433816524 281.3144601436095 431.500943216599 # Ar
1615 1615 1 0.0 549.9264904428716 821.311528797777 713.6022728175883 # Ar
1616 1616 1 0.0 177.0740207211916 663.0701907575798 527.9941966603774 # Ar
1617 1617 1 0.0 228.37648762869503 629.4954429719337 892.8620636936345 # Ar
1618 1618 1 0.0 129.62389348384716 928.3776586400061 547.7780672805133 # Ar
1619 1619 1 0.0 435.97592205761407 878.8851999703154 5.510553590482206 # Ar
1620 1620 1 0.0 352.9587375414312 355.52726240769744 189.70570641768325 # Ar
1621 1621 1 0.0 727.4530676532172 240.84675757815816 855.9819760457748 # Ar
1622 1622 1 0.0 851.5735543516712 60.83284308896118 279.18725653366135 # Ar
1623 1623 1 0.0 21.791109161436857 25.39416695636292 852.0747516042 # Ar
1624 1624 1 0.0 110.72210607739507 260.1717331454132 774.6639599730713 # Ar
1625 1625 1 0.0 919.402405763039 167.22640380308476 665.021070790486 # Ar
1626 1626 1 0.0 329.4570950688591 797.3584945312165 764.1764639168794 # Ar
1627 1627 1 0.0 743.4201503510388 793.3874190114155 249.8933648775777 # Ar
1628 1628 1 0.0 141.301795348829 82.52180965661347 100.52245482762083 # Ar
1629 1629 1 0.0 637.9514335794253 402.8552204557226 47.69482755300214 # Ar
1630 1630 1 0.0 12.099911686135039 907.6875725300097 266.8890779699566 # Ar
1631 1631 1 0.0 189.92184292407194 822.4591539916084 651.2570421731037 # Ar
1632 1632 1 0.0 525.5651200709556 702.6618120635453 298.95504648090133 # Ar
1633 1633 1 0.0 467.4428954174247 672.8521343093217 447.58131157744606 # Ar
1634 1634 1 0.0 148.1377687373729 888.7529651268349 635.0845226080487 # Ar
1635 1635 1 0.0 202.35872772725577 117.78150099053484 196.18662695624417 # Ar
1636 1636 1 0.0 925.7855108478293 189.29877922757078 798.9253407408291 # Ar
1637 1637 1 0.0 307.7496971731098 133.8364500532398 889.3734667056625 # Ar
1638 1638 1 0.0 559.9407471867029 590.456078873073 917.0763790479167 # Ar
1639 1639 1 0.0 574.8734644794303 504.32910804343686 836.8509839526912 # Ar
1640 1640 1 0.0 271.41305041539056 391.53096953054535 280.3184898290953 # Ar
1641 1641 1 0.0 489.6285308138505 406.58825450994635 434.5054413385614 # Ar
1642 1642 1 0.0 573.1724378579729 452.1398496278559 1.711662558373647 # Ar
1643 1643 1 0.0 624.8366149784413 100.46204829763532 303.54216358571483 # Ar
1644 1644 1 0.0 253.9925463419434 610.2635046545367 260.22146415344804 # Ar
1645 1645 1 0.0 60.90870177935854 826.8720313419623 658.0093035470229 # Ar
1646 1646 1 0.0 109.04143166438098 530.0164053585319 652.9325603646313 # Ar
1647 1647 1 0.0 614.024553399083 453.1613079557931 590.2324308242912 # Ar
1648 1648 1 0.0 666.4067518127694 780.3776649568666 729.9613810369306 # Ar
1649 1649 1 0.0 174.23200412204264 248.7472649688664 227.40486226811308 # Ar
1650 1650 1 0.0 868.6208125395418 413.6216599526246 79.305773010606 # Ar
1651 1651 1 0.0 906.9940588510608 560.1724693046102 14.377557240961828 # Ar
1652 1652 1 0.0 795.1549662784497 553.84102380869 212.90740763177646 # Ar
1653 1653 1 0.0 361.59363327928907 212.26604210863823 329.2002924568032 # Ar
1654 1654 1 0.0 859.0011203462306 617.7547079396004 794.9843046821446 # Ar
1655 1655 1 0.0 356.87239265497305 578.5818191521325 179.86382113117688 # Ar
1656 1656 1 0.0 198.05552081958697 269.67436160479275 661.3904000374251 # Ar
1657 1657 1 0.0 745.8960798737471 840.4117449038962 151.1938721530154 # Ar
1658 1658 1 0.0 420.88201758330797 14.010653680422909 790.868918499085 # Ar
1659 1659 1 0.0 28.476616155550726 195.0430037674442 150.8399171200891 # Ar
1660 1660 1 0.0 829.5674955504112 92.13090682126028 307.12887518755144 # Ar
1661 1661 1 0.0 843.053479703391 456.060605224941 184.31970409915272 # Ar
1662 1662 1 0.0 809.7269911881951 826.7838871574975 219.79090001321268 # Ar
1663 1663 1 0.0 468.1975824979216 22.721915479241513 539.1402440219383 # Ar
1664 1664 1 0.0 842.3336221494382 76.4353501165307 181.28628976457262 # Ar
1665 1665 1 0.0 828.1640867345399 424.45183171653224 370.03426459294764 # Ar
1666 1666 1 0.0 16.9485358912978 616.5464026746887 689.1803811307374 # Ar
1667 1667 1 0.0 104.23194402319255 734.9992373593434 267.26739258959395 # Ar
1668 1668 1 0.0 801.5103601152704 6.705075020487579 684.1978429724049 # Ar
1669 1669 1 0.0 618.7685707735117 521.9507030563755 347.6860898548647 # Ar
1670 1670 1 0.0 904.7753583708496 329.222961179364 846.6764348861806 # Ar
1671 1671 1 0.0 186.6680566531696 1.5658351922645886 208.49514079043993 # Ar
1672 1672 1 0.0 882.3081405801014 457.562237974269 68.63774280946843 # Ar
1673 1673 1 0.0 584.2474572684195 96.52241694716422 389.49146311790406 # Ar
1674 1674 1 0.0 367.02959934549233 88.93215047635108 84.4927624624013 # Ar
1675 1675 1 0.0 649.913722476813 686.8170788520114 128.19299216392594 # Ar
1676 1676 1 0.0 111.2517889982345 895.3842580747814 442.39907144691205 # Ar
1677 1677 1 0.0 669.7432254642613 269.8463365234969 466.7637181760501 # Ar
1678 1678 1 0.0 906.8390062324542 900.2158319635411 474.60603869250303 # Ar
1679 1679 1 0.0 339.39629487982313 208.0905705781903 347.7396528044936 # Ar
1680 1680 1 0.0 758.0784918216993 675.3384640432942 768.4596742394933 # Ar
1681 1681 1 0.0 869.8766341745368 161.30309937866576 676.4158293015586 # Ar
1682 1682 1 0.0 349.81204641950103 781.3902445754395 691.7918588910763 # Ar
1683 1683 1 0.0 886.621305120708 283.37240362174657 847.9775897698213 # Ar
1684 1684 1 0.0 884.9620714272609 500.5741141593272 264.7228604945107 # Ar
1685 1685 1 0.0 231.53683243570646 89.4137550199592 571.1718985560392 # Ar
1686 1686 1 0.0 212.21428085829362 496.73628984324637 663.9878087719596 # Ar
1687 1687 1 0.0 672.1733475001757 241.93541461680553 156.14223086297477 # Ar
1688 1688 1 0.0 640.4241984469713 286.12369482702815 472.6496586135906 # Ar
1689 1689 1 0.0 145.68991025010806 428.2410476681456 222.4872765889128 # Ar
1690 1690 1 0.0 342.62942492771396 645.9546837835499 127.71441558435242 # Ar
1691 1691 1 0.0 868.7723014357423 915.4515668809495 96.72838529271331 # Ar
1692 1692 1 0.0 132.21242569175848 344.0715045483167 209.08761915131987 # Ar
1693 1693 1 0.0 570.3154426032429 760.1546467744605 384.8484412866038 # Ar
1694 1694 1 0.0 628.5089285419832 238.56853575135779 918.1490760158009 # Ar
1695 1695 1 0.0 801.643663724025 725.9442565358621 441.5632976897554 # Ar
1696 1696 1 0.0 153.9694277237311 914.8546697679976 69.04600840067972 # Ar
1697 1697 1 0.0 91.20465770300427 532.4809387283526 455.75046361814094 # Ar
1698 1698 1 0.0 780.5559595346044 146.90405360555476 309.6837971870164 # Ar
1699 1699 1 0.0 244.0957643147366 95.29189875955197 528.8899160506769 # Ar
1700 1700 1 0.0 447.6163141917925 733.9067859542066 29.925013454831554 # Ar
1701 1701 1 0.0 719.4181666243057 334.1554671940538 627.9384305565303 # Ar
1702 1702 1 0.0 798.4825368955624 628.0796412171592 108.86758731254203 # Ar
1703 1703 1 0.0 536.8845179551648 339.18524736732826 41.36021738682595 # Ar
1704 1704 1 0.0 396.7124721349887 447.2452065968039 441.6554214070119 # Ar
1705 1705 1 0.0 305.8751935924555 89.6701363208199 411.9940819012153 # Ar
1706 1706 1 0.0 83.9641296343276 776.1294831563839 154.74784270561767 # Ar
1707 1707 1 0.0 215.84176948322929 181.9981150625697 637.3277498041152 # Ar
1708 1708 1 0.0 752.6175489142196 732.7716684346805 562.8102580981371 # Ar
1709 1709 1 0.0 399.55593785595 907.9050194048334 736.0755940256762 # Ar
1710 1710 1 0.0 646.6167272716305 515.0913226033335 547.7464965199929 # Ar
1711 1711 1 0.0 888.4448832225717 109.5506030133428 19.708240356268078 # Ar
1712 1712 1 0.0 306.1145708886403 777.9874202713177 21.837869303409896 # Ar
1713 1713 1 0.0 278.16048365971625 138.04852993052646 399.4834091235736 # Ar
1714 1714 1 0.0 418.2122934207542 103.35786529785254 699.8910614365766 # Ar
1715 1715 1 0.0 616.9723438549291 216.73887917695217 538.0632710820241 # Ar
1716 1716 1 0.0 365.4830333624799 255.9210087950937 632.2519444124315 # Ar
1717 1717 1 0.0 181.3031309372145 690.5550548546179 54.093228528353976 # Ar
1718 1718 1 0.0 146.54110515771526 615.0637806019685 62.224676712351936 # Ar
1719 1719 1 0.0 49.32375475868142 84.09078821176689 121.8557438473742 # Ar
1720 1720 1 0.0 842.7408643966268 103.45076103729075 470.6740220690231 # Ar
1721 1721 1 0.0 472.1513631613256 592.7467324623044 229.56068220718961 # Ar
1722 1722 1 0.0 910.7903545959916 536.6094398188582 611.161679804711 # Ar
1723 1723 1 0.0 267.45569449995276 324.8959060333898 336.87090901718193 # Ar
1724 1724 1 0.0 829.9809132636923 133.51030896219913 608.7836548796198 # Ar
1725 1725 1 0.0 423.09442911093845 461.4583328858174 360.4136952131218 # Ar
1726 1726 1 0.0 749.8036672300739 651.7638600324505 893.9973942405913 # Ar
1727 1727 1 0.0 736.9013700722134 404.9251283905743 846.3570390851113 # Ar
1728 1728 1 0.0 849.4388510920141 869.344266411838 145.89954618955443 # Ar
1729 1729 1 0.0 754.2055863304006 821.5529775590117 291.1250879400194 # Ar
1730 1730 1 0.0 413.99324701568275 261.7884791187631 741.8287841463397 # Ar
1731 1731 1 0.0 66.59732339318076 697.5308989582542 353.3946055691202 # Ar
1732 1732 1 0.0 649.3556413651363 372.8743127507775 78.32399125763672 # Ar
1733 1733 1 0.0 247.4535449538355 755.6183142637802 568.2453664238536 # Ar
1734 1734 1 0.0 15.379813986901283 786.9719991135539 471.32456830667644 # Ar
1735 1735 1 0.0 736.2393526765111 332.2255631745652 785.7146436940553 # Ar
1736 1736 1 0.0 82.95563941950944 540.8942916512472 659.2670264753482 # Ar
1737 1737 1 0.0 372.93391485042844 886.0333025438057 381.4467377863666 # Ar
1738 1738 1 0.0 877.1630910899322 484.4850897852868 668.1251968973228 # Ar
1739 1739 1 0.0 643.3860632895806 674.3208530856654 792.014693811027 # Ar
1740 1740 1 0.0 3.382058099149491 797.2567090164615 533.0596770066312 # Ar
1741 1741 1 0.0 69.39606789805144 457.0016718718804 342.2406923979738 # Ar
1742 1742 1 0.0 867.7462632269901 349.14601319087103 130.0000972948002 # Ar
1743 1743 1 0.0 576.1138237955856 368.993969337685 114.79659848297771 # Ar
1744 1744 1 0.0 679.8917481279825 236.44614036997794 652.7119935737712 # Ar
1745 1745 1 0.0 576.141870119116 801.722491101123 847.1899208181233 # Ar
1746 1746 1 0.0 686.579239683672 828.7955295799758 820.9791528546992 # Ar
1747 1747 1 0.0 599.6716803785785 820.2240189513016 805.1059811521304 # Ar
1748 1748 1 0.0 807.5853460276505 802.5032561029526 173.94349887663873 # Ar
1749 1749 1 0.0 333.5735852487712 739.5824237661891 566.0620506405076 # Ar
1750 1750 1 0.0 201.94086017224578 637.1868321746169 114.28002184857412 # Ar
1751 1751 1 0.0 34.366986191613194 487.41726661522307 419.0570120976702 # Ar
1752 1752 1 0.0 3.1931227721838584 298.3319766185501 870.2521976372113 # Ar
1753 1753 1 0.0 886.9967083154306 848.5281711161695 786.1885623198079 # Ar
1754 1754 1 0.0 484.2790803942815 53.279493797369014 187.0095753014792 # Ar
1755 1755 1 0.0 485.2556817791039 892.588542551625 796.7013657335497 # Ar
1756 1756 1 0.0 814.8602139585664 503.29243413763123 544.4238291433527 # Ar
1757 1757 1 0.0 374.7796909215135 540.7066462329121 575.5758017721082 # Ar
1758 1758 1 0.0 154.85739396964328 516.9995336629706 317.2942074045317 # Ar
1759 1759 1 0.0 146.4645650149044 497.5460206880441 790.3334986088421 # Ar
1760 1760 1 0.0 852.290413585671 379.756901784802 907.2463005411713 # Ar
1761 1761 1 0.0 115.55171425039507 613.5012113810269 400.1891038981216 # Ar
1762 1762 1 0.0 117.4149764420122 720.5121940955578 658.1994809367922 # Ar
1763 1763 1 0.0 696.9029526510084 434.83530734956884 71.53032061998542 # Ar
1764 1764 1 0.0 650.9703552617946 865.3347883005586 378.03642432580864 # Ar
1765 1765 1 0.0 777.6545703084454 47.73818359798927 409.79234123845987 # Ar
1766 1766 1 0.0 649.9242334570283 479.12945931986553 757.178657892675 # Ar
1767 1767 1 0.0 932.5394580945925 67.56205175961783 158.33722991968597 # Ar
1768 1768 1 0.0 269.54324623155827 683.6677694383676 786.2577301146282 # Ar
1769 1769 1 0.0 922.435509430757 668.5833623846893 618.84950026318 # Ar
1770 1770 1 0.0 208.87683860245198 742.7921336957966 428.2669637036717 # Ar
1771 1771 1 0.0 292.22126042132624 739.8191370224699 827.4545819171524 # Ar
1772 1772 1 0.0 21.450046802256676 623.6901884033948 851.6607039630417 # Ar
1773 1773 1 0.0 603.4375274765201 843.8387794986195 878.4274473332003 # Ar
1774 1774 1 0.0 862.4200817678908 205.8606825084041 691.6321392895296 # Ar
1775 1775 1 0.0 623.7628444188265 33.311440942486286 225.5218957108655 # Ar
1776 1776 1 0.0 452.6174777461644 189.2575607550696 562.2210533044622 # Ar
1777 1777 1 0.0 651.3669891396929 217.98036428523088 603.3150296991652 # Ar
1778 1778 1 0.0 702.9594309502746 711.289555537265 932.8441988001363 # Ar
1779 1779 1 0.0 360.06394530221064 497.2514607735285 313.48141810403786 # Ar
1780 1780 1 0.0 612.3117306588449 376.75621051209873 407.29155862254265 # Ar
1781 1781 1 0.0 39.22295129208572 762.2974112400434 904.9543522518475 # Ar
1782 1782 1 0.0 355.45825973328215 465.7967374517936 615.7132206858563 # Ar
1783 1783 1 0.0 505.77646106273374 109.0531955957993 620.6421009978804 # Ar
1784 1784 1 0.0 765.4246847138494 74.29708372229483 233.23175698962328 # Ar
1785 1785 1 0.0 530.1724951002163 389.15523614429435 606.0797788296434 # Ar
1786 1786 1 0.0 591.3729074644408 351.5464732477203 191.25710642175798 # Ar
1787 1787 1 0.0 187.23455683741398 353.35386485111707 557.8661712142874 # Ar
1788 1788 1 0.0 38.805988767391646 719.456310617074 149.46913341952967 # Ar
1789 1789 1 0.0 248.40709568064673 267.21057506128767 484.0528305364409 # Ar
1790 1790 1 0.0 170.56377595034928 930.3039855780629 778.492311590815 # Ar
1791 1791 1 0.0 777.4285350762244 115.1338182137844 405.20287678315617 # Ar
1792 1792 1 0.0 282.96688191735416 281.6775933499864 54.9006759900136 # Ar
1793 1793 1 0.0 302.8673245138956 798.1329238754831 226.09034399149604 # Ar
1794 1794 1 0.0 561.6376507957583 917.2889987851926 132.06303910892183 # Ar
1795 1795 1 0.0 651.4086050657459 557.790341599927 489.397289010438 # Ar
1796 1796 1 0.0 29.28130926137623 778.0351922501575 720.116278681354 # Ar
1797 1797 1 0.0 469.2149536089631 610.3462952851788 907.3623129005373 # Ar
1798 1798 1 0.0 560.058819492066 531.2630224167032 287.0311014211602 # Ar
1799 1799 1 0.0 877.0601927134453 106.55625267514911 160.80319347573794 # Ar
1800 1800 1 0.0 425.1537660461101 818.0106548607702 720.3628217227658 # Ar
1801 1801 1 0.0 429.4639732495808 509.2938291588745 503.72621096853584 # Ar
1802 1802 1 0.0 451.840520425164 535.3020613221497 676.4880955660769 # Ar
1803 1803 1 0.0 287.13979945307483 161.2159911883935 46.00818080964778 # Ar
1804 1804 1 0.0 903.2104896594847 486.1822608553772 626.6838387708584 # Ar
1805 1805 1 0.0 141.62028837389778 4.6700856643955015 628.8998996137451 # Ar
1806 1806 1 0.0 768.5709826468932 366.7590792490098 583.8298638060015 # Ar
1807 1807 1 0.0 323.92690636282714 91.62003384369156 29.54395338170033 # Ar
1808 1808 1 0.0 160.12437403971035 691.4605071717705 399.5074964725386 # Ar
1809 1809 1 0.0 866.0399108556142 339.1166119143172 377.2243952764835 # Ar
1810 1810 1 0.0 904.876100812739 56.20134138436154 298.2629878191669 # Ar
1811 1811 1 0.0 199.12659091511364 98.93592538638639 311.6530218798415 # Ar
1812 1812 1 0.0 733.956455014876 523.3490177899357 688.6520319506384 # Ar
1813 1813 1 0.0 717.3032216697692 716.0250628587959 885.8914838135628 # Ar
1814 1814 1 0.0 293.8610529194707 56.33955320009464 421.45618981766074 # Ar
1815 1815 1 0.0 724.4797227293866 146.22141145565968 780.1560618784232 # Ar
1816 1816 1 0.0 131.16140651712084 527.841293516723 201.02851916300767 # Ar
1817 1817 1 0.0 285.7424978777981 838.0982622071012 859.8763203300463 # Ar
1818 1818 1 0.0 813.2056654393465 276.76086323120154 869.9915617773462 # Ar
1819 1819 1 0.0 419.41427297208384 382.4486013699807 724.8839027372359 # Ar
1820 1820 1 0.0 98.97878179360654 400.3609594767746 696.5159768400255 # Ar
1821 1821 1 0.0 718.7531569073162 848.3727041559188 80.13817430954828 # Ar
1822 1822 1 0.0 929.8921420157922 603.5861312075232 826.4252572852403 # Ar
1823 1823 1 0.0 531.226692252675 510.663525942464 816.9044874083262 # Ar
1824 1824 1 0.0 911.8652713027449 876.5555211655773 530.8818981206366 # Ar
1825 1825 1 0.0 172.27034246431978 574.438131394523 221.0032990767229 # Ar
1826 1826 1 0.0 657.3242454932691 506.05636473788263 186.42033384553636 # Ar
1827 1827 1 0.0 613.2038307801121 272.2191365874657 698.9880580415904 # Ar
1828 1828 1 0.0 853.8453846327768 895.8703347056847 378.8600990510455 # Ar
1829 1829 1 0.0 189.3328672670199 71.26681039358901 916.6086903437531 # Ar
1830 1830 1 0.0 248.57155606471957 784.2875901850755 379.25355981193843 # Ar
1831 1831 1 0.0 610.2508827792788 461.6697579717864 456.9348814023208 # Ar
1832 1832 1 0.0 504.53602274861 884.4378045331889 543.0822247121905 # Ar
1833 1833 1 0.0 911.4251078540241 103.28343157893643 485.180911041561 # Ar
1834 1834 1 0.0 712.4965788223914 26.363792074121108 653.0604811854768 # Ar
1835 1835 1 0.0 67.18914356664274 723.1189061046267 172.22105541364922 # Ar
1836 1836 1 0.0 802.3880909309989 130.01743416980557 905.4055380940938 # Ar
1837 1837 1 0.0 146.98985239206203 150.95351697014414 84.2036174749538 # Ar
1838 1838 1 0.0 141.3295774772266 347.13188099277517 234.3943655014051 # Ar
1839 1839 1 0.0 93.29062336956736 281.14968347029986 514.5832884251508 # Ar
1840 1840 1 0.0 526.2436094098354 55.37652773370068 457.25077544459026 # Ar
1841 1841 1 0.0 499.5473994725888 228.09571287414877 39.443735266289984 # Ar
1842 1842 1 0.0 31.508251559247896 650.641482985667 307.78791341355367 # Ar
1843 1843 1 0.0 187.79188130007566 881.8769654681616 315.5840601811142 # Ar
1844 1844 1 0.0 653.3561989209088 50.6133420225476 208.72489877220164 # Ar
1845 1845 1 0.0 192.57269432697697 10.187676644118023 245.0802288195865 # Ar
1846 1846 1 0.0 458.9832686109296 823.1660226312064 493.6929786244424 # Ar
1847 1847 1 0.0 601.6551069409023 287.66377641064133 8.604235326968563 # Ar
1848 1848 1 0.0 698.4802910962615 140.9140334642058 887.5623561345221 # Ar
1849 1849 1 0.0 253.2850649985941 702.341099145175 456.36597692806066 # Ar
1850 1850 1 0.0 379.39169771098517 498.02567218921877 302.71224401909666 # Ar
1851 1851 1 0.0 382.4171106967794 190.0832121016421 695.0354675587965 # Ar
1852 1852 1 0.0 703.7429208108156 904.3641350370204 553.680941478072 # Ar
1853 1853 1 0.0 175.2555315237356 464.43712261268234 373.7121973248247 # Ar
1854 1854 1 0.0 749.2514816228448 510.22179099046036 746.293192819863 # Ar
1855 1855 1 0.0 761.2008056459799 678.3055056276728 503.2078750846294 # Ar
1856 1856 1 0.0 817.1240691315172 892.9326771262973 359.68014428762217 # Ar
1857 1857 1 0.0 10.346496806024986 178.8992707614715 416.857180042892 # Ar
1858 1858 1 0.0 168.36052359719605 424.16798493830606 172.72139350116996 # Ar
1859 1859 1 0.0 315.07829665891137 392.74898170847234 180.55790456589168 # Ar
1860 1860 1 0.0 459.50877588745414 64.6688921372853 802.1989395425824 # Ar
1861 1861 1 0.0 92.92213620557708 759.8891797927974 754.3406174380656 # Ar
1862 1862 1 0.0 298.79686105223044 731.6404268663807 559.4712453610367 # Ar
1863 1863 1 0.0 307.9822450772969 829.4327822939632 833.5993951740919 # Ar
1864 1864 1 0.0 18.21123360693359 602.7216763486924 783.5332676416871 # Ar
1865 1865 1 0.0 670.0013744017007 90.07735472213386 853.4573192862754 # Ar
1866 1866 1 0.0 763.0427960261507 770.365668573689 281.83824922524565 # Ar
1867 1867 1 0.0 51.45953323785102 595.0263809218121 102.41353785726984 # Ar
1868 1868 1 0.0 409.285998513422 698.218001793353 151.26154394287877 # Ar
1869 1869 1 0.0 804.7687874293983 211.246067058169 313.973010906109 # Ar
1870 1870 1 0.0 639.530515849536 375.1287868384828 633.2825275139304 # Ar
1871 1871 1 0.0 626.8070218828309 797.3903159683681 540.2806945626527 # Ar
1872 1872 1 0.0 719.6825307659884 194.45293607658598 104.48519432587693 # Ar
1873 1873 1 0.0 365.94216490685125 43.68633230993039 729.2063477154817 # Ar
1874 1874 1 0.0 467.4991716313125 303.933063522462 140.12964618055892 # Ar
1875 1875 1 0.0 415.3038419237495 405.58955217193324 126.12454227015202 # Ar
1876 1876 1 0.0 18.407341470996887 642.8372799622113 858.6340861813638 # Ar
1877 1877 1 0.0 90.47265694917706 9.493327594295089 321.9508162465967 # Ar
1878 1878 1 0.0 919.9311518328105 156.34244110980524 443.5416488188856 # Ar
1879 1879 1 0.0 910.6028700521671 768.3122842210357 316.7260237386548 # Ar
1880 1880 1 0.0 137.92699114595348 655.6639866394469 545.3324397639577 # Ar
1881 1881 1 0.0 225.81516812532416 790.7729842286078 909.6624280310807 # Ar
1882 1882 1 0.0 550.851578781377 141.25513890006124 69.60009852076541 # Ar
1883 1883 1 0.0 922.7432598399045 704.3500290358884 811.7284041976707 # Ar
1884 1884 1 0.0 556.4673331113049 240.8110194291451 826.8188690837096 # Ar
1885 1885 1 0.0 704.6984173687933 129.2084501866583 584.19505232755 # Ar
1886 1886 1 0.0 442.3998195254152 363.123635605504 332.8343294290209 # Ar
1887 1887 1 0.0 82.56938638203499 758.3842803428392 902.7479880332743 # Ar
1888 1888 1 0.0 900.9885286809888 722.2674191659571 825.7282477121026 # Ar
1889 1889 1 0.0 402.3447075398028 436.9015024008442 90.55652980285024 # Ar
1890 1890 1 0.0 576.6644275783657 632.9562692310271 589.6621581616313 # Ar
1891 1891 1 0.0 55.4470546109201 879.5621179609873 447.6287178630032 # Ar
1892 1892 1 0.0 209.50277603198327 835.7102407148119 850.1621284150002 # Ar
1893 1893 1 0.0 450.7170094733113 151.68479564439383 499.8885728926842 # Ar
1894 1894 1 0.0 514.2943043499185 641.9310699219866 466.97783551296624 # Ar
1895 1895 1 0.0 54.68051204202175 858.6405476832606 824.3762225531061 # Ar
1896 1896 1 0.0 570.5903006333778 831.5457969413069 933.2385212199706 # Ar
1897 1897 1 0.0 735.9264580630354 89.28873591512308 162.52516874662788 # Ar
1898 1898 1 0.0 113.59659897664703 538.2243212807704 686.0613315044221 # Ar
1899 1899 1 0.0 107.60117334554384 146.09139134221974 285.7636725215702 # Ar
1900 1900 1 0.0 890.3415069658895 841.9279644662939 359.6766799274358 # Ar
1901 1901 1 0.0 871.1848516443531 175.25387977618493 463.81216319211956 # Ar
1902 1902 1 0.0 186.62634396948982 930.5893387193751 88.39064783726741 # Ar
1903 1903 1 0.0 613.0111651171474 905.8799175160408 565.1821022685577 # Ar
1904 1904 1 0.0 559.4254764839477 692.1908377288156 481.0861092835539 # Ar
1905 1905 1 0.0 719.1586880403568 552.7676388537443 443.7347393735819 # Ar
1906 1906 1 0.0 225.42512682386644 591.5524811841445 352.89615519845313 # Ar
1907 1907 1 0.0 718.4462415863104 850.4497167947263 191.82885017143565 # Ar
1908 1908 1 0.0 591.4711379916446 806.6310377895849 846.731030100381 # Ar
1909 1909 1 0.0 295.3508776082564 901.957766753975 189.01180266633133 # Ar
1910 1910 1 0.0 46.466550856749315 321.6698050213258 167.45466116810954 # Ar
1911 1911 1 0.0 147.09945603397023 261.4216648429532 234.31695895105247 # Ar
1912 1912 1 0.0 761.5800518057094 875.0018740682708 353.49716870814484 # Ar
1913 1913 1 0.0 868.3426323183982 602.9650754189219 532.2654052320028 # Ar
1914 1914 1 0.0 759.3437429746645 378.76400165660584 523.5348191215264 # Ar
1915 1915 1 0.0 913.7157852843329 785.3607021351706 153.03993816613695 # Ar
1916 1916 1 0.0 51.7129128011329 599.8043200854062 311.3828903507151 # Ar
1917 1917 1 0.0 652.829859421864 922.7575190078657 837.9430184825758 # Ar
1918 1918 1 0.0 845.2020402102584 454.1796251629037 599.2586827537968 # Ar
1919 1919 1 0.0 542.7326273093139 371.2405534165927 276.5869136401378 # Ar
1920 1920 1 0.0 491.45701942103375 20.90780254630108 628.8776635010064 # Ar
1921 1921 1 0.0 687.2214324620212 394.8548048757047 513.1414356709877 # Ar
1922 1922 1 0.0 915.4577814900487 821.805573972514 175.2724507594134 # Ar
1923 1923 1 0.0 613.909393724634 525.5839132681518 6.7764720727447925 # Ar
1924 1924 1 0.0 461.8116734927247 420.2335191799258 577.8486229346444 # Ar
1925 1925 1 0.0 902.0379728351431 235.64145970574324 739.5875004543014 # Ar
1926 1926 1 0.0 747.5688190043949 422.37562651644777 82.74356595905844 # Ar
1927 1927 1 0.0 63.97096494191715 213.15310449787054 813.165283728094 # Ar
1928 1928 1 0.0 896.6580911881356 695.0028849156639 158.68440036421777 # Ar
1929 1929 1 0.0 431.0525490567559 637.2735200852222 391.11243484148076 # Ar
1930 1930 1 0.0 508.0699767837456 154.37925079274112 688.8102778717786 # Ar
1931 1931 1 0.0 568.6957429912667 125.85928444208231 845.959346805428 # Ar
1932 1932 1 0.0 347.32393083044076 198.3236076571288 323.07523966213546 # Ar
1933 1933 1 0.0 905.5699438451954 804.0357094070284 566.0669695024436 # Ar
1934 1934 1 0.0 354.2929931840996 513.0651609605143 870.5479782378177 # Ar
1935 1935 1 0.0 660.3457996184877 794.9652836441163 891.9088698070215 # Ar
1936 1936 1 0.0 351.6812607740398 234.23498259920632 90.77200525637322 # Ar
1937 1937 1 0.0 830.3556844526387 441.1121679182348 558.9617883333428 # Ar
1938 1938 1 0.0 61.443506940606206 540.8575971022655 746.530473770302 # Ar
1939 1939 1 0.0 849.2089276764231 178.9899591392983 233.29435406356833 # Ar
1940 1940 1 0.0 567.728046953174 764.9276381414389 867.8571076505926 # Ar
1941 1941 1 0.0 871.734540383165 401.46571308338184 329.0212355184812 # Ar
1942 1942 1 0.0 483.10868353834655 298.0080634051506 492.73527436028246 # Ar
1943 1943 1 0.0 583.906895229376 26.91688504373754 763.6093599110583 # Ar
1944 1944 1 0.0 52.62476355932649 803.5525373889241 368.82128549773824 # Ar
1945 1945 1 0.0 732.4700031172529 215.85127968925906 723.9274665426028 # Ar
1946 1946 1 0.0 363.88538296468124 649.8938717220254 580.5295574808073 # Ar
1947 1947 1 0.0 110.03250365043046 818.2733791233417 710.0060251528741 # Ar
1948 1948 1 0.0 586.9261276414604 7.889798430919978 441.03575492186025 # Ar
1949 1949 1 0.0 355.0892033134164 693.5315699255895 297.63879623918626 # Ar
1950 1950 1 0.0 348.38751880270473 742.7019306314754 900.1622095497347 # Ar
1951 1951 1 0.0 36.01556863727839 417.5272222846435 832.5671528647293 # Ar
1952 1952 1 0.0 330.9225174131803 105.15513189021173 396.34880787030573 # Ar
1953 1953 1 0.0 203.89387120107304 27.021683944005815 704.2845727653603 # Ar
1954 1954 1 0.0 180.52018540602356 326.4046887377766 400.8030074184766 # Ar
1955 1955 1 0.0 56.48999383054832 126.88608748878312 236.56595608482138 # Ar
1956 1956 1 0.0 799.736555785673 757.5056930627121 559.596088675218 # Ar
1957 1957 1 0.0 596.0132063859811 631.512301519811 19.597002071861123 # Ar
1958 1958 1 0.0 775.1161045561975 406.20904749393833 103.856326535406 # Ar
1959 1959 1 0.0 258.32207382577553 481.0081649803376 165.1824189910261 # Ar
1960 1960 1 0.0 681.910225616914 298.2185371932547 548.2296011305319 # Ar
1961 1961 1 0.0 503.9677139810929 894.9800851101533 156.96563654387853 # Ar
1962 1962 1 0.0 757.4148523401797 36.23746963211225 642.5704641319613 # Ar
1963 1963 1 0.0 134.27121693647632 798.0546920452167 900.1210501068759 # Ar
1964 1964 1 0.0 721.7803497793619 725.8486778726203 832.8801816416998 # Ar
1965 1965 1 0.0 44.847480234156414 226.53631802143522 700.7462859378127 # Ar
1966 1966 1 0.0 317.7411923922319 619.9636723729856 94.94176559449943 # Ar
1967 1967 1 0.0 189.13265043318765 150.7373032916908 87.11903696625045 # Ar
1968 1968 1 0.0 872.7136476728465 170.6786898887022 296.7093534356507 # Ar
1969 1969 1 0.0 276.94022104242794 268.14102260115095 433.05856554815574 # Ar
1970 1970 1 0.0 858.1485004877546 303.90784304609906 737.8496548934021 # Ar
1971 1971 1 0.0 234.00716647856072 676.3470709669039 146.18572430514206 # Ar
1972 1972 1 0.0 341.2488808756597 378.63044006193985 392.16137063140724 # Ar
1973 1973 1 0.0 118.7121962139158 827.5692002018254 450.80232001841284 # Ar
1974 1974 1 0.0 110.70823267622528 730.9351616299068 70.74006228629409 # Ar
1975 1975 1 0.0 612.1394073742139 723.9032362030309 907.9923360775979 # Ar
1976 1976 1 0.0 393.27804080376643 614.6392775648206 912.008654093647 # Ar
1977 1977 1 0.0 908.3499628832444 916.9382816342134 200.96361110605577 # Ar
1978 1978 1 0.0 716.3492898344008 724.9206237886648 219.61130883499615 # Ar
1979 1979 1 0.0 694.9899489917796 267.6381038686164 361.38545529839166 # Ar
1980 1980 1 0.0 385.6770325136378 236.55005634475683 48.43082232516835 # Ar
1981 1981 1 0.0 42.336942327405495 188.40670833632234 463.61104826341864 # Ar
1982 1982 1 0.0 873.4137720438815 462.43164259517937 434.7316395950804 # Ar
1983 1983 1 0.0 617.7385199838949 764.2087745342614 552.3360719445384 # Ar
1984 1984 1 0.0 225.17668160996104 149.06444050156173 22.123847408482014 # Ar
1985 1985 1 0.0 212.37963590637875 868.3444578476702 781.3766686168592 # Ar
1986 1986 1 0.0 316.5506828926988 176.17360539040564 683.8639748514009 # Ar
1987 1987 1 0.0 686.7427476630947 453.6135774528941 696.8663746291146 # Ar
1988 1988 1 0.0 193.15048361933887 719.3417002335361 666.3332542416081 # Ar
1989 1989 1 0.0 567.5857120112629 200.44786421705078 85.83847917301743 # Ar
1990 1990 1 0.0 582.4351479272642 22.341323173518028 723.5263318038924 # Ar
1991 1991 1 0.0 590.5565767877949 121.65352837124026 375.5920290204676 # Ar
1992 1992 1 0.0 470.2267976128453 304.8212422788653 862.1255811923952 # Ar
1993 1993 1 0.0 634.499308870502 134.1334181088067 37.635471370243025 # Ar
1994 1994 1 0.0 843.6230994438838 591.3275120858098 388.066462002087 # Ar
1995 1995 1 0.0 648.1362066713591 39.252234548909236 791.6683526544845 # Ar
1996 1996 1 0.0 724.4478045370722 483.14412140782423 208.71857137230552 # Ar
1997 1997 1 0.0 846.4860355804386 700.293982659194 322.72886333302574 # Ar
1998 1998 1 0.0 20.100556865353138 368.56955986588144 403.9846203349663 # Ar
1999 1999 1 0.0 757.5925376505451 578.3302177628972 766.1081647315982 # Ar
2000 2000 1 0.0 355.2784066232231 287.0940932783383 262.51465923005003 # Ar
