LAMMPS data file -- atom_style full -- generated by chemfiles
150 atoms
0 bonds
0 angles
0 dihedrals
0 impropers
2 atom types
0 bond types
0 angle types
0 dihedral types
0 improper types
0.00000000 1566.48599 xlo xhi
0.00000000 1566.48599 ylo yhi
0.00000000 1566.48599 zlo zhi

# Pair Coeffs
# 1 Ar
# 2 Ar+

Masses

1 39.948 # Ar
2 39.948 # Ar+

Atoms # full

1 1 1 0.0 1375.500789222644 1167.4604955680438 213.40066953062075 # Ar
2 2 1 0.0 500.39304998345153 9.766601831403237 532.9618533155623 # Ar
3 3 1 0.0 867.3057432232796 989.1368483235439 497.8873244525852 # Ar
4 4 1 0.0 318.6325355635063 1332.118312693091 1252.6056689724005 # Ar
5 5 1 0.0 412.10347047584474 1180.113837714108 516.5533344438026 # Ar
6 6 1 0.0 782.9305404909016 1160.6743696377803 1552.5680454627716 # Ar
7 7 1 0.0 383.13585374569504 1417.118031581509 24.30731054622625 # Ar
8 8 1 0.0 1539.8036080996867 499.3963310112346 99.80933961013122 # Ar
9 9 1 0.0 922.664633389357 65.79668720165274 670.4035944009177 # Ar
10 10 1 0.0 1332.1622585749644 1247.035618274701 373.9535634544412 # Ar
11 11 1 0.0 1498.5908966412817 1132.7117942318855 1252.8555410657045 # Ar
12 12 1 0.0 600.3087304654351 619.0304127624339 729.6000808922801 # Ar
13 13 1 0.0 1068.9706717065606 1315.7011811662971 446.3146524294698 # Ar
14 14 1 0.0 549.6353710335682 895.9863930233054 210.36902221169086 # Ar
15 15 1 0.0 479.1764948654622 804.0618941762805 1020.5266403050429 # Ar
16 16 1 0.0 597.3339653587343 1422.4928771274347 547.9189155747545 # Ar
17 17 1 0.0 1198.4415215170116 1103.006878922506 903.3062245052962 # Ar
18 18 1 0.0 1330.5762693637896 1046.3525084701844 687.3004858447936 # Ar
19 19 1 0.0 711.0028044773727 860.869519853125 624.4087646449083 # Ar
20 20 1 0.0 1277.4215787205937 575.7055649083967 152.54080491349524 # Ar
21 21 1 0.0 499.9699760112791 1549.1768689803873 334.8609972428625 # Ar
22 22 1 0.0 632.5464174461395 193.75467209339124 124.95026157504364 # Ar
23 23 1 0.0 53.986690422917434 150.0627006678248 1343.615811499945 # Ar
24 24 1 0.0 1034.8506867228125 440.99334343248194 827.3180224286145 # Ar
25 25 1 0.0 245.94798897804546 945.4348687078327 1330.8513964648694 # Ar
26 26 1 0.0 677.0928679274546 1064.4721906997563 579.1749895727424 # Ar
27 27 1 0.0 184.40738041722807 1160.2931675686457 419.07914196396405 # Ar
28 28 1 0.0 723.8105171441006 1292.6472188685414 609.7693673073105 # Ar
29 29 1 0.0 202.7082823853543 641.1231419360945 932.8790170976243 # Ar
30 30 1 0.0 722.759613024269 315.27584052164644 859.421428358472 # Ar
31 31 1 0.0 851.6000094984201 2.149104120254143 874.174825504709 # Ar
32 32 1 0.0 1204.4714120161104 375.410267462463 926.1597838573479 # Ar
33 33 1 0.0 799.0154654404085 293.4240834758634 1245.6637598802765 # Ar
34 34 1 0.0 578.5516230231726 391.0199466003269 178.7092752981002 # Ar
35 35 1 0.0 224.37202504859923 535.4838624099558 290.7049960204961 # Ar
36 36 1 0.0 227.9659566414102 772.8820738956911 1389.95895164308 # Ar
37 37 1 0.0 1245.3154853212557 337.83149505813867 1172.2367395457754 # Ar
38 38 1 0.0 35.59973900580937 1290.8495511457716 1544.1470229913134 # Ar
39 39 1 0.0 1186.5241911032897 760.3725843241677 1109.7450645571168 # Ar
40 40 1 0.0 578.4479030350026 1108.1186402878595 1530.1674166966798 # Ar
41 41 1 0.0 767.4834463835512 712.9967605956241 71.10935885147143 # Ar
42 42 1 0.0 1213.5832848548948 281.24811447531505 1302.2987463297998 # Ar
43 43 1 0.0 695.3935937389502 1185.6301222031084 419.21852343872524 # Ar
44 44 1 0.0 1118.5152695355705 771.4266902700642 192.82825932108526 # Ar
45 45 1 0.0 1177.5936799492388 837.9494212275126 1234.2076013092487 # Ar
46 46 1 0.0 1449.4314181104592 914.0728813062325 1255.0851448205844 # Ar
47 47 1 0.0 1334.7533294414736 308.96605396576217 1502.3822154198313 # Ar
48 48 1 0.0 111.23477759528566 203.12900970240707 796.1053145258189 # Ar
49 49 1 0.0 889.9044105700701 966.6691632557707 824.9874442648103 # Ar
50 50 1 0.0 1528.8253166930883 524.1257683222294 345.54757870484315 # Ar
51 51 1 0.0 802.2581193780004 16.23388494796358 865.5311632692758 # Ar
52 52 1 0.0 1137.2394022836752 725.511119949549 643.1435691138624 # Ar
53 53 1 0.0 131.52375377805762 1232.913342957405 1533.9788768652115 # Ar
54 54 1 0.0 412.81165226125665 1207.948758394561 523.9019912098205 # Ar
55 55 1 0.0 726.163033374629 1520.6339365117733 1324.9140482125551 # Ar
56 56 1 0.0 991.2962897757383 686.5539849824873 1201.5040378532544 # Ar
57 57 1 0.0 238.0318581913956 3.05228523845922 671.461137093301 # Ar
58 58 1 0.0 1344.4961291173652 909.6464979725662 1360.6434841649402 # Ar
59 59 1 0.0 1397.1900184717506 1298.526666049142 955.86766086967 # Ar
60 60 1 0.0 1303.7750219612121 579.6732677841749 1307.1725954406897 # Ar
61 61 2 0.0 1112.9796601790106 600.7081083623868 1402.9963583126296 # Ar+
62 62 2 0.0 820.3372107785464 1478.4496766177372 310.26945827978886 # Ar+
63 63 2 0.0 374.900447660671 630.6602513209589 1244.6840690238878 # Ar+
64 64 2 0.0 533.925274115199 1223.5168047528814 472.22255985211785 # Ar+
65 65 2 0.0 149.61024143190215 1380.519984679137 72.09001647931451 # Ar+
66 66 2 0.0 1438.2099359744327 872.4878698961901 1298.6826771997999 # Ar+
67 67 2 0.0 1380.466884554285 996.8902445001359 378.0131794002723 # Ar+
68 68 2 0.0 520.5822877675774 913.9785117141762 55.54834711547719 # Ar+
69 69 2 0.0 61.593012280038685 160.89022611023628 1063.5766515681185 # Ar+
70 70 2 0.0 1006.7277403814879 34.94731445582908 127.38334191811833 # Ar+
71 71 2 0.0 225.74932550826512 1010.9906401855417 1100.7324225980233 # Ar+
72 72 2 0.0 1037.3337153877 248.52930195142483 1135.030065389217 # Ar+
73 73 2 0.0 334.09667416000354 510.02947881639966 609.3425855780124 # Ar+
74 74 2 0.0 982.9909183188522 1322.3244113190992 1115.5189018772223 # Ar+
75 75 2 0.0 754.8799821580391 539.7946200077397 930.403636363681 # Ar+
76 76 2 0.0 584.1489863433969 671.8825202519913 770.3130120847395 # Ar+
77 77 2 0.0 541.6971547697239 554.8720359855024 1004.1220130837195 # Ar+
78 78 2 0.0 83.03630256127956 1394.392615212645 1504.605294990615 # Ar+
79 79 2 0.0 944.6057194762252 428.11379234454137 199.19713937677832 # Ar+
80 80 2 0.0 136.23591468268515 508.4298256709486 1273.8749982496684 # Ar+
81 81 2 0.0 487.012413272632 597.1086176725444 1055.700725120872 # Ar+
82 82 2 0.0 571.3068377812386 824.8726633355027 433.619851565854 # Ar+
83 83 2 0.0 656.0424817321548 1408.2188815893635 513.1466735219186 # Ar+
84 84 2 0.0 142.04381234186297 1148.44093300808 323.1317393848149 # Ar+
85 85 2 0.0 1174.6435803042689 645.6120085395798 888.5857430983154 # Ar+
86 86 2 0.0 256.5422088177742 644.6485475808271 840.4110890694741 # Ar+
87 87 2 0.0 1508.6232397423526 145.33383660863996 514.0124894907153 # Ar+
88 88 2 0.0 944.7967994362236 129.79691269341043 104.75987009362728 # Ar+
89 89 2 0.0 848.2507480274253 67.80341701116004 1378.4036877320007 # Ar+
90 90 2 0.0 958.5741560021426 1470.8332907377917 1127.0538534347852 # Ar+
91 91 2 0.0 757.4720439110245 900.6539853539914 1173.3951561541357 # Ar+
92 92 2 0.0 148.01115652145094 796.546191639646 404.8418413043279 # Ar+
93 93 2 0.0 370.27507330665406 1439.0849644950795 811.9677844582626 # Ar+
94 94 2 0.0 891.3655470550893 232.7616575233156 149.15947182579728 # Ar+
95 95 2 0.0 265.687186027589 23.537008897625867 974.9952563072209 # Ar+
96 96 2 0.0 29.707748808653093 1412.8376870421055 474.36130155460665 # Ar+
97 97 2 0.0 731.5424156793916 10.963075264910126 605.668652216303 # Ar+
98 98 2 0.0 1036.4122112288665 1252.0851402983212 610.9712361411058 # Ar+
99 99 2 0.0 976.4457496249212 494.3029271206667 890.3833466881999 # Ar+
100 100 2 0.0 1170.537286339501 758.8150537847251 410.19832238489823 # Ar+
101 101 2 0.0 1463.0608605114676 175.61079504401215 972.8682944007787 # Ar+
102 102 2 0.0 425.8295610529867 174.28188462958087 527.9884539786324 # Ar+
103 103 2 0.0 1500.2533056893988 73.77051618762555 393.3985298107414 # Ar+
104 104 2 0.0 1136.8405922214815 233.08746474643897 1034.2198567674707 # Ar+
105 105 2 0.0 1283.5497198010316 409.1287370784371 646.5175237926417 # Ar+
106 106 2 0.0 787.5801380245163 797.1939352485269 489.1287696955037 # Ar+
107 107 2 0.0 361.9003278062395 108.86251034701411 1484.3450558586942 # Ar+
108 108 2 0.0 50.4214414623584 571.8990100413876 1481.2016695163813 # Ar+
109 109 2 0.0 1526.594875282312 336.3751391882141 1327.2813591976662 # Ar+
110 110 2 0.0 1348.6789667934154 1217.9841849657423 597.775871252169 # Ar+
111 111 2 0.0 862.0051841112476 1345.1043116982762 184.44490084000543 # Ar+
112 112 2 0.0 694.2498510984032 615.6447862932205 320.03240012530256 # Ar+
113 113 2 0.0 1214.4005548828227 246.71786418195038 1506.4470600803572 # Ar+
114 114 2 0.0 1142.5574026968584 874.303274379273 610.7531004773361 # Ar+
115 115 2 0.0 707.4327918277678 1038.7500578494264 1172.3951747312603 # Ar+
116 116 2 0.0 1066.8232333577182 790.4328058695412 1231.0281887786693 # Ar+
117 117 2 0.0 508.38272986686275 21.47541368862792 1313.17114443834 # Ar+
118 118 2 0.0 219.89324894510773 1531.790579616491 712.6995111657991 # Ar+
119 119 2 0.0 1349.9338529866823 1233.6367054504988 1451.0088029748342 # Ar+
120 120 2 0.0 57.120838743254744 489.32834680644186 1205.2309191724953 # Ar+
121 121 2 0.0 1306.5160442677213 699.1432077394774 1529.5069092255897 # Ar+
122 122 2 0.0 746.8522533618523 862.7802993657134 310.80673472232394 # Ar+
123 123 2 0.0 1301.0057687131837 110.57542891450571 401.2482502732567 # Ar+
124 124 2 0.0 485.6780600623396 1212.345883486788 1519.4177736764047 # Ar+
125 125 2 0.0 1100.8741879088254 1475.929781199444 460.7221215075666 # Ar+
126 126 2 0.0 1010.6436076110135 803.5533265294087 1195.058693754955 # Ar+
127 127 2 0.0 259.1921138018124 255.44938511340297 187.5067935220575 # Ar+
128 128 2 0.0 198.69436019591186 566.1018351880657 1464.460555483487 # Ar+
129 129 2 0.0 1103.593523200991 999.1727007797091 1369.8377188593659 # Ar+
130 130 2 0.0 298.7681944872456 318.88395086715275 1022.4276971931494 # Ar+
131 131 2 0.0 296.29484050355285 181.62266330172628 716.6678478697329 # Ar+
132 132 2 0.0 553.8644483449051 1039.0995607200655 1476.0759570770326 # Ar+
133 133 2 0.0 1032.4848339331977 597.0008520260236 266.672713908027 # Ar+
134 134 2 0.0 1346.1373899390692 328.5640292710447 651.2803348656854 # Ar+
135 135 2 0.0 369.89239715472263 1426.860004523682 1404.4228062996015 # Ar+
136 136 2 0.0 606.8106141891219 1079.2050293511377 894.6164327311908 # Ar+
137 137 2 0.0 496.3382051654306 1130.3135740068549 957.4066792804197 # Ar+
138 138 2 0.0 1045.2541163280418 370.8135518834993 252.99674797610678 # Ar+
139 139 2 0.0 45.00452310102112 107.36855209992191 1373.9873172696575 # Ar+
140 140 2 0.0 1159.3422523013517 462.4488486246847 79.73748524157918 # Ar+
141 141 2 0.0 1161.3219744201306 22.088252396020383 1344.2071469752457 # Ar+
142 142 2 0.0 1274.6861401151064 792.7155202476281 55.466605318919484 # Ar+
143 143 2 0.0 454.7824521209146 1525.2077369622484 1284.7941759866353 # Ar+
144 144 2 0.0 859.1138215465542 1492.883563189596 396.2351583890607 # Ar+
145 145 2 0.0 1401.8799827336993 1533.9647724062372 1219.430617460199 # Ar+
146 146 2 0.0 431.2260973743924 1027.844383616982 1144.9501520014044 # Ar+
147 147 2 0.0 119.20529652599215 22.88503843669337 63.72649975101831 # Ar+
148 148 2 0.0 36.01115488089698 1413.1133957379332 934.8284014789565 # Ar+
149 149 2 0.0 466.9460306549531 1263.9825978855786 287.51192272289217 # Ar+
150 150 2 0.0 838.5016109891274 430.1399434529083 405.5143302003647 # Ar+
