LAMMPS data file -- atom_style full -- generated by chemfiles
2000 atoms
0 bonds
0 angles
0 dihedrals
0 impropers
1 atom types
0 bond types
0 angle types
0 dihedral types
0 improper types
0.00000000 648.334136 xlo xhi
0.00000000 648.334136 ylo yhi
0.00000000 648.334136 zlo zhi

# Pair Coeffs
# 1 Ar

Masses

1 39.948 # Ar

Atoms # full

1 1 1 0.0 111.62025449424884 636.9629051219891 457.68712048958326 # Ar
2 2 1 0.0 311.95909237065314 588.8635554204467 80.51548325216987 # Ar
3 3 1 0.0 11.30662689164417 48.48216526482563 435.831858986407 # Ar
4 4 1 0.0 469.7815118101486 321.7810150322911 572.5262718392268 # Ar
5 5 1 0.0 366.63829758317706 26.931518083516067 90.46351466543256 # Ar
6 6 1 0.0 553.5906272353582 236.96559688665945 350.0203313160947 # Ar
7 7 1 0.0 163.3495861970112 440.49426813243485 347.6459483613523 # Ar
8 8 1 0.0 463.51143338335976 29.252582100955898 224.01781545085376 # Ar
9 9 1 0.0 321.0440038812714 579.8843671785539 388.0047162277309 # Ar
10 10 1 0.0 369.7203892844031 123.9278926310772 586.9144137358785 # Ar
11 11 1 0.0 509.91223987717467 224.82896146317833 246.70490627016852 # Ar
12 12 1 0.0 631.4338531130367 93.383460241693 405.3797114273866 # Ar
13 13 1 0.0 362.8094785385949 642.9661602219327 87.20914816845166 # Ar
14 14 1 0.0 630.9098264708717 335.1188198398381 361.1179508554073 # Ar
15 15 1 0.0 164.70996220028067 359.2881665609628 212.21912642753782 # Ar
16 16 1 0.0 495.31966840075677 89.55175646407947 305.6332150194041 # Ar
17 17 1 0.0 20.603318432394584 375.28125169463067 434.6433846408864 # Ar
18 18 1 0.0 69.8443505928642 571.6293251077935 495.63835421332465 # Ar
19 19 1 0.0 507.59877833665877 385.35305759379287 602.0206571335675 # Ar
20 20 1 0.0 376.6495156024795 269.01611939245436 544.9577186907319 # Ar
21 21 1 0.0 169.31250400012368 63.51014981425025 332.83520518537944 # Ar
22 22 1 0.0 404.53102637039484 65.6391422085413 481.73513473305314 # Ar
23 23 1 0.0 277.4582009388557 245.40052858052036 169.6235688546305 # Ar
24 24 1 0.0 499.27017178725424 95.77770690656014 431.51651011621317 # Ar
25 25 1 0.0 370.83245884289795 486.66935991431876 203.88567928166975 # Ar
26 26 1 0.0 247.75688410411072 192.31884763662336 295.16708896887314 # Ar
27 27 1 0.0 513.9534678174797 602.9479514022328 155.98646822314169 # Ar
28 28 1 0.0 601.4789363905168 573.3078049039298 35.27631532958231 # Ar
29 29 1 0.0 369.3837728049474 520.0197710081868 642.0063820075953 # Ar
30 30 1 0.0 491.36967543896054 342.59850725519215 432.94640649503384 # Ar
31 31 1 0.0 370.3122190596745 122.72156664873513 380.7167803903739 # Ar
32 32 1 0.0 469.9502056227636 6.183538615524271 517.0125231129024 # Ar
33 33 1 0.0 305.0769022260349 360.8709205268389 101.31036118399577 # Ar
34 34 1 0.0 580.6780700925115 342.3298022807584 265.8361220983209 # Ar
35 35 1 0.0 600.1209946651494 244.95564740152565 388.9217606804377 # Ar
36 36 1 0.0 567.0546290463195 3.5519246068126664 530.3390954870458 # Ar
37 37 1 0.0 76.92087084680595 398.11799197717136 484.52657509668194 # Ar
38 38 1 0.0 523.5074803590497 482.8407432593061 308.4364151111435 # Ar
39 39 1 0.0 317.82972286373956 631.8263400914434 61.4112327571686 # Ar
40 40 1 0.0 528.4267573046831 6.616238554509068 356.02982147421955 # Ar
41 41 1 0.0 231.1913561435735 620.7448946282055 578.5044904847573 # Ar
42 42 1 0.0 514.0828346108226 443.4094388201431 147.94962150157014 # Ar
43 43 1 0.0 105.90306920845181 338.1430257489938 402.8584662396533 # Ar
44 44 1 0.0 0.3010772472626106 266.64276264683883 560.0075321444949 # Ar
45 45 1 0.0 277.28989786682666 235.26177118428726 370.3293349378675 # Ar
46 46 1 0.0 54.35750939297844 548.721770324743 147.3144311711792 # Ar
47 47 1 0.0 421.0052294482293 213.0894978696884 141.9354411199073 # Ar
48 48 1 0.0 390.63274384997266 625.6357631549971 41.32831424230588 # Ar
49 49 1 0.0 226.89579874192347 340.2986244157064 232.2010888700824 # Ar
50 50 1 0.0 460.4118527767648 385.24657102865 474.11829655269906 # Ar
51 51 1 0.0 542.8044506958165 340.3907422749002 577.1591462192716 # Ar
52 52 1 0.0 586.965092054245 310.6315622763183 478.39163757184355 # Ar
53 53 1 0.0 418.25378948224244 13.264702852450274 527.7525905068902 # Ar
54 54 1 0.0 468.70225667466684 505.03865252945445 602.3804168827616 # Ar
55 55 1 0.0 468.5623642776815 31.811222531550953 269.3042968949325 # Ar
56 56 1 0.0 325.0656623361855 527.1465004593925 269.4329412587118 # Ar
57 57 1 0.0 128.33981369161498 197.5611361880518 308.1566848028056 # Ar
58 58 1 0.0 321.5638716078945 42.97717488319228 525.9123358716147 # Ar
59 59 1 0.0 511.3260434484136 135.0588033764613 239.88323202598357 # Ar
60 60 1 0.0 230.86512228036867 643.5488638110136 129.41434360885776 # Ar
61 61 1 0.0 287.01645889053754 579.6191222717295 469.0642264788337 # Ar
62 62 1 0.0 245.50340971550688 400.35494504663114 454.2932637678847 # Ar
63 63 1 0.0 71.97739437698087 87.01684115182294 424.8283163999632 # Ar
64 64 1 0.0 30.050885025172416 339.42851302889915 355.7898271125533 # Ar
65 65 1 0.0 628.9315183712743 175.17867091677718 415.85525998607307 # Ar
66 66 1 0.0 87.50971896933676 470.1740729690347 73.20748729497103 # Ar
67 67 1 0.0 98.79650806162176 35.74481637245219 346.26783989293045 # Ar
68 68 1 0.0 570.5621788410266 235.420313968887 166.6239076278282 # Ar
69 69 1 0.0 268.02935325735496 436.88309606974366 251.46257868516489 # Ar
70 70 1 0.0 282.1505920871165 495.6195445030076 228.85437455439578 # Ar
71 71 1 0.0 228.2716608486572 155.4496174529128 632.5724076165721 # Ar
72 72 1 0.0 268.8365440263857 557.5269182542681 439.1021392710378 # Ar
73 73 1 0.0 353.24012425719235 277.4224547080652 124.7466932631364 # Ar
74 74 1 0.0 501.07454497485315 384.8366030178408 490.3525884710406 # Ar
75 75 1 0.0 471.2112016340664 285.5415710398353 294.14224935453524 # Ar
76 76 1 0.0 36.05284453850327 140.93284101087306 388.39776736616005 # Ar
77 77 1 0.0 427.7486418578956 186.70119007694404 140.03768246953925 # Ar
78 78 1 0.0 423.7687327740698 339.96387840428594 473.22695451192595 # Ar
79 79 1 0.0 355.3742357398552 362.47182475528047 300.76362919129895 # Ar
80 80 1 0.0 168.00898515796337 191.78548551944985 518.0871577158293 # Ar
81 81 1 0.0 5.924223633230322 422.61858795328953 210.41017430487963 # Ar
82 82 1 0.0 505.0410293246322 507.52437727233723 188.04458235618483 # Ar
83 83 1 0.0 309.2439856996043 68.72128746895565 458.80752472879146 # Ar
84 84 1 0.0 208.8824812543817 634.6682042339938 292.7901546042845 # Ar
85 85 1 0.0 618.9023377423046 257.7752713626162 100.08071365425693 # Ar
86 86 1 0.0 245.85166289737148 253.05407113051868 161.7616968521456 # Ar
87 87 1 0.0 462.56651281552024 129.882659039705 349.5387940937339 # Ar
88 88 1 0.0 339.54014623497824 194.97436261367005 329.1864661039458 # Ar
89 89 1 0.0 624.5786927193041 297.11208132487985 56.2087521076079 # Ar
90 90 1 0.0 467.5806340947806 594.5477842465002 73.0329533438142 # Ar
91 91 1 0.0 175.96244797549588 382.3422679496387 131.97389018057478 # Ar
92 92 1 0.0 530.2839492866117 162.5578087051919 445.6626611055365 # Ar
93 93 1 0.0 239.17699840716554 110.66199594917926 149.26746677213166 # Ar
94 94 1 0.0 259.40092421800387 46.60874460861084 51.5069173178255 # Ar
95 95 1 0.0 258.9121614546308 584.3698709981861 288.2296239900731 # Ar
96 96 1 0.0 269.09490111530556 372.47951129850816 111.28327992868195 # Ar
97 97 1 0.0 491.35488083257246 196.73198235534747 422.67469373040353 # Ar
98 98 1 0.0 359.236752068955 430.3829659514091 606.320641562986 # Ar
99 99 1 0.0 59.48480288835759 354.93196623689823 70.00323272245295 # Ar
100 100 1 0.0 301.1571158234148 256.1121625373163 546.7784910071849 # Ar
101 101 1 0.0 190.38138047996725 168.8951990958164 419.7714201675171 # Ar
102 102 1 0.0 413.66091244038853 0.20690714080893433 114.97289132631049 # Ar
103 103 1 0.0 499.53795518441984 79.85828033714127 110.63128414007824 # Ar
104 104 1 0.0 45.85395778184002 343.3166504339643 499.5185109512352 # Ar
105 105 1 0.0 456.76039449504424 242.92250190535484 452.3185414323066 # Ar
106 106 1 0.0 366.45041621186135 67.38724160231811 570.4114307741534 # Ar
107 107 1 0.0 110.72788209425416 143.82647180954382 574.8876030728368 # Ar
108 108 1 0.0 98.44129446617265 262.6491339286817 111.04316161474553 # Ar
109 109 1 0.0 388.15442986921 145.97071263133358 60.056923340085255 # Ar
110 110 1 0.0 1.3828386160026653 497.129002233429 147.34256895357152 # Ar
111 111 1 0.0 428.30863841230274 485.89033703494795 319.1605181110768 # Ar
112 112 1 0.0 232.38990742652794 29.133679879121697 505.1457170500817 # Ar
113 113 1 0.0 34.36603878709841 483.09399840042306 261.490942136473 # Ar
114 114 1 0.0 102.10960806119644 258.7678488888203 152.84599181904176 # Ar
115 115 1 0.0 498.07494116657966 174.91357620524772 402.76458552492625 # Ar
116 116 1 0.0 81.07818882285255 219.57197329664726 317.8913370165686 # Ar
117 117 1 0.0 434.9059830915825 147.1638761058559 291.4156350126507 # Ar
118 118 1 0.0 36.148922261111586 102.94208440286008 347.176320870556 # Ar
119 119 1 0.0 595.8816915247526 194.96176530442733 339.73157977935745 # Ar
120 120 1 0.0 126.59958463189037 303.17456202908164 8.628554979213378 # Ar
121 121 1 0.0 5.248275733457627 280.39161025964466 183.6271287739379 # Ar
122 122 1 0.0 254.99086654506144 365.35427086005944 433.7210567321546 # Ar
123 123 1 0.0 301.17294886718844 391.31107544823413 402.6222339605169 # Ar
124 124 1 0.0 635.4813343482813 105.44215184325684 27.243893033372007 # Ar
125 125 1 0.0 57.83214602303976 102.65101666485062 320.8660334612953 # Ar
126 126 1 0.0 319.207896485629 184.1944344065636 198.97207071129768 # Ar
127 127 1 0.0 342.8609248322055 429.908131490971 454.9381387446685 # Ar
128 128 1 0.0 125.41630784874118 637.0907550173498 322.614056239287 # Ar
129 129 1 0.0 626.2116432397007 539.9876004908525 193.12096168130478 # Ar
130 130 1 0.0 249.61603296940783 276.28544647735794 31.391359038708597 # Ar
131 131 1 0.0 330.3059656887091 332.11009884567414 84.18353497659291 # Ar
132 132 1 0.0 367.4485683258034 507.3425058892859 490.9214631614837 # Ar
133 133 1 0.0 371.0859121673661 636.6867118870892 248.25575070327068 # Ar
134 134 1 0.0 138.50548956628268 446.5676557270387 646.1269556202452 # Ar
135 135 1 0.0 128.4777752647929 413.37752311583506 333.29218497484186 # Ar
136 136 1 0.0 29.82692101227848 547.0266366536359 377.62704774467426 # Ar
137 137 1 0.0 126.78012566881199 585.8055865588946 215.86703304389926 # Ar
138 138 1 0.0 101.90175966725508 521.2824445692374 205.18464153542595 # Ar
139 139 1 0.0 112.05408451942915 639.3004245803986 124.15641282598534 # Ar
140 140 1 0.0 357.4990927172033 632.9635768852414 575.820871197001 # Ar
141 141 1 0.0 318.1867731046787 557.0337485176055 579.135113382407 # Ar
142 142 1 0.0 314.9821549108961 95.34991241232996 390.45254199668955 # Ar
143 143 1 0.0 316.9809820750513 409.4323333259955 512.7238879698249 # Ar
144 144 1 0.0 110.02174761903188 71.36749922287179 49.267315011783424 # Ar
145 145 1 0.0 85.49412507908477 610.2665031226355 348.86887847087337 # Ar
146 146 1 0.0 159.49384399171174 500.5384701017182 509.86184294045347 # Ar
147 147 1 0.0 604.067314884805 627.1344363321525 247.90238149810378 # Ar
148 148 1 0.0 404.5871264953091 319.90092711556434 606.5879120803355 # Ar
149 149 1 0.0 145.39803577730177 365.5487733728309 230.12436750713852 # Ar
150 150 1 0.0 454.1433361044065 432.9861225871425 387.43491079168643 # Ar
151 151 1 0.0 240.9853924871588 567.4754255377029 209.43330274111452 # Ar
152 152 1 0.0 181.03308628720035 331.0040314473995 424.5885634768128 # Ar
153 153 1 0.0 320.06240281718345 615.708013913604 550.2993747977231 # Ar
154 154 1 0.0 162.99972903350425 217.3099404260512 288.74805902930785 # Ar
155 155 1 0.0 495.5327625922874 81.39885091726093 304.8842266380983 # Ar
156 156 1 0.0 631.3290844050503 599.7784387205108 525.7612500447715 # Ar
157 157 1 0.0 609.4599065038675 503.8903882819869 357.3593613939258 # Ar
158 158 1 0.0 616.3295372737867 159.7492274477071 287.97638964347095 # Ar
159 159 1 0.0 590.9463772355211 213.0418815698256 454.0012354426204 # Ar
160 160 1 0.0 572.2538991981856 79.95334371246891 177.21709952928978 # Ar
161 161 1 0.0 376.8231579462866 456.0865534674482 282.9517783147738 # Ar
162 162 1 0.0 549.7546993582976 269.9776934878547 265.0757931373406 # Ar
163 163 1 0.0 335.39468597488246 205.0136885270362 620.5077031119481 # Ar
164 164 1 0.0 156.6800363904646 373.6170857897615 226.0671154816801 # Ar
165 165 1 0.0 603.0129782125757 243.89387752474778 173.4891927813965 # Ar
166 166 1 0.0 444.66611832917073 586.3747983704145 540.7459718175577 # Ar
167 167 1 0.0 502.4807257195561 293.24805115422953 638.490709820629 # Ar
168 168 1 0.0 240.3747625027678 500.9224746188287 34.63374673127252 # Ar
169 169 1 0.0 203.11687180584417 47.17325036367588 548.8756410873812 # Ar
170 170 1 0.0 510.40888224995064 51.87143516250516 42.97814836463729 # Ar
171 171 1 0.0 165.0143601589072 455.5800100240009 555.4148403002778 # Ar
172 172 1 0.0 432.24678382063234 457.8556656770502 376.817367809421 # Ar
173 173 1 0.0 443.775822657619 501.8682524577909 287.7854069487031 # Ar
174 174 1 0.0 568.6534536426105 397.8171899762211 461.24648126524625 # Ar
175 175 1 0.0 350.49191933855167 267.62860561535706 618.5224252872003 # Ar
176 176 1 0.0 75.71192753172897 408.7100177206794 8.44166976314275 # Ar
177 177 1 0.0 517.4084923973284 566.8959520908967 452.4272265386927 # Ar
178 178 1 0.0 352.8560566814423 515.0699084780156 467.0557982059575 # Ar
179 179 1 0.0 197.5294834393065 78.81502734574413 618.0204261401502 # Ar
180 180 1 0.0 359.8062933433417 600.3190691052896 628.634533417043 # Ar
181 181 1 0.0 292.1979094110131 242.49930153114002 375.9180649696206 # Ar
182 182 1 0.0 549.4730521440246 239.1954476327876 53.8649738061382 # Ar
183 183 1 0.0 238.6720930583436 34.15350567457184 164.71436789551325 # Ar
184 184 1 0.0 645.0488789747269 92.69639735510191 418.34087861356625 # Ar
185 185 1 0.0 514.0236103032905 255.093608530454 400.48130766348004 # Ar
186 186 1 0.0 307.5862170617026 552.8341939430398 302.8734413425894 # Ar
187 187 1 0.0 120.50000364694284 16.06674247318259 425.52219274114947 # Ar
188 188 1 0.0 112.668479829425 179.5071271034004 525.6645838313981 # Ar
189 189 1 0.0 62.037772065508015 98.40275842734252 169.86665018967722 # Ar
190 190 1 0.0 366.7832183596218 69.16795690936937 358.2461335790234 # Ar
191 191 1 0.0 407.7524041017485 285.58655513655407 420.89741449319723 # Ar
192 192 1 0.0 640.9162311567326 612.4572556675674 466.1690226999174 # Ar
193 193 1 0.0 269.9997565922832 477.9241562000701 10.076048045927049 # Ar
194 194 1 0.0 427.47695631646457 7.58029660042228 374.9236534983126 # Ar
195 195 1 0.0 225.6843470723461 218.1029278606598 216.91383897580945 # Ar
196 196 1 0.0 501.4113174916018 573.6906645504223 217.508964413254 # Ar
197 197 1 0.0 461.32033415034005 291.42122142513796 429.6899293795049 # Ar
198 198 1 0.0 535.1510149697282 98.5402837142663 275.61306255851594 # Ar
199 199 1 0.0 83.58589783580284 23.8399215261893 621.18236639624 # Ar
200 200 1 0.0 1.2178574835832503 458.6315586395826 383.5420168648235 # Ar
201 201 1 0.0 502.1787375050313 484.57102200035905 507.1965075941869 # Ar
202 202 1 0.0 114.80090502499004 408.46352705764417 644.1648657240343 # Ar
203 203 1 0.0 378.3322979589474 437.9212487853481 580.385439120611 # Ar
204 204 1 0.0 323.4594536964198 489.95758941239376 91.36035887357349 # Ar
205 205 1 0.0 29.360746654601822 58.211845269021424 447.6124222734051 # Ar
206 206 1 0.0 88.57378121928271 246.98867845745488 633.0509224920277 # Ar
207 207 1 0.0 249.99076951468098 146.80748619590844 492.8161621970608 # Ar
208 208 1 0.0 228.45462911024148 172.1945166484641 327.54851257735453 # Ar
209 209 1 0.0 459.76527771084653 459.3326573705286 149.69597305219204 # Ar
210 210 1 0.0 535.6960462926609 422.7912139360378 75.06069787014576 # Ar
211 211 1 0.0 124.27049496183064 511.4518096461016 365.41443591076955 # Ar
212 212 1 0.0 514.3317496244547 486.16592781502607 220.17396347069317 # Ar
213 213 1 0.0 155.02752844053836 123.24125833541233 124.75975217621544 # Ar
214 214 1 0.0 374.9489455593905 323.1117545126192 582.950462884679 # Ar
215 215 1 0.0 202.58477826654217 22.023035500729897 376.4580492846405 # Ar
216 216 1 0.0 141.9768803396275 222.4421378217267 25.298144199128156 # Ar
217 217 1 0.0 306.78382887094375 31.647534599839428 556.4078774895802 # Ar
218 218 1 0.0 44.55975780177338 52.36082414781944 282.48580706401515 # Ar
219 219 1 0.0 8.558632394923526 235.03326823655212 369.6183007241836 # Ar
220 220 1 0.0 472.1990421819057 172.56570874531639 123.5022988936817 # Ar
221 221 1 0.0 539.4880819800369 478.60332815735467 117.1563384022235 # Ar
222 222 1 0.0 607.9205100873031 154.1475036014307 296.79787568436353 # Ar
223 223 1 0.0 448.92055313071864 625.3032548051154 570.1341739437155 # Ar
224 224 1 0.0 87.35912663242111 194.59805135158288 168.08049816270943 # Ar
225 225 1 0.0 485.12436444051986 606.9597978343663 210.8066287611128 # Ar
226 226 1 0.0 287.4297956646168 444.1360439140587 56.5137072279936 # Ar
227 227 1 0.0 363.2278563988921 584.0998233457176 563.3040545531062 # Ar
228 228 1 0.0 122.2967906573181 142.13543314758584 90.46211087755059 # Ar
229 229 1 0.0 608.1144913154666 454.23854315245063 141.8009708198601 # Ar
230 230 1 0.0 47.81858069597446 641.7817782645116 272.3434640385653 # Ar
231 231 1 0.0 338.6508405189313 587.678306889749 516.3940483288603 # Ar
232 232 1 0.0 563.5627336969661 141.0620390384053 107.51759299477338 # Ar
233 233 1 0.0 267.8760464088738 323.14467365424014 311.4521589169935 # Ar
234 234 1 0.0 316.768249778926 116.05236926303313 92.54459074769224 # Ar
235 235 1 0.0 315.55404497483147 451.32332376824826 38.26847274664303 # Ar
236 236 1 0.0 149.5187359786782 66.26909450869101 178.56232448256685 # Ar
237 237 1 0.0 315.1419039247999 135.74256255972028 311.8189787814629 # Ar
238 238 1 0.0 238.9316172732552 511.49963961631147 262.18127452190515 # Ar
239 239 1 0.0 281.3148405052205 604.236617947575 154.90673040011455 # Ar
240 240 1 0.0 448.4182430259053 243.36879140818817 629.7777575308133 # Ar
241 241 1 0.0 483.58984542602076 139.14579628591233 242.60166064740199 # Ar
242 242 1 0.0 156.34205498789757 217.3275483836464 545.6524757415634 # Ar
243 243 1 0.0 121.29841246574512 528.7880399002584 417.1986925038565 # Ar
244 244 1 0.0 162.86440864272436 509.09696103172007 260.72286023117294 # Ar
245 245 1 0.0 219.16148239397535 551.1866937863427 463.1323170962147 # Ar
246 246 1 0.0 215.72232691829106 217.8595834496961 258.8582823025677 # Ar
247 247 1 0.0 136.43010599951808 54.3502876853526 605.3899179672823 # Ar
248 248 1 0.0 295.0913721007002 236.38858141129307 384.37008238095154 # Ar
249 249 1 0.0 206.3516449799697 467.5830269248165 241.7465360111256 # Ar
250 250 1 0.0 412.0434938453122 192.17849889205692 557.0589766715725 # Ar
251 251 1 0.0 67.49436615022567 552.7899362647994 374.99700370384164 # Ar
252 252 1 0.0 142.80811890425707 411.69889905005164 608.1579863871306 # Ar
253 253 1 0.0 311.77663534871823 342.6576972373916 581.2495259970777 # Ar
254 254 1 0.0 136.64389209955687 385.50163061530475 374.07433531047593 # Ar
255 255 1 0.0 340.1091925665276 124.02285039506761 303.7088213414503 # Ar
256 256 1 0.0 352.9631544019026 19.769953727749577 346.5851019417865 # Ar
257 257 1 0.0 300.98110690861256 300.77788348615536 393.32306993011684 # Ar
258 258 1 0.0 160.77626659239942 432.88711493012863 50.70017097344835 # Ar
259 259 1 0.0 256.1139736849879 85.77974706960845 480.5747662100431 # Ar
260 260 1 0.0 32.49276626483794 382.94349622372016 228.3269507348848 # Ar
261 261 1 0.0 65.60314925045597 387.8726259596015 206.06827631231698 # Ar
262 262 1 0.0 92.62795144829866 130.45036119955753 406.7372523583333 # Ar
263 263 1 0.0 132.90465065111724 332.20784553445634 548.4925387680241 # Ar
264 264 1 0.0 502.7286971621437 293.7581833025631 281.26247795756524 # Ar
265 265 1 0.0 648.1660936219744 199.93412070417287 580.0488785321766 # Ar
266 266 1 0.0 418.7114812532313 235.12120599887993 575.3150066281969 # Ar
267 267 1 0.0 567.5778894677352 235.64775490327423 430.5007693708462 # Ar
268 268 1 0.0 158.1714413026897 345.49580547825974 542.5665189458946 # Ar
269 269 1 0.0 424.1324591401632 627.7905031137653 13.71182531731684 # Ar
270 270 1 0.0 423.1423185908056 59.73166101971896 89.63563352207802 # Ar
271 271 1 0.0 458.76577382858244 283.16273569592545 514.1210249933205 # Ar
272 272 1 0.0 168.43046879525596 516.8298307754003 45.822425237393745 # Ar
273 273 1 0.0 19.610119972644036 301.46151737306707 296.89530365640076 # Ar
274 274 1 0.0 416.2294745968706 221.92944782989434 276.4029760085325 # Ar
275 275 1 0.0 511.30863652675947 301.8401097426295 474.4617061989348 # Ar
276 276 1 0.0 578.2725868370346 255.9574504547132 525.2537540632184 # Ar
277 277 1 0.0 501.0529366657077 205.20623613945384 369.36927602560354 # Ar
278 278 1 0.0 190.22651061696078 402.9166703019097 418.29974324843386 # Ar
279 279 1 0.0 272.8284851257253 557.5976868784746 268.92147178072776 # Ar
280 280 1 0.0 495.0805352226799 90.95537478350117 96.9573995096205 # Ar
281 281 1 0.0 165.33510292194796 425.9628676335702 464.33049319703736 # Ar
282 282 1 0.0 410.92233497149044 259.06862911614866 319.9087410248855 # Ar
283 283 1 0.0 241.95223918999292 541.7353427874399 444.9726915249313 # Ar
284 284 1 0.0 618.0886837885331 271.01568574209347 584.6181963716199 # Ar
285 285 1 0.0 2.74514135923545 373.71370164208247 508.21923685459444 # Ar
286 286 1 0.0 406.1134994065055 427.625201065288 209.16701852074587 # Ar
287 287 1 0.0 552.349953736873 262.6667957480511 304.7971456637217 # Ar
288 288 1 0.0 26.83032073838631 327.7483747750348 430.3920845419859 # Ar
289 289 1 0.0 506.6235838705011 558.3916193074449 372.6266543116722 # Ar
290 290 1 0.0 68.68351573062137 91.51717395734678 417.81753775730493 # Ar
291 291 1 0.0 189.7860139716432 410.2603778215492 326.56645960117885 # Ar
292 292 1 0.0 285.2532254587313 284.2694161350781 313.99406207582746 # Ar
293 293 1 0.0 561.678527719353 386.32344391383396 122.2650181176411 # Ar
294 294 1 0.0 12.931197105865484 256.445890432955 228.5954254499578 # Ar
295 295 1 0.0 359.89969349049323 8.768964943980981 380.2288261029621 # Ar
296 296 1 0.0 541.3941276165808 403.5437664012353 518.9274929827608 # Ar
297 297 1 0.0 211.69166895434233 643.030354511754 354.2625440948582 # Ar
298 298 1 0.0 283.8304025217603 25.393736613679284 562.1354876500696 # Ar
299 299 1 0.0 326.11216307438355 476.1159905828375 398.5770751452849 # Ar
300 300 1 0.0 315.7879663819685 387.1079672916091 217.73509337699585 # Ar
301 301 1 0.0 190.21181537218456 118.93745400956968 211.49194914785215 # Ar
302 302 1 0.0 538.305829740974 226.7252055516013 617.6916956344678 # Ar
303 303 1 0.0 209.48022656347558 332.4903484058887 54.748709094993146 # Ar
304 304 1 0.0 520.0774630483979 40.5244848780157 416.82634399552165 # Ar
305 305 1 0.0 289.242816623293 241.81887754540352 390.50458768420987 # Ar
306 306 1 0.0 320.93431411364685 619.9052065029341 196.39495282751454 # Ar
307 307 1 0.0 516.1105972238171 410.2227541613357 394.74427540180545 # Ar
308 308 1 0.0 124.52214771971293 640.2931822522294 60.884536658567406 # Ar
309 309 1 0.0 391.4797993120979 409.6018754357837 120.10165737259332 # Ar
310 310 1 0.0 255.52991257321105 572.5278040471649 164.9460333479214 # Ar
311 311 1 0.0 262.37677580103684 262.35799945010734 444.51334441617604 # Ar
312 312 1 0.0 94.00994686077752 45.011832451145324 94.98802378958966 # Ar
313 313 1 0.0 346.73023012130164 126.25522007245053 102.7941670517763 # Ar
314 314 1 0.0 406.17995251223306 542.2744226837888 515.4005976452751 # Ar
315 315 1 0.0 465.2762932968697 358.236154086261 17.253964556327258 # Ar
316 316 1 0.0 63.59995949296532 87.15369434445279 289.98624249255465 # Ar
317 317 1 0.0 459.3789774333474 334.53563222912055 237.7245593428718 # Ar
318 318 1 0.0 391.0213220947986 317.82192469845637 221.74726442940124 # Ar
319 319 1 0.0 100.34574291534841 502.20138449683964 118.65686790574607 # Ar
320 320 1 0.0 523.9531101301475 478.4682848233941 466.93144206286496 # Ar
321 321 1 0.0 511.4822139411583 201.5506280698331 43.27527338297118 # Ar
322 322 1 0.0 566.6656199271061 508.5826948974839 108.02755230130194 # Ar
323 323 1 0.0 495.0204639281599 188.43659078587447 472.1597316244875 # Ar
324 324 1 0.0 369.5940881845868 317.58204421584526 455.6576885434402 # Ar
325 325 1 0.0 50.68099365205656 583.2946439751998 413.0544212973004 # Ar
326 326 1 0.0 629.2914486128097 55.197242306560476 138.10244818294066 # Ar
327 327 1 0.0 159.6589912936685 333.5614381990686 492.41775094775755 # Ar
328 328 1 0.0 444.0143404216701 387.07125229473195 423.3351005956734 # Ar
329 329 1 0.0 220.51968716962747 487.6171080097447 290.0486380974547 # Ar
330 330 1 0.0 262.1526788607622 366.0837764531755 158.96964578580221 # Ar
331 331 1 0.0 507.2334579195286 289.18315072996006 237.9003965070851 # Ar
332 332 1 0.0 219.29314252809675 597.8557901135503 347.6238408586786 # Ar
333 333 1 0.0 595.18616360803 535.4428937322804 152.74140890276507 # Ar
334 334 1 0.0 11.600950913240357 71.10466604901059 356.42168605175215 # Ar
335 335 1 0.0 585.0462918525336 343.23024018969534 22.816452942155692 # Ar
336 336 1 0.0 350.735073167513 540.0883084761699 128.0282414604856 # Ar
337 337 1 0.0 262.7141832263164 616.9129585282241 437.466869345863 # Ar
338 338 1 0.0 320.710093061103 111.21310602092264 545.666441094852 # Ar
339 339 1 0.0 39.56483139478877 217.12669072560897 96.68058770288157 # Ar
340 340 1 0.0 511.96732941745046 583.6514706623004 320.43530344978353 # Ar
341 341 1 0.0 211.97925225927207 115.98973107641126 643.865136270642 # Ar
342 342 1 0.0 356.4591906256207 453.19886330523366 43.411624023933726 # Ar
343 343 1 0.0 575.0281942159361 93.1678442818143 443.45925496358075 # Ar
344 344 1 0.0 279.2246955742147 40.79069499088561 119.9368012938369 # Ar
345 345 1 0.0 14.824175178773881 104.97382557788636 30.917802210712832 # Ar
346 346 1 0.0 303.13881810753054 646.9211898868646 285.4332746718363 # Ar
347 347 1 0.0 132.01485871745996 636.8409659057334 573.7220808168978 # Ar
348 348 1 0.0 211.7054244669546 595.0023760072926 192.6677982510056 # Ar
349 349 1 0.0 491.7851661185941 603.8808298617998 450.28170626596597 # Ar
350 350 1 0.0 61.817311625196126 184.92946966703443 231.584883257655 # Ar
351 351 1 0.0 111.19981836658779 216.68400951448314 494.19666693048214 # Ar
352 352 1 0.0 567.7740128954138 18.355355592988932 32.89285239765327 # Ar
353 353 1 0.0 243.9978138488765 288.60701080665024 58.521279855502094 # Ar
354 354 1 0.0 556.4153821121603 616.1405062099395 537.474840819991 # Ar
355 355 1 0.0 602.6529207124379 372.0856783364758 170.90762074118015 # Ar
356 356 1 0.0 281.5883531405845 337.4024048449316 155.54382987101215 # Ar
357 357 1 0.0 483.3340967332965 103.53783979707805 69.01854932136132 # Ar
358 358 1 0.0 493.72535451305026 294.4294897464262 626.793825682035 # Ar
359 359 1 0.0 125.89078510822198 574.5849573991301 43.15991914771139 # Ar
360 360 1 0.0 388.7887019987383 97.29429488154459 302.43883091411004 # Ar
361 361 1 0.0 482.929865231171 388.80373802601827 466.6976164063329 # Ar
362 362 1 0.0 644.7843951722093 584.5043567050759 453.1452718867243 # Ar
363 363 1 0.0 351.2776058304883 415.29958087728204 453.1859418857196 # Ar
364 364 1 0.0 413.08816543204523 304.7476953865873 443.1590954655899 # Ar
365 365 1 0.0 197.85256521396624 45.40338406478928 571.7175042393858 # Ar
366 366 1 0.0 512.9392046638854 533.230489299058 507.18613441508694 # Ar
367 367 1 0.0 595.8200341585213 618.038510408648 579.5265324005104 # Ar
368 368 1 0.0 510.1215398900723 346.8724285004028 318.1844686475043 # Ar
369 369 1 0.0 50.02988829945241 468.93486723546056 450.47164231654585 # Ar
370 370 1 0.0 371.8664015226122 323.1524592789006 338.1984699710794 # Ar
371 371 1 0.0 487.42948597619267 226.7679045971923 45.50467369991117 # Ar
372 372 1 0.0 637.1835712415162 410.83242359815574 130.5127701187834 # Ar
373 373 1 0.0 132.43006332887157 148.31253867855494 492.4079702896242 # Ar
374 374 1 0.0 375.15175430392117 68.87790318963063 464.41923294188183 # Ar
375 375 1 0.0 323.6429609102624 304.12871773421926 523.5299640934483 # Ar
376 376 1 0.0 150.67932204134627 411.3912506321746 339.12048817738383 # Ar
377 377 1 0.0 508.9772182439563 334.4408563163701 212.51208233211275 # Ar
378 378 1 0.0 20.388765936229298 192.3375160980991 71.69074295584728 # Ar
379 379 1 0.0 529.5191623666383 584.8851959225209 496.88627283022015 # Ar
380 380 1 0.0 490.3198602639239 102.0910022388162 396.3285921216693 # Ar
381 381 1 0.0 619.0338123905419 274.2390340749208 300.9444226866537 # Ar
382 382 1 0.0 484.65253498870015 634.6993780924087 304.35817424613685 # Ar
383 383 1 0.0 69.5795366174738 420.56493102779507 621.4431232277443 # Ar
384 384 1 0.0 523.3461718054918 184.939604053868 502.50539346320016 # Ar
385 385 1 0.0 559.8419726836403 488.15923901463646 161.76483147032948 # Ar
386 386 1 0.0 80.86870722115917 40.35946395388219 304.2434970892225 # Ar
387 387 1 0.0 591.7996798923068 235.18156780851479 177.83415410405806 # Ar
388 388 1 0.0 398.5958168258816 574.4411704506382 98.20299936379952 # Ar
389 389 1 0.0 496.989720159734 618.9846570507575 248.2443567437993 # Ar
390 390 1 0.0 309.3116618026667 457.41010334146625 55.662820974446575 # Ar
391 391 1 0.0 412.2783745041947 289.53223638810096 96.50779643606997 # Ar
392 392 1 0.0 38.389663939265475 67.26296445823952 130.514072976723 # Ar
393 393 1 0.0 61.61272156120626 81.75001532031754 484.53110772294383 # Ar
394 394 1 0.0 643.1736866521882 592.3912502586531 559.8656515133198 # Ar
395 395 1 0.0 379.8967042370431 529.9271382909252 101.52054629595638 # Ar
396 396 1 0.0 447.8198603695957 85.53836630080106 480.48426193113596 # Ar
397 397 1 0.0 521.159518809798 33.97976355343161 621.6117350800098 # Ar
398 398 1 0.0 322.1312640538328 574.7962935551502 569.2458220264417 # Ar
399 399 1 0.0 357.9526860980762 257.4422692162915 646.5038926596657 # Ar
400 400 1 0.0 347.84271641496923 230.89269795022568 224.57806768277823 # Ar
401 401 1 0.0 646.7296773706254 567.8166070838629 503.20562259350714 # Ar
402 402 1 0.0 351.5797231508551 55.42689722422288 578.6427869043096 # Ar
403 403 1 0.0 299.0023895897882 68.23589537222938 254.54676264349015 # Ar
404 404 1 0.0 573.5271408432762 228.46171145473826 408.4133373786194 # Ar
405 405 1 0.0 568.4482940683802 562.3207341941247 555.2600788316711 # Ar
406 406 1 0.0 405.7279729788823 641.8911759745903 17.116082316804086 # Ar
407 407 1 0.0 201.8215792287055 502.2066075183628 516.7854935223223 # Ar
408 408 1 0.0 358.0595998102641 399.6017598406696 0.49609039513658637 # Ar
409 409 1 0.0 466.38687864809833 167.7140949308765 257.783322387542 # Ar
410 410 1 0.0 399.5159253128892 366.82240530418443 461.93330473745584 # Ar
411 411 1 0.0 478.74022654243606 141.02479254625686 507.5872487548293 # Ar
412 412 1 0.0 364.63768911397784 404.69375396622763 133.87910215348478 # Ar
413 413 1 0.0 215.5732191769295 522.6957967605935 214.451396956642 # Ar
414 414 1 0.0 57.66751504334763 605.8634278505716 55.713607221348475 # Ar
415 415 1 0.0 404.7453597800458 66.75320766752554 68.72414457349822 # Ar
416 416 1 0.0 254.7742300608375 200.42547917663452 350.9809213722239 # Ar
417 417 1 0.0 34.675704627822604 437.93384180354866 33.98744926684362 # Ar
418 418 1 0.0 281.6416656623337 468.37001474376916 561.0208513070429 # Ar
419 419 1 0.0 112.90315323283318 319.3329996452241 91.35991950093182 # Ar
420 420 1 0.0 285.95166748175944 494.8860037446411 4.1578920596468825 # Ar
421 421 1 0.0 10.662043067049403 67.15544621745698 638.8893820787154 # Ar
422 422 1 0.0 501.02296181313955 43.10148555111176 86.21426115650503 # Ar
423 423 1 0.0 484.3079445171274 362.74441907441314 445.656964991006 # Ar
424 424 1 0.0 300.2460670286718 584.2162279424356 418.03501482751267 # Ar
425 425 1 0.0 157.28132140144774 574.685993204304 113.06663675987436 # Ar
426 426 1 0.0 429.30082342227723 87.85366622961497 564.5178348347126 # Ar
427 427 1 0.0 3.2167054596080553 295.79733249808555 578.4021044502149 # Ar
428 428 1 0.0 122.38453958610269 111.79970931151037 24.39692723457124 # Ar
429 429 1 0.0 95.10743905042774 100.04754754060359 375.00110397414187 # Ar
430 430 1 0.0 228.27117392641753 305.67338073367773 610.3131586310353 # Ar
431 431 1 0.0 474.0569593597317 605.4523324689758 641.2186741601511 # Ar
432 432 1 0.0 287.3773788939049 588.8547205473036 158.99810067362807 # Ar
433 433 1 0.0 73.05358126229993 636.1168988193025 450.3106568228123 # Ar
434 434 1 0.0 231.1689959225313 569.4475446162132 593.0877131890213 # Ar
435 435 1 0.0 232.47528635132363 125.46284742410263 335.01832826175456 # Ar
436 436 1 0.0 140.72738306555007 158.35551733743833 109.3739545112242 # Ar
437 437 1 0.0 355.05921864358055 228.13320485614457 7.717737506353354 # Ar
438 438 1 0.0 222.44556466673782 317.3351403608415 320.84345011929315 # Ar
439 439 1 0.0 540.4273391030415 263.2632410890904 10.698888259716476 # Ar
440 440 1 0.0 631.3305304006251 8.219544382760752 624.8554049911985 # Ar
441 441 1 0.0 149.75840877311995 369.1692015011804 310.40030542734684 # Ar
442 442 1 0.0 347.3028813266248 648.2924291397547 572.4909056648868 # Ar
443 443 1 0.0 509.48952150299294 627.3657528012833 369.4716718108198 # Ar
444 444 1 0.0 224.6599133232659 470.77338197771485 322.730600454394 # Ar
445 445 1 0.0 375.46345389007706 157.52098230337882 267.8590600899929 # Ar
446 446 1 0.0 527.5289123700184 474.25872734788 510.85779454049145 # Ar
447 447 1 0.0 216.25996129755868 517.4971764381792 226.08257441263143 # Ar
448 448 1 0.0 151.17811182240362 527.890077163871 630.3761247105296 # Ar
449 449 1 0.0 286.27418703001604 597.9745678128793 144.35940057457458 # Ar
450 450 1 0.0 31.183588995581214 455.9589799905555 604.3111169097665 # Ar
451 451 1 0.0 362.36042443682203 233.0052293125486 547.9411842901777 # Ar
452 452 1 0.0 308.33923612102063 644.9631456756015 475.35085684483636 # Ar
453 453 1 0.0 635.8833533798396 167.9609395302525 288.70121205260455 # Ar
454 454 1 0.0 572.4416855968302 348.4240148905725 115.52784626285165 # Ar
455 455 1 0.0 343.9544763041329 385.2081721428267 51.95961881900031 # Ar
456 456 1 0.0 456.12468894992867 325.19515154208966 426.66891108868435 # Ar
457 457 1 0.0 235.15035503344183 47.059034449618586 114.39994640347855 # Ar
458 458 1 0.0 502.7715517725978 192.87987229662008 214.04722764106847 # Ar
459 459 1 0.0 431.5162733708421 328.91584158596913 648.2622769149074 # Ar
460 460 1 0.0 636.617240625715 395.52764680762186 417.6094965880979 # Ar
461 461 1 0.0 535.0706863363871 5.338584208136658 228.43708302960945 # Ar
462 462 1 0.0 564.5392285154057 493.8319237544063 544.4510817180288 # Ar
463 463 1 0.0 96.42212206036254 284.75067937166915 31.452431558511293 # Ar
464 464 1 0.0 195.4249420178694 197.4154302718193 619.9492507944897 # Ar
465 465 1 0.0 75.16254916368307 67.67733066853067 248.565931972227 # Ar
466 466 1 0.0 347.5763846143486 533.0263193570614 375.1198109679607 # Ar
467 467 1 0.0 18.495221805049788 165.56603875561024 140.10182412264658 # Ar
468 468 1 0.0 159.91114545175742 231.35860711209497 223.69916601952045 # Ar
469 469 1 0.0 447.3825621907882 420.53941328639144 472.68624902348296 # Ar
470 470 1 0.0 430.17347141819886 246.81720184620553 560.44491978909 # Ar
471 471 1 0.0 394.4662536286586 296.98800265606246 607.1996987699553 # Ar
472 472 1 0.0 295.6563209179343 492.14694107714814 396.29473954465186 # Ar
473 473 1 0.0 392.9210429777247 405.2932509702769 77.70822854951992 # Ar
474 474 1 0.0 101.23080382104806 108.65390251243396 431.2280587250113 # Ar
475 475 1 0.0 8.38291749795152 483.8922488084071 282.83676107713615 # Ar
476 476 1 0.0 47.77266687913384 281.84115397101925 385.5832453172188 # Ar
477 477 1 0.0 232.54025169585327 103.28135365450854 278.0110619107288 # Ar
478 478 1 0.0 473.21229272186287 33.22000302657012 100.69055098834554 # Ar
479 479 1 0.0 62.76350968438881 59.53733998120552 496.92521705039997 # Ar
480 480 1 0.0 493.66478180527554 556.4131731878321 637.3886852103559 # Ar
481 481 1 0.0 421.1092161585287 392.24129966351296 530.9559372670126 # Ar
482 482 1 0.0 413.25295639873815 9.806807322225453 578.4566251839738 # Ar
483 483 1 0.0 13.159902638409308 64.4712132952434 308.50822766238826 # Ar
484 484 1 0.0 79.1057523871089 87.58706180796456 179.11627072886296 # Ar
485 485 1 0.0 288.93764650678344 508.32448397487065 543.2204573908845 # Ar
486 486 1 0.0 635.50894375508 505.46195564789974 433.5491086145581 # Ar
487 487 1 0.0 19.098966274981677 110.34490642379389 201.88441097895057 # Ar
488 488 1 0.0 125.08279672500181 312.7316850013109 98.41641247087482 # Ar
489 489 1 0.0 636.1823270213599 364.86271232881165 630.7584389603536 # Ar
490 490 1 0.0 613.7029223545102 168.77853623536882 498.61594774850334 # Ar
491 491 1 0.0 221.71549080706293 407.1087681892001 567.2182933226015 # Ar
492 492 1 0.0 266.5254806129552 598.3354302269187 256.80416617655527 # Ar
493 493 1 0.0 314.6978322142625 9.162528510683988 193.7527376458727 # Ar
494 494 1 0.0 419.7536039164321 398.9344520875293 509.3293178365878 # Ar
495 495 1 0.0 432.8858895050431 39.172871869854426 602.9895762356671 # Ar
496 496 1 0.0 98.16924180296878 410.5643094193602 436.04657533019116 # Ar
497 497 1 0.0 55.35367609777093 91.38420497758891 227.0044862931992 # Ar
498 498 1 0.0 353.1090911249356 334.2165346645119 266.0773717939222 # Ar
499 499 1 0.0 633.8227760268918 497.0989087903956 238.1363748953326 # Ar
500 500 1 0.0 205.08957030661117 55.50464568112473 284.6325482161208 # Ar
501 501 1 0.0 34.45474932037211 358.5757396190511 81.22174816095443 # Ar
502 502 1 0.0 121.61800734800292 463.04279589716504 194.67335581594918 # Ar
503 503 1 0.0 614.1688064575837 41.914203096645124 507.18012260640194 # Ar
504 504 1 0.0 546.5666133406024 45.25097265094 292.6030098095651 # Ar
505 505 1 0.0 344.29593344219126 293.6885004129519 581.5890234043795 # Ar
506 506 1 0.0 574.6950040449217 508.8261642680148 521.4326733675692 # Ar
507 507 1 0.0 61.84735561734375 423.6172994854305 136.88084304601284 # Ar
508 508 1 0.0 204.39186515385387 186.55930364753675 525.3856559615875 # Ar
509 509 1 0.0 119.84922585599666 400.03341100386564 540.6802546429021 # Ar
510 510 1 0.0 93.97613288307109 0.4293778819572897 596.4790256668213 # Ar
511 511 1 0.0 336.2789052571775 34.37010822962925 8.76666795044813 # Ar
512 512 1 0.0 611.5636397077382 522.5358743568358 26.316143908193787 # Ar
513 513 1 0.0 572.1005846257899 492.66546215197747 457.4499737512226 # Ar
514 514 1 0.0 338.2125942522148 410.9167129581802 42.57143463905184 # Ar
515 515 1 0.0 622.6947829884876 541.8289622486062 39.79714239719045 # Ar
516 516 1 0.0 419.4566410023654 629.0255052828477 646.4401302049583 # Ar
517 517 1 0.0 71.25784022021324 54.296097059249846 639.4531100557609 # Ar
518 518 1 0.0 199.82641039883367 438.9328386535311 462.8474795794336 # Ar
519 519 1 0.0 275.6830674772686 61.76011253452316 640.8070784313222 # Ar
520 520 1 0.0 200.46097093072535 185.35622299843408 256.57889630167654 # Ar
521 521 1 0.0 108.36889489797758 475.11511312058326 288.2733675823028 # Ar
522 522 1 0.0 443.5193690563736 242.711626516682 121.85853415341526 # Ar
523 523 1 0.0 242.7670191224128 84.13902120219271 178.37219332223034 # Ar
524 524 1 0.0 643.5210828444737 532.8557432571184 222.52125041093151 # Ar
525 525 1 0.0 397.86829087373076 626.1679553305347 258.414738279517 # Ar
526 526 1 0.0 228.022333018734 368.8618623361741 467.37895190721696 # Ar
527 527 1 0.0 598.7382936198629 141.74476589266072 429.0863748447782 # Ar
528 528 1 0.0 66.38866753362684 65.25354300782895 543.9778889040592 # Ar
529 529 1 0.0 542.1767945372147 243.35452826435872 458.52522604420807 # Ar
530 530 1 0.0 141.5714341690548 91.13580339176612 633.2468812223008 # Ar
531 531 1 0.0 269.6141045771586 341.4953067501131 143.7776816544953 # Ar
532 532 1 0.0 120.41347151027956 339.32169658525544 492.286909443987 # Ar
533 533 1 0.0 362.42399304197846 114.54785742708069 58.24143458461618 # Ar
534 534 1 0.0 512.2546536310635 118.55389177624723 574.3893666206297 # Ar
535 535 1 0.0 450.58897318694585 303.34102801225407 210.07451989688636 # Ar
536 536 1 0.0 53.76201621877067 320.79841087995266 556.452525211294 # Ar
537 537 1 0.0 647.1159685296299 623.9359404725378 417.28497329146336 # Ar
538 538 1 0.0 192.9008564690799 525.0377933058251 557.2472255139663 # Ar
539 539 1 0.0 366.50262810409174 125.9811720143215 464.33559713802117 # Ar
540 540 1 0.0 439.76262959140735 105.9118661783822 204.21295203403199 # Ar
541 541 1 0.0 340.73609050034725 317.5983374271595 543.0643729321295 # Ar
542 542 1 0.0 98.07242600717898 606.3514602060402 365.8911530650227 # Ar
543 543 1 0.0 94.1121478121018 317.2770334214776 78.2105407757375 # Ar
544 544 1 0.0 100.08301445270507 280.60830390463997 92.70661054879281 # Ar
545 545 1 0.0 560.1506172341977 607.7756423394455 285.7633644259585 # Ar
546 546 1 0.0 525.405581648591 547.4490956117688 39.04382305409562 # Ar
547 547 1 0.0 566.5993576944907 456.21418756174984 602.1258392830679 # Ar
548 548 1 0.0 192.66810165731133 389.6977430954973 614.676674160316 # Ar
549 549 1 0.0 397.35859917675276 468.42788202598 80.42888985579721 # Ar
550 550 1 0.0 268.96949253772743 18.578481437256432 348.2426240694002 # Ar
551 551 1 0.0 535.5287189525785 255.21108602424323 358.89736773985874 # Ar
552 552 1 0.0 372.81927551061113 474.71663888283365 2.9287739480750568 # Ar
553 553 1 0.0 132.07229690225003 545.3682007710968 386.53239970259324 # Ar
554 554 1 0.0 47.75094504816144 615.3985307674119 459.05586210333985 # Ar
555 555 1 0.0 279.5631003250837 119.93041227375984 455.9223574836296 # Ar
556 556 1 0.0 611.5651764676973 221.16451055492666 246.42866763273636 # Ar
557 557 1 0.0 15.58631277390886 467.99561806659966 25.906236853002806 # Ar
558 558 1 0.0 221.91133636231316 625.6532474175284 533.2504170115197 # Ar
559 559 1 0.0 124.13375580072318 549.8741132756511 439.7679705617751 # Ar
560 560 1 0.0 625.7586495531318 13.140324507479658 246.38425180375307 # Ar
561 561 1 0.0 85.07035452740845 175.5401520305174 309.31398381569034 # Ar
562 562 1 0.0 346.31247016250893 219.7054116375417 207.03402953228576 # Ar
563 563 1 0.0 198.06519332336356 489.856233234627 595.4828172622645 # Ar
564 564 1 0.0 413.8774652235002 351.6026355178606 463.3405899107173 # Ar
565 565 1 0.0 587.8631100402555 190.99267898616725 52.17034183487746 # Ar
566 566 1 0.0 470.13726842999625 324.9739290384426 460.60395776486934 # Ar
567 567 1 0.0 317.5634865250204 338.2389517514653 54.523754511275186 # Ar
568 568 1 0.0 316.2491767176783 355.5887567918007 418.30909496749564 # Ar
569 569 1 0.0 241.93112646531387 444.35168835945467 383.4856296842582 # Ar
570 570 1 0.0 289.46147274108796 592.7097848584277 2.49329301920038 # Ar
571 571 1 0.0 611.5360807363497 304.2666694023276 601.2142891000929 # Ar
572 572 1 0.0 93.76332495144611 24.96457399932239 137.0093482313241 # Ar
573 573 1 0.0 337.02501338482193 305.46169424400443 353.75371591138736 # Ar
574 574 1 0.0 335.5257234502763 603.6872518011905 361.0829133864098 # Ar
575 575 1 0.0 267.5737130157662 117.75166440647526 177.12148863373656 # Ar
576 576 1 0.0 546.22041942066 347.0423365047938 188.34254904093092 # Ar
577 577 1 0.0 315.14192664069674 567.2853497163011 40.62174978024432 # Ar
578 578 1 0.0 447.69116735338673 77.4982967561584 426.69476295432264 # Ar
579 579 1 0.0 40.607312913448744 68.74395040559136 5.4679798221124845 # Ar
580 580 1 0.0 298.2764672245898 464.6272768733249 449.0343595699791 # Ar
581 581 1 0.0 367.56522983665536 96.91977355309918 262.8054297657364 # Ar
582 582 1 0.0 222.730683539269 203.01204638985269 139.4472611071551 # Ar
583 583 1 0.0 430.97282722053444 614.8430162868813 314.5853476127933 # Ar
584 584 1 0.0 150.2484534088362 529.6534203820289 143.00129039691973 # Ar
585 585 1 0.0 21.41626255842415 436.00059904769665 243.92714680085578 # Ar
586 586 1 0.0 596.2957949619653 75.42041035013129 55.202037921853076 # Ar
587 587 1 0.0 467.61141710579807 330.76890409631 610.3092463292238 # Ar
588 588 1 0.0 85.34838288807154 436.0555188721218 515.5165657682422 # Ar
589 589 1 0.0 456.3563459030537 261.43654769209337 559.1097459053091 # Ar
590 590 1 0.0 539.6795032589827 532.0418807792106 67.9476385468192 # Ar
591 591 1 0.0 75.51106161239564 478.0328158743061 429.7708122714566 # Ar
592 592 1 0.0 269.17888653978525 11.005028060518992 7.1568513459775165 # Ar
593 593 1 0.0 409.60809147064595 591.8206523514528 400.27185257005965 # Ar
594 594 1 0.0 105.63704625823779 397.96354729503764 586.2461561687358 # Ar
595 595 1 0.0 211.3637057643468 399.3297553913052 403.95509115657126 # Ar
596 596 1 0.0 258.2352131045627 639.827707252175 38.77854546524963 # Ar
597 597 1 0.0 360.0129307595648 317.697010804303 479.79326603084195 # Ar
598 598 1 0.0 580.2088576081804 54.37372167577339 74.52460967082379 # Ar
599 599 1 0.0 57.654076997264596 65.22194894717906 183.88669705784923 # Ar
600 600 1 0.0 437.7764945376203 442.15903577255324 456.5446645132122 # Ar
601 601 1 0.0 564.0494981432344 548.0052127560098 638.7397067391158 # Ar
602 602 1 0.0 129.32916663422617 418.365951223598 553.4986916372352 # Ar
603 603 1 0.0 27.975762645768093 336.86407478086545 333.33167590678335 # Ar
604 604 1 0.0 8.059020637802522 421.24114947223734 216.06339921296274 # Ar
605 605 1 0.0 492.2299958037539 627.0326799514893 485.0920936219814 # Ar
606 606 1 0.0 583.9060085331132 552.6973641124463 310.40158732620915 # Ar
607 607 1 0.0 150.04399196604052 315.23282019543666 450.11112010761053 # Ar
608 608 1 0.0 396.4778665080784 43.18035412675844 554.3854371712482 # Ar
609 609 1 0.0 648.0616997349434 480.5535005320459 144.7566470254088 # Ar
610 610 1 0.0 144.47580101893473 180.69784542336538 581.413303104517 # Ar
611 611 1 0.0 550.3889157729321 87.39927250883828 193.4087393968336 # Ar
612 612 1 0.0 588.9748454054086 368.70887881780834 179.31542284587525 # Ar
613 613 1 0.0 605.4290827640467 236.9687944995684 96.03307659964395 # Ar
614 614 1 0.0 506.90138263407397 584.976471782198 573.8122717421237 # Ar
615 615 1 0.0 146.90057640159498 78.94285979924119 615.3309659048832 # Ar
616 616 1 0.0 301.129076679015 27.1321710563887 33.25643163980161 # Ar
617 617 1 0.0 86.31063847073946 621.7299715252583 549.273391426445 # Ar
618 618 1 0.0 571.2976483913765 104.08460217271603 396.0548874986851 # Ar
619 619 1 0.0 262.85764881097657 257.8623618264211 582.5777347296272 # Ar
620 620 1 0.0 113.08031979107004 136.90990151922406 254.11158003150328 # Ar
621 621 1 0.0 192.12397109477203 326.60084471286507 71.53090486170356 # Ar
622 622 1 0.0 204.8350946175163 182.32185259159058 77.14259370963617 # Ar
623 623 1 0.0 46.59264563879063 28.247346699961728 639.915592988691 # Ar
624 624 1 0.0 270.0931477630546 644.318291880859 647.1756324028361 # Ar
625 625 1 0.0 386.9022544732381 136.97247711432797 621.6582729292337 # Ar
626 626 1 0.0 631.5178815071401 122.45335153416254 343.1767365288981 # Ar
627 627 1 0.0 208.85912122361782 436.2507207794221 456.1908101423422 # Ar
628 628 1 0.0 638.8142110419983 185.06280325937269 463.5869557842811 # Ar
629 629 1 0.0 515.1479681309903 78.44618368802458 647.2101589802854 # Ar
630 630 1 0.0 220.9627832880553 426.8740486111434 337.30043628711036 # Ar
631 631 1 0.0 424.9231503031266 250.72108426195103 349.684921350474 # Ar
632 632 1 0.0 514.6093491511551 54.35884238978714 592.0696730762944 # Ar
633 633 1 0.0 543.6677269473179 107.06954168628437 556.7214182877482 # Ar
634 634 1 0.0 515.089714324787 378.71146436782425 65.19739992744243 # Ar
635 635 1 0.0 519.2961666887867 558.6466709924467 284.0107221101714 # Ar
636 636 1 0.0 172.67420784163036 29.426051347051526 59.85429618273856 # Ar
637 637 1 0.0 370.83475010122976 109.28624547479384 495.77005168305965 # Ar
638 638 1 0.0 637.9833106585552 440.6402802505729 190.63127736086864 # Ar
639 639 1 0.0 278.63665999702454 50.3826340372697 112.19126570326306 # Ar
640 640 1 0.0 44.93171114794351 297.0610511530475 119.87439651058473 # Ar
641 641 1 0.0 613.0027623681491 543.3022488645221 462.75194734061256 # Ar
642 642 1 0.0 127.05325177080967 212.51431053386398 282.7407547265552 # Ar
643 643 1 0.0 221.81978228096327 369.57398003544574 101.28626638331842 # Ar
644 644 1 0.0 98.54215457616873 375.29409631313376 525.9510991192727 # Ar
645 645 1 0.0 211.78700488942306 536.9875036072942 277.5887518027162 # Ar
646 646 1 0.0 573.3246345810305 562.8230781983069 235.57887106041915 # Ar
647 647 1 0.0 203.60948311332118 237.2545407024794 232.0792879996264 # Ar
648 648 1 0.0 166.95741305406904 551.6391705665792 175.11809572300888 # Ar
649 649 1 0.0 321.214810915421 127.05841147474597 6.321095726249835 # Ar
650 650 1 0.0 605.3181365351747 439.86423464163147 440.78048983082084 # Ar
651 651 1 0.0 422.5383535448828 140.08372882782407 633.0290201572295 # Ar
652 652 1 0.0 635.8864697417428 33.87940443720533 570.7628006263352 # Ar
653 653 1 0.0 24.45504683496583 54.31086269131072 15.218401179320116 # Ar
654 654 1 0.0 296.5707759346951 553.3532953155819 330.55307579663315 # Ar
655 655 1 0.0 42.93996814254364 181.40122288950215 196.67390456490432 # Ar
656 656 1 0.0 274.8787096503866 191.01337338473286 173.4751529764177 # Ar
657 657 1 0.0 109.30098347013322 225.18722226134724 17.37618220441971 # Ar
658 658 1 0.0 242.6025741057222 592.6556481895703 323.5572566193229 # Ar
659 659 1 0.0 386.1910209324153 163.36287015828395 120.4089247401876 # Ar
660 660 1 0.0 617.5453847131346 329.1027702387704 232.07519610048305 # Ar
661 661 1 0.0 473.2816844304487 560.8851073752525 66.9326943289171 # Ar
662 662 1 0.0 263.5015205526233 635.3679941747158 43.02402665318914 # Ar
663 663 1 0.0 155.53875779950482 341.1167651939758 418.8346816969068 # Ar
664 664 1 0.0 272.58190124946015 76.81644309462042 189.70847565666938 # Ar
665 665 1 0.0 454.8452376029881 283.6686108255159 407.9580895621071 # Ar
666 666 1 0.0 346.4781342152428 392.3921247511524 14.489479374526564 # Ar
667 667 1 0.0 311.19995686615425 555.3432418280811 119.54379879610127 # Ar
668 668 1 0.0 433.73280301285814 87.74448377964907 307.43502415925906 # Ar
669 669 1 0.0 556.5739955522585 136.30801239560284 106.04092661832675 # Ar
670 670 1 0.0 282.4158267164024 527.0428123035967 462.2921694550991 # Ar
671 671 1 0.0 602.6619963926681 171.24337061446582 473.92900123526306 # Ar
672 672 1 0.0 487.4617020890165 376.79102151357574 618.5051609519804 # Ar
673 673 1 0.0 112.23312823326337 562.9658899989984 439.23962177073156 # Ar
674 674 1 0.0 540.9421293479938 428.9870029300386 242.66365795654636 # Ar
675 675 1 0.0 564.8735305259357 57.58745582863477 482.77148320225035 # Ar
676 676 1 0.0 297.27436746330216 522.5072695808615 187.0934222383719 # Ar
677 677 1 0.0 247.88579023853055 340.6142908286194 302.7161992757545 # Ar
678 678 1 0.0 417.9670804052934 573.5056218404097 419.3357825431248 # Ar
679 679 1 0.0 348.6469276696708 174.12789703714742 542.8623114254777 # Ar
680 680 1 0.0 444.50066981165344 631.3924629955867 310.9021237285292 # Ar
681 681 1 0.0 605.2059107885344 582.9664616720831 88.20940852183531 # Ar
682 682 1 0.0 517.0135002144644 198.94522900193374 634.272036710298 # Ar
683 683 1 0.0 92.42858342038483 227.47593040506243 416.57720933080606 # Ar
684 684 1 0.0 443.2106447444652 450.44187333414783 76.4150894727698 # Ar
685 685 1 0.0 562.4427061315781 463.2392472844452 163.1291252585933 # Ar
686 686 1 0.0 300.6973370930784 605.450141482503 3.23380999684911 # Ar
687 687 1 0.0 226.21079602669082 196.80906145939133 459.95447090281715 # Ar
688 688 1 0.0 72.25532643661177 185.91988518524056 94.13335639516538 # Ar
689 689 1 0.0 302.37703709121695 252.7345292649956 307.3320091537539 # Ar
690 690 1 0.0 75.44636475632583 599.156347155611 186.54646173463664 # Ar
691 691 1 0.0 531.4218730823033 294.78087027841565 177.96768624122103 # Ar
692 692 1 0.0 340.208700353898 346.0740879561255 525.9804718636988 # Ar
693 693 1 0.0 338.02294940469875 318.51874726369795 513.1183688159406 # Ar
694 694 1 0.0 180.49839808404343 642.9135328095279 581.5808953360457 # Ar
695 695 1 0.0 291.00520849421946 164.41501666749866 234.1118011698063 # Ar
696 696 1 0.0 532.0020416844148 255.3067152893629 236.9147196892204 # Ar
697 697 1 0.0 127.2072659255141 420.940659889785 338.0122825512204 # Ar
698 698 1 0.0 442.25790825463275 560.2366609478263 444.9964128716584 # Ar
699 699 1 0.0 377.4692820419786 615.8996262039007 55.87213739784322 # Ar
700 700 1 0.0 194.6711845848109 533.7609278436283 143.2954437997691 # Ar
701 701 1 0.0 556.3463057742321 600.5777004424851 479.9487394721134 # Ar
702 702 1 0.0 465.8990068049083 391.8350394197992 125.72270252700106 # Ar
703 703 1 0.0 0.5817416814821146 182.4330486854165 575.7897994694117 # Ar
704 704 1 0.0 192.9295632248358 222.9783170100662 229.02016109142636 # Ar
705 705 1 0.0 502.6729081387046 515.4193444050608 438.8607214109733 # Ar
706 706 1 0.0 215.51124059922364 141.8864119360881 628.0250190965176 # Ar
707 707 1 0.0 582.3397312759154 499.3614722121254 446.4846619381794 # Ar
708 708 1 0.0 340.60664776824314 160.36249323345552 576.2088470218596 # Ar
709 709 1 0.0 452.5816992685207 404.02548646311425 139.63593997770988 # Ar
710 710 1 0.0 386.0547029731894 346.251153197534 90.58964863006065 # Ar
711 711 1 0.0 419.2902613931639 92.80819338389402 430.80500539390465 # Ar
712 712 1 0.0 61.65350579407661 367.7668187316764 523.5258478219681 # Ar
713 713 1 0.0 28.145751710913416 30.516560006863184 235.48132925253356 # Ar
714 714 1 0.0 113.24967278010408 337.7427606980454 368.14097154852345 # Ar
715 715 1 0.0 306.80927095373613 208.44263164124322 119.78676977804348 # Ar
716 716 1 0.0 293.8735863453059 390.8396392873104 429.63045207964456 # Ar
717 717 1 0.0 328.99736055829305 237.86209474164042 302.811001774043 # Ar
718 718 1 0.0 75.34245023525635 551.6450940219595 282.18988144268735 # Ar
719 719 1 0.0 545.9159940512717 370.33251777139435 50.831840383718074 # Ar
720 720 1 0.0 527.5896180419866 36.79862303247957 115.28514507997137 # Ar
721 721 1 0.0 422.6864981175704 105.80461215838153 217.83521172094325 # Ar
722 722 1 0.0 346.1546555967992 193.51181913926771 468.0206245780658 # Ar
723 723 1 0.0 594.0271307212765 60.37605666753632 105.73599361724416 # Ar
724 724 1 0.0 365.592548129013 11.966794953216128 236.9844933119803 # Ar
725 725 1 0.0 399.1188426691352 310.46986912622003 143.8429261671291 # Ar
726 726 1 0.0 20.47585589791604 336.88114027278755 481.1380824356158 # Ar
727 727 1 0.0 137.59664727861372 15.997836695139755 323.1630003283849 # Ar
728 728 1 0.0 196.30198903639874 449.8819650445123 446.12233467375563 # Ar
729 729 1 0.0 487.2700911198682 128.4000196187303 125.49128139523047 # Ar
730 730 1 0.0 570.1730649804059 214.5627141516286 73.52274334047085 # Ar
731 731 1 0.0 498.88925611955324 121.81984455092987 162.5362042416724 # Ar
732 732 1 0.0 211.34992744992402 356.22375407523924 536.471374742062 # Ar
733 733 1 0.0 256.79481264568557 258.4575699090379 489.6638976792028 # Ar
734 734 1 0.0 511.90702971004697 309.8796894533596 174.29377332172135 # Ar
735 735 1 0.0 150.39307544227208 454.9612708952967 358.6803534808886 # Ar
736 736 1 0.0 205.355479184195 569.1908293785482 511.35893420772067 # Ar
737 737 1 0.0 67.55706331404788 125.1909401817171 138.44552742979624 # Ar
738 738 1 0.0 62.027616573928114 166.62095323264694 544.9681242527099 # Ar
739 739 1 0.0 445.4576057164442 310.56029081620835 331.88900647840626 # Ar
740 740 1 0.0 274.7061086303198 471.12995835065544 182.22559784096865 # Ar
741 741 1 0.0 278.41675708741826 549.67480686977 185.65430396307124 # Ar
742 742 1 0.0 216.17172871811786 33.18702407208966 65.14362253645925 # Ar
743 743 1 0.0 527.5368906481808 313.5715141970669 20.18556653758396 # Ar
744 744 1 0.0 425.90149598651357 251.21263542977732 610.7380239685017 # Ar
745 745 1 0.0 128.53439781147074 32.00991353013394 78.96922245281806 # Ar
746 746 1 0.0 55.87878220864702 551.3560118257838 521.912418373492 # Ar
747 747 1 0.0 620.5767987286541 30.03195468717935 537.325571062775 # Ar
748 748 1 0.0 40.75039028066728 601.315916796237 463.46397725970144 # Ar
749 749 1 0.0 307.91195467651414 319.7473267027567 635.3227289781772 # Ar
750 750 1 0.0 512.4967068001035 155.99589497130833 162.80425096299894 # Ar
751 751 1 0.0 572.398697532045 386.3575016283489 636.6686805808984 # Ar
752 752 1 0.0 28.32234061222744 8.649601156896955 334.41137965502907 # Ar
753 753 1 0.0 115.52984501154958 83.17346126230757 371.4104272528122 # Ar
754 754 1 0.0 230.9290434928083 186.49252640836917 35.2137564821944 # Ar
755 755 1 0.0 506.4313222454272 76.2753114439597 179.71602878699554 # Ar
756 756 1 0.0 134.73810634530952 460.66966379550644 401.3276165816064 # Ar
757 757 1 0.0 202.64232637697023 645.593343464031 518.7607038025419 # Ar
758 758 1 0.0 99.96595151968428 616.8105125084892 76.76600755864533 # Ar
759 759 1 0.0 367.19351517129485 248.70165310577335 429.0449324725611 # Ar
760 760 1 0.0 597.6164607245046 596.2308190106008 187.81430110825175 # Ar
761 761 1 0.0 359.7840898816524 599.1422752871928 390.6845736768188 # Ar
762 762 1 0.0 579.5273154227372 622.3735010914553 464.585951313155 # Ar
763 763 1 0.0 347.72546533935133 549.7414424235933 280.4640492456766 # Ar
764 764 1 0.0 1.8593786886879748 290.16950126331926 146.81767974047344 # Ar
765 765 1 0.0 473.40557184841083 186.40868431671427 467.31314054788567 # Ar
766 766 1 0.0 332.56983036148034 191.01713519576796 109.81022634994599 # Ar
767 767 1 0.0 10.793436968995744 5.903301429309487 411.9802552378078 # Ar
768 768 1 0.0 415.3036191902529 459.5164090927624 521.879769051641 # Ar
769 769 1 0.0 230.53257430655674 20.67270871603255 77.1349757514014 # Ar
770 770 1 0.0 161.32279852494315 562.4519936139523 354.73202829313385 # Ar
771 771 1 0.0 315.24813194891146 232.1895667838444 559.2611686379956 # Ar
772 772 1 0.0 356.93657388745504 526.4429297266574 370.73391061662505 # Ar
773 773 1 0.0 524.0187549562509 268.83762851614364 51.947040503010065 # Ar
774 774 1 0.0 544.0095061482538 110.51087733066849 346.98895440835446 # Ar
775 775 1 0.0 112.07084348464531 358.22226184450034 494.0985775425047 # Ar
776 776 1 0.0 345.02199920621706 56.33745469858384 252.5917354162889 # Ar
777 777 1 0.0 482.9923234039854 467.09711411571584 534.4001444991662 # Ar
778 778 1 0.0 96.71964638044318 212.56746594219285 307.02808771939783 # Ar
779 779 1 0.0 70.46180048656157 598.5734728335676 595.9667905717268 # Ar
780 780 1 0.0 549.0348666275731 2.9652789410549434 328.12577560986836 # Ar
781 781 1 0.0 465.1436783817393 572.6594890104217 469.8000348239473 # Ar
782 782 1 0.0 397.57043400823113 234.72011605702687 438.04320483549833 # Ar
783 783 1 0.0 37.804022614822124 11.081978522570392 269.14638489448214 # Ar
784 784 1 0.0 122.86214451856961 368.260093381762 209.91376283249082 # Ar
785 785 1 0.0 117.19046426276482 112.9899203984857 223.13350866482568 # Ar
786 786 1 0.0 50.79237964102888 290.5961154209568 587.2370229333771 # Ar
787 787 1 0.0 391.8332686317227 388.64269531173665 335.45179985788695 # Ar
788 788 1 0.0 521.9998963587557 139.7977765381505 463.5616061839509 # Ar
789 789 1 0.0 291.69093706544805 384.83200617921415 632.8153967268714 # Ar
790 790 1 0.0 378.49875215372873 129.8736785584563 98.23435898987016 # Ar
791 791 1 0.0 353.38919988895015 255.87194875617746 556.0108557928453 # Ar
792 792 1 0.0 570.8517025308206 325.1806733393558 158.81234963201697 # Ar
793 793 1 0.0 74.61232797057872 638.3833993707735 427.7021862890359 # Ar
794 794 1 0.0 323.0892159415913 342.42616413473684 409.82649731971725 # Ar
795 795 1 0.0 536.2095776419834 368.3207074983322 30.311836961539115 # Ar
796 796 1 0.0 639.9703634449135 242.57318664976398 311.89841766413167 # Ar
797 797 1 0.0 180.55324551923195 199.40066966106852 78.82906048373775 # Ar
798 798 1 0.0 495.6214774525803 379.1310546417408 606.6044864415735 # Ar
799 799 1 0.0 421.15321960382715 591.8969941592345 424.524738099775 # Ar
800 800 1 0.0 329.80211224194824 73.93635357580274 181.60138336176783 # Ar
801 801 1 0.0 261.4412961903784 122.1298127677592 446.20833421951636 # Ar
802 802 1 0.0 200.65214788422864 435.75351723053046 547.4249703603708 # Ar
803 803 1 0.0 90.071291796536 609.0907563434041 64.5050341955077 # Ar
804 804 1 0.0 535.8495475425749 553.3614063667707 592.4769851338019 # Ar
805 805 1 0.0 485.53734872204546 599.66604775188 620.6369632796468 # Ar
806 806 1 0.0 517.9664327574249 606.6262515517849 248.44552979770864 # Ar
807 807 1 0.0 9.032358898301286 219.38445547019208 548.8361289039196 # Ar
808 808 1 0.0 352.2222998011322 50.80576869449305 198.16121667965783 # Ar
809 809 1 0.0 560.8938811632295 67.94096048564757 389.99509565850883 # Ar
810 810 1 0.0 595.5571214186048 605.6844094837265 346.4344495518854 # Ar
811 811 1 0.0 407.5208344984099 507.1755975551099 326.2745623874741 # Ar
812 812 1 0.0 629.327685147743 634.5338593169231 169.28298509466376 # Ar
813 813 1 0.0 467.5935274207064 532.0722090351592 454.87675359691906 # Ar
814 814 1 0.0 571.4992163800542 187.52918191799654 330.23701527693856 # Ar
815 815 1 0.0 502.0791250084879 71.91814436523366 14.688890642263218 # Ar
816 816 1 0.0 44.81299762559227 469.5240223112508 436.10981065831095 # Ar
817 817 1 0.0 585.0597519144502 173.57074532927393 51.29885863939954 # Ar
818 818 1 0.0 174.81112108813696 208.26501912738289 291.5972107711285 # Ar
819 819 1 0.0 494.1173331574014 114.06837479739457 647.5974052052268 # Ar
820 820 1 0.0 392.3038275553303 234.24548497990293 181.23612906261536 # Ar
821 821 1 0.0 227.73790776552485 228.42388367855054 102.2908989278325 # Ar
822 822 1 0.0 471.39362853911 546.8819754252982 278.09971618230765 # Ar
823 823 1 0.0 152.44566871563285 177.1579345124601 35.366584257491134 # Ar
824 824 1 0.0 455.4604194704998 395.586723845142 576.3428851906081 # Ar
825 825 1 0.0 647.2947659349882 201.52178122955874 593.6903739286078 # Ar
826 826 1 0.0 487.38660381120565 338.5390421118278 295.5212968470028 # Ar
827 827 1 0.0 43.4833036233898 315.2755048851798 405.5745614425815 # Ar
828 828 1 0.0 641.0772264824332 76.08120234995279 355.47181622755085 # Ar
829 829 1 0.0 90.40935962216734 494.17449973409725 104.58798222956032 # Ar
830 830 1 0.0 141.6988912942135 181.071633360439 190.7229631599262 # Ar
831 831 1 0.0 101.0721613107184 175.46899015661222 210.58626463206863 # Ar
832 832 1 0.0 320.455697924035 611.2074855065442 438.6692592395414 # Ar
833 833 1 0.0 217.31166037325826 604.4110601175115 498.1122423204338 # Ar
834 834 1 0.0 164.4759779196692 130.72017927371508 579.8128920753135 # Ar
835 835 1 0.0 641.2773896200858 286.01366660047654 150.5121156559174 # Ar
836 836 1 0.0 187.81653151390503 430.801541090145 130.11878339497972 # Ar
837 837 1 0.0 512.5054063084709 47.82112054484294 191.89146553123695 # Ar
838 838 1 0.0 180.22493209396265 597.1979214520388 127.38226026910485 # Ar
839 839 1 0.0 265.9302839616526 65.18923260955725 467.68365830412824 # Ar
840 840 1 0.0 216.17750263756403 494.05150202852724 251.95784522292428 # Ar
841 841 1 0.0 352.4176784599103 536.8067836110368 427.19519232164237 # Ar
842 842 1 0.0 474.33115379037014 56.76300770091078 225.3585142065916 # Ar
843 843 1 0.0 187.43373217143352 79.80914377624691 503.62284500285585 # Ar
844 844 1 0.0 112.18576734197207 618.0775211103025 432.52246044410725 # Ar
845 845 1 0.0 29.005341481997355 600.4221543785106 279.35994980590726 # Ar
846 846 1 0.0 284.4522909227257 433.93396847226376 379.12399201311314 # Ar
847 847 1 0.0 384.1674314155409 35.185070754654305 179.86491589508947 # Ar
848 848 1 0.0 42.64741894391452 362.8843230013189 79.13717996327964 # Ar
849 849 1 0.0 310.0298145649765 615.0868381740497 322.10752300855717 # Ar
850 850 1 0.0 14.551596519069314 575.8661186374103 536.487641784608 # Ar
851 851 1 0.0 397.49749210784324 413.5064675108266 126.8916334872537 # Ar
852 852 1 0.0 547.4839886055121 351.7293335581595 121.53835041688349 # Ar
853 853 1 0.0 517.0594537755462 604.9950070280423 84.89468681400534 # Ar
854 854 1 0.0 310.79741874260236 20.011136723640476 581.2668963777559 # Ar
855 855 1 0.0 49.07427442001142 423.07790408979076 55.25038337238047 # Ar
856 856 1 0.0 643.4862088888641 584.6594001334455 285.7577339548117 # Ar
857 857 1 0.0 371.4420266565774 532.3556637901453 385.277732907289 # Ar
858 858 1 0.0 542.0948839487435 504.50254644857847 472.57233113788755 # Ar
859 859 1 0.0 640.499868801558 605.8743557907335 431.83349384991647 # Ar
860 860 1 0.0 181.75610864409254 59.184885352811534 94.2988357822105 # Ar
861 861 1 0.0 519.7698515605302 543.9762366926832 287.0845645930188 # Ar
862 862 1 0.0 392.6334485423823 339.1142084295914 290.0977434609013 # Ar
863 863 1 0.0 303.6044186867656 310.2569843204054 634.232195416289 # Ar
864 864 1 0.0 558.5563753638427 36.04306037347856 171.85550186777158 # Ar
865 865 1 0.0 323.62203183274886 218.87195158882554 428.994674901992 # Ar
866 866 1 0.0 205.0131455059306 12.248535419109418 519.5501745568248 # Ar
867 867 1 0.0 632.9982979919721 457.27732884870284 571.3604874270719 # Ar
868 868 1 0.0 403.83877794668723 427.61075736579096 322.0857954742964 # Ar
869 869 1 0.0 227.19373048112766 234.31046126213286 441.93937087062824 # Ar
870 870 1 0.0 44.053451689921935 624.9010286608645 644.7163896912203 # Ar
871 871 1 0.0 581.351300124345 10.098604013725641 151.9910749701163 # Ar
872 872 1 0.0 223.29295374283205 180.318830060789 107.33410000596761 # Ar
873 873 1 0.0 430.2907351285463 315.8149555978314 55.59321464045114 # Ar
874 874 1 0.0 290.7942496727977 583.1106026208332 636.6225727511181 # Ar
875 875 1 0.0 216.05731306998265 185.23794506535936 420.2443138342997 # Ar
876 876 1 0.0 590.4393280701265 411.0101990457273 45.44101281245249 # Ar
877 877 1 0.0 78.14810988889275 414.80423465794223 377.23139933516217 # Ar
878 878 1 0.0 442.93128096182846 409.13518034395526 176.0715847122262 # Ar
879 879 1 0.0 492.66674224595727 354.9683377391367 461.1945496869122 # Ar
880 880 1 0.0 380.3317058402331 421.5682974319434 244.07233240748474 # Ar
881 881 1 0.0 154.31700785187718 420.53022437274234 585.3092479812728 # Ar
882 882 1 0.0 253.39948107215662 285.5413632093517 408.3612031301929 # Ar
883 883 1 0.0 444.0387821948808 109.6889532957279 580.1604979954558 # Ar
884 884 1 0.0 442.43985695690293 35.6982069635588 590.4430572320088 # Ar
885 885 1 0.0 491.0682537004946 530.2301903904012 8.020622466338295 # Ar
886 886 1 0.0 639.0953764675935 363.68715104127654 644.0834680529645 # Ar
887 887 1 0.0 415.56345840520254 574.1273188957048 85.44506625267014 # Ar
888 888 1 0.0 639.441011963072 494.91695294981406 597.8715794380291 # Ar
889 889 1 0.0 69.24836388115355 98.59713067866119 129.83012492704188 # Ar
890 890 1 0.0 55.99050757410119 327.868836310027 565.4576233559874 # Ar
891 891 1 0.0 414.36444558964604 219.23768874988565 538.6121170554197 # Ar
892 892 1 0.0 447.4401040748403 124.10926657613491 296.4193298942461 # Ar
893 893 1 0.0 372.2670802763696 221.3765000465576 410.19082870292823 # Ar
894 894 1 0.0 176.4196846789123 334.11665057180977 402.4334629183938 # Ar
895 895 1 0.0 463.6191870587737 573.5485893031415 287.08474513507673 # Ar
896 896 1 0.0 57.11567045146896 139.44668312539315 43.70651217238913 # Ar
897 897 1 0.0 344.58357894797405 225.9610336185143 313.23891462250265 # Ar
898 898 1 0.0 480.4926561306542 551.8027600548147 48.55494479425668 # Ar
899 899 1 0.0 318.31485946255265 35.98522457852986 433.1055188554104 # Ar
900 900 1 0.0 578.4342072616173 518.8605416969473 206.23173838862286 # Ar
901 901 1 0.0 396.1334806875431 239.67213624496523 512.5728888026078 # Ar
902 902 1 0.0 414.3575212353305 302.7834822224845 328.51405974963893 # Ar
903 903 1 0.0 194.3720474912996 173.81389718676206 89.45698307521565 # Ar
904 904 1 0.0 266.1957403965308 404.2434965008455 216.04916765328838 # Ar
905 905 1 0.0 393.24497257532914 339.55412541348477 248.26188779045452 # Ar
906 906 1 0.0 183.34387075626015 640.0554099712772 570.8014680839824 # Ar
907 907 1 0.0 76.10865126474117 617.7783215055815 99.97997976287935 # Ar
908 908 1 0.0 113.7597367139309 355.65245637181675 28.14073294779294 # Ar
909 909 1 0.0 584.1248719165206 161.79721124109997 51.088465453126446 # Ar
910 910 1 0.0 467.0174655007548 641.5910189325081 184.54901677944704 # Ar
911 911 1 0.0 379.7040541301315 192.97024156692905 188.79299595258666 # Ar
912 912 1 0.0 580.0049486545039 606.1541042633858 67.96445511591376 # Ar
913 913 1 0.0 158.14505319243892 428.8007995328957 243.0208957229106 # Ar
914 914 1 0.0 428.62650014232474 623.1959947217841 288.74738189406986 # Ar
915 915 1 0.0 405.6463304564282 555.7685702450783 620.6353876160745 # Ar
916 916 1 0.0 421.70075052704385 380.63702483680385 42.231284089464395 # Ar
917 917 1 0.0 159.02759443076076 290.1104390796931 552.2160647097104 # Ar
918 918 1 0.0 627.865575343 534.3016020633586 129.2289564346732 # Ar
919 919 1 0.0 402.21642093999895 120.17923121990634 494.7569334731463 # Ar
920 920 1 0.0 307.63773515494813 543.2184468753859 370.1446952896596 # Ar
921 921 1 0.0 617.0513730465224 203.47695903619308 282.2574496193839 # Ar
922 922 1 0.0 601.3281989380123 379.8424761483834 634.3410408653715 # Ar
923 923 1 0.0 328.5429789325519 136.38649184647468 337.82635083645243 # Ar
924 924 1 0.0 490.95066994633174 537.4328879628721 647.0860605082917 # Ar
925 925 1 0.0 562.8935663092124 520.9563904216368 269.10731927369056 # Ar
926 926 1 0.0 503.49843164772045 148.0283217397159 380.887967425408 # Ar
927 927 1 0.0 200.95242232350358 102.31345787992117 577.2646137547526 # Ar
928 928 1 0.0 149.7997750409227 471.0765033817001 425.2335630923204 # Ar
929 929 1 0.0 522.2779667545715 401.65689329750586 385.566945298456 # Ar
930 930 1 0.0 298.2373721273244 10.022841378598425 420.64111176301884 # Ar
931 931 1 0.0 136.84882949052098 537.2284578083612 495.2172191984975 # Ar
932 932 1 0.0 131.0357828204071 153.86963496635343 253.58695718327746 # Ar
933 933 1 0.0 42.57118819187073 188.21002632887314 549.1964470117995 # Ar
934 934 1 0.0 576.7638314790466 136.3910405450453 384.38930734686625 # Ar
935 935 1 0.0 351.0514096145279 80.9364427563319 111.42877750613678 # Ar
936 936 1 0.0 522.2870094265373 172.34427527697335 182.5644784422296 # Ar
937 937 1 0.0 30.152805668269878 394.1237690319165 36.02152056418836 # Ar
938 938 1 0.0 231.97781716287824 638.064748211956 338.78102143890703 # Ar
939 939 1 0.0 144.21094279616153 329.4444762694862 247.81487745245266 # Ar
940 940 1 0.0 21.19615406944406 213.86379060309338 113.91373644209112 # Ar
941 941 1 0.0 338.6122100073987 560.4268195619119 55.644043787834384 # Ar
942 942 1 0.0 583.512993737606 284.79614052155864 20.22560958990485 # Ar
943 943 1 0.0 626.6550061264245 405.81488007719025 265.7747019527152 # Ar
944 944 1 0.0 304.00032324359046 639.6205899910349 241.73255264817467 # Ar
945 945 1 0.0 496.4513866167193 207.08395899863058 552.6222671906628 # Ar
946 946 1 0.0 414.63338405830507 219.07540902401195 295.00915490112783 # Ar
947 947 1 0.0 348.8204195429209 547.3510773789433 175.79336616862867 # Ar
948 948 1 0.0 75.82507682704417 203.83491128840953 584.8181968777495 # Ar
949 949 1 0.0 505.3964061417125 461.46768273007103 221.16909933158797 # Ar
950 950 1 0.0 278.59581306883365 379.2262166185622 229.45877873936573 # Ar
951 951 1 0.0 288.4530629395297 629.2861644561328 417.052864194935 # Ar
952 952 1 0.0 173.35965102577876 483.88472130115787 336.362107955688 # Ar
953 953 1 0.0 368.5688664671768 358.37777731830477 551.5563942630163 # Ar
954 954 1 0.0 497.44598781729275 410.0308542998529 430.0234880419632 # Ar
955 955 1 0.0 202.4295093894635 434.1403797493429 471.9690927893861 # Ar
956 956 1 0.0 493.94847120833697 219.10663897869128 547.947009246298 # Ar
957 957 1 0.0 627.6454743366594 404.84831220299685 182.6559300066219 # Ar
958 958 1 0.0 434.8551481165266 536.7717206324335 195.45325841254558 # Ar
959 959 1 0.0 97.03200244717709 595.6365677421918 634.8805827741086 # Ar
960 960 1 0.0 572.0629081918955 588.3007934247629 554.3293944968398 # Ar
961 961 1 0.0 538.8513892058644 444.1206680997518 259.9673849151482 # Ar
962 962 1 0.0 207.48839060053783 603.2499942357762 265.37897313895337 # Ar
963 963 1 0.0 84.48258626724396 201.45747542169687 166.1776412373913 # Ar
964 964 1 0.0 266.58338352643267 602.3492436001067 355.795670308011 # Ar
965 965 1 0.0 333.0047505006065 428.8834658608238 463.8027751231463 # Ar
966 966 1 0.0 236.36448203477232 398.6789959225396 496.65166978377323 # Ar
967 967 1 0.0 32.19335966189092 311.60428168332135 452.22859839876173 # Ar
968 968 1 0.0 594.0402189632916 385.8797091863217 329.46704038555174 # Ar
969 969 1 0.0 215.53107841222797 134.41885493600338 55.022272036901214 # Ar
970 970 1 0.0 212.99110394814707 354.8691518631218 28.916058655783218 # Ar
971 971 1 0.0 301.65528195253796 510.1584990676101 428.53752701254615 # Ar
972 972 1 0.0 423.1484642991109 580.8335432542623 474.06910061536433 # Ar
973 973 1 0.0 543.8780274879224 483.30339313034165 169.39042665334918 # Ar
974 974 1 0.0 40.29106874580435 65.5774807921544 256.16555052013706 # Ar
975 975 1 0.0 412.00600329181225 113.63715803473762 289.8260884449402 # Ar
976 976 1 0.0 191.08772376058346 238.9040035306647 621.9913865985021 # Ar
977 977 1 0.0 22.588611342130907 499.7052591600664 318.1097467358121 # Ar
978 978 1 0.0 274.7165704814156 401.833694322234 644.9551143416802 # Ar
979 979 1 0.0 595.1500271435043 123.3428561535505 499.6945624175066 # Ar
980 980 1 0.0 64.46774221875255 461.58680765903136 5.880632161491109 # Ar
981 981 1 0.0 18.062656748478823 73.94665079330598 312.8408078718589 # Ar
982 982 1 0.0 370.9730080198114 298.25739464511565 135.57476699861957 # Ar
983 983 1 0.0 252.34670993316513 102.66120256957782 205.62946162489106 # Ar
984 984 1 0.0 547.482101554691 28.214070706616035 292.74889619661076 # Ar
985 985 1 0.0 572.3576931122186 263.69915655922347 30.06290644806913 # Ar
986 986 1 0.0 410.9380975219409 447.2530801634889 428.28467303912225 # Ar
987 987 1 0.0 519.9211223446042 342.03573160581976 573.9833804100281 # Ar
988 988 1 0.0 502.51402582578345 237.3609173183168 44.489651782828616 # Ar
989 989 1 0.0 11.033287534812445 396.9933433430586 430.5006239101996 # Ar
990 990 1 0.0 189.9614782700785 577.9480578174205 278.89140383555053 # Ar
991 991 1 0.0 532.2118535989898 235.77192757257689 226.17109987865464 # Ar
992 992 1 0.0 332.5040588061532 135.81682685009116 271.8994641522905 # Ar
993 993 1 0.0 65.0414272671914 55.93599608406301 239.4979482885604 # Ar
994 994 1 0.0 166.01025485050275 43.674112991909325 309.25152281889257 # Ar
995 995 1 0.0 22.05738908938716 51.526946107255505 638.6883822125667 # Ar
996 996 1 0.0 77.74941746665762 503.65153202662873 599.350328972993 # Ar
997 997 1 0.0 462.9907415492652 243.92255797653692 368.9216206825819 # Ar
998 998 1 0.0 68.88398072926502 309.0214520393647 498.5338797119599 # Ar
999 999 1 0.0 7.953224931356921 64.13139516579844 394.3134588481835 # Ar
1000 1000 1 0.0 371.2876829591674 568.9180297932713 595.6062957495847 # Ar
1001 1001 1 0.0 374.77298789859867 441.92691130390335 540.653130976536 # Ar
1002 1002 1 0.0 215.59370720625893 499.4959396429812 375.5276806536698 # Ar
1003 1003 1 0.0 327.86503094122264 614.3846248011719 577.2599432479246 # Ar
1004 1004 1 0.0 637.3550468425226 267.89612152516804 23.006641605153675 # Ar
1005 1005 1 0.0 186.12149122700282 121.93574635521752 555.7486980748719 # Ar
1006 1006 1 0.0 134.8390492646846 568.5711332990109 386.9682739295582 # Ar
1007 1007 1 0.0 341.1653668906423 133.57634015773934 131.27668820204008 # Ar
1008 1008 1 0.0 64.69691827062202 597.9282753526719 327.81208046623794 # Ar
1009 1009 1 0.0 194.7953270879586 562.0198321865619 309.4166164256906 # Ar
1010 1010 1 0.0 261.83819789554536 576.545460139743 484.36349508952554 # Ar
1011 1011 1 0.0 232.0903853060959 636.5250828504392 631.8414402444463 # Ar
1012 1012 1 0.0 592.2592760296565 206.94643353272892 222.65012960528838 # Ar
1013 1013 1 0.0 234.6407173499143 101.35066767214903 400.45781658429115 # Ar
1014 1014 1 0.0 307.53094038799566 151.13192020976874 226.63713868565998 # Ar
1015 1015 1 0.0 472.41494406346095 3.779300510944062 239.93479967272592 # Ar
1016 1016 1 0.0 283.4737533677003 566.279059719812 199.9020000238791 # Ar
1017 1017 1 0.0 446.859324137811 363.1127913998493 396.3840492113846 # Ar
1018 1018 1 0.0 511.2436290671539 47.97569842107125 147.69537476424102 # Ar
1019 1019 1 0.0 196.4106531892744 334.7335144215857 479.24083081197125 # Ar
1020 1020 1 0.0 578.7376381721438 341.656499713499 618.4274854007327 # Ar
1021 1021 1 0.0 107.81330647765058 4.022305287716979 132.0647850206617 # Ar
1022 1022 1 0.0 135.59791825958982 196.68007918024526 628.5694714891753 # Ar
1023 1023 1 0.0 374.0898446595052 28.10762258772628 372.7305253222324 # Ar
1024 1024 1 0.0 396.2856517235969 371.23835305901446 46.4077411891658 # Ar
1025 1025 1 0.0 114.61528553450982 352.81400064153763 134.85118727309822 # Ar
1026 1026 1 0.0 357.2120871305657 497.8627193000484 632.1329229748043 # Ar
1027 1027 1 0.0 616.5295550088439 620.965980171383 165.2462317809185 # Ar
1028 1028 1 0.0 144.0286075804714 178.44675756936311 220.4001730958751 # Ar
1029 1029 1 0.0 202.33136265783827 97.86797000722541 471.425458400467 # Ar
1030 1030 1 0.0 312.4330320588039 631.7842110340993 444.40748592456913 # Ar
1031 1031 1 0.0 624.5044834445733 469.65226596309645 399.87765737690404 # Ar
1032 1032 1 0.0 214.0758399078912 524.3710099537994 283.2751295349172 # Ar
1033 1033 1 0.0 30.602081963657223 55.991151319467754 266.4479763862945 # Ar
1034 1034 1 0.0 562.6699192450501 252.78027857473177 417.1560804849024 # Ar
1035 1035 1 0.0 482.4738820148687 303.9514742677412 534.2692238130203 # Ar
1036 1036 1 0.0 547.0112308675817 584.0159727668722 466.65684133347355 # Ar
1037 1037 1 0.0 89.40895516925262 444.20387111588434 506.48419264363787 # Ar
1038 1038 1 0.0 586.6987036922386 397.2989357262886 541.3867496383905 # Ar
1039 1039 1 0.0 302.30414660518056 25.9805556875399 164.64870896638462 # Ar
1040 1040 1 0.0 307.1473107308032 510.0023684035273 440.1320809104677 # Ar
1041 1041 1 0.0 1.4582798567970927 444.35912529696736 72.73151816093937 # Ar
1042 1042 1 0.0 541.717309449524 285.0402381661432 346.47931301460244 # Ar
1043 1043 1 0.0 166.88441086193384 402.2755478058505 617.5240748887355 # Ar
1044 1044 1 0.0 588.1904310904292 507.0214540987433 575.7974946516264 # Ar
1045 1045 1 0.0 84.37727972126153 597.699492774412 566.8019573683806 # Ar
1046 1046 1 0.0 313.4179278014107 642.1667200467073 438.9559941691925 # Ar
1047 1047 1 0.0 469.03539069372 249.6257844777742 291.82012270359394 # Ar
1048 1048 1 0.0 486.4201550793612 240.04106000662136 4.119280456631692 # Ar
1049 1049 1 0.0 323.50177511294936 399.5202260952382 597.2744201854576 # Ar
1050 1050 1 0.0 64.65186370423415 410.97725118008753 258.1390781338501 # Ar
1051 1051 1 0.0 448.9812801557268 130.2821328089737 399.19886881424975 # Ar
1052 1052 1 0.0 515.8261242617019 70.13125490849554 291.7546743432031 # Ar
1053 1053 1 0.0 277.54559030671123 34.637707833416464 224.21046471174998 # Ar
1054 1054 1 0.0 62.679294089633764 1.7592363375452025 427.57818699780194 # Ar
1055 1055 1 0.0 153.8759066227715 357.3249464211408 263.15574414706595 # Ar
1056 1056 1 0.0 100.48289147798152 554.1400841550404 274.5963536918981 # Ar
1057 1057 1 0.0 52.766652477065875 22.32276872884109 423.5072152137828 # Ar
1058 1058 1 0.0 189.77908759951228 305.6921500282604 230.70365470960127 # Ar
1059 1059 1 0.0 247.5812917088945 548.924714417015 13.89537970442256 # Ar
1060 1060 1 0.0 477.49401445574233 313.87957882873735 398.5488129375825 # Ar
1061 1061 1 0.0 329.81365812042094 618.7515915232426 369.0731132874933 # Ar
1062 1062 1 0.0 292.7739248220415 102.885355851181 637.3749483328794 # Ar
1063 1063 1 0.0 396.4284974528867 625.8790783877923 600.3196095972718 # Ar
1064 1064 1 0.0 449.0936991458201 226.60871586876243 437.2666108800744 # Ar
1065 1065 1 0.0 181.9152880285185 298.53947253721043 45.86539204417653 # Ar
1066 1066 1 0.0 450.4358690500771 168.26194408018014 432.8092883556599 # Ar
1067 1067 1 0.0 101.1881011499718 106.30434623038423 337.5478611594794 # Ar
1068 1068 1 0.0 453.4198041764112 87.04174991129834 91.77966689567707 # Ar
1069 1069 1 0.0 459.91447637737326 340.50583018264274 40.12373747094932 # Ar
1070 1070 1 0.0 306.4796597320463 64.31367141782155 519.8548539829367 # Ar
1071 1071 1 0.0 281.3625050661809 59.17091689916868 48.22560944424269 # Ar
1072 1072 1 0.0 295.95307492902003 107.03565265434588 163.43481043456637 # Ar
1073 1073 1 0.0 557.5009033817075 507.17575963267797 617.3251528548335 # Ar
1074 1074 1 0.0 178.81806648552947 438.4929576667859 430.2198146494216 # Ar
1075 1075 1 0.0 199.5117095004317 353.0882901318527 114.3030049168949 # Ar
1076 1076 1 0.0 182.66485468365084 583.229541092958 142.78715833122004 # Ar
1077 1077 1 0.0 173.60867755038203 95.72156485917199 391.50949226437865 # Ar
1078 1078 1 0.0 118.88434462639798 85.14762902419236 448.29712158169684 # Ar
1079 1079 1 0.0 112.50205384952619 479.1026640468432 118.79539815002602 # Ar
1080 1080 1 0.0 420.946424197167 447.94123571590217 508.8056447941675 # Ar
1081 1081 1 0.0 597.4123888784358 213.14122676222107 488.15065442299266 # Ar
1082 1082 1 0.0 506.06310054284313 449.2657243224359 313.0950872301425 # Ar
1083 1083 1 0.0 437.9437700119681 219.7910042186868 118.87814821301524 # Ar
1084 1084 1 0.0 337.7524304822488 567.5466170281223 594.0113308551933 # Ar
1085 1085 1 0.0 52.96165515611907 245.65110398595527 622.2391887420542 # Ar
1086 1086 1 0.0 345.7872099653335 22.001568754133892 383.58657472155426 # Ar
1087 1087 1 0.0 302.34920219154185 348.95925629729857 539.8741645011672 # Ar
1088 1088 1 0.0 520.0630093798238 425.13090087027797 108.16035750852853 # Ar
1089 1089 1 0.0 464.4340027215248 333.64401398072584 619.2346872474442 # Ar
1090 1090 1 0.0 175.43002017495323 209.43210947349596 603.3782065946443 # Ar
1091 1091 1 0.0 108.20970385474236 581.418591938843 319.08269555136525 # Ar
1092 1092 1 0.0 55.15075807437954 377.06779490662376 455.14588899658554 # Ar
1093 1093 1 0.0 474.2700086937662 458.358411744399 159.3581625620702 # Ar
1094 1094 1 0.0 381.6321892277399 120.75453810956536 604.2788023864534 # Ar
1095 1095 1 0.0 402.99732366247696 638.3247347068627 516.7295209498067 # Ar
1096 1096 1 0.0 325.4447018510526 602.7233848018968 432.94990093880466 # Ar
1097 1097 1 0.0 325.89421436484304 148.22009189439538 399.0774348210225 # Ar
1098 1098 1 0.0 64.3390676050312 116.04780622100431 586.0084771689043 # Ar
1099 1099 1 0.0 378.7588789512257 248.30855747269115 460.26847632014716 # Ar
1100 1100 1 0.0 341.0901825486043 405.6416039926146 401.47222276402107 # Ar
1101 1101 1 0.0 204.03275508111471 412.52031509391725 287.6617234024563 # Ar
1102 1102 1 0.0 318.5958957084725 102.77370123619875 457.2278275498158 # Ar
1103 1103 1 0.0 314.2098927465919 25.279463378316574 440.9567514608003 # Ar
1104 1104 1 0.0 30.27118184028827 258.7171162951467 353.4445734899341 # Ar
1105 1105 1 0.0 440.5364821181183 1.6402947014268547 139.14326161226333 # Ar
1106 1106 1 0.0 177.08520532736486 40.46856287769876 427.9416938595705 # Ar
1107 1107 1 0.0 333.699286615685 283.2290032768595 353.96379006736464 # Ar
1108 1108 1 0.0 579.5650907735857 636.8778741729305 275.0660470148864 # Ar
1109 1109 1 0.0 200.79343540212307 467.8112153892202 99.50604783426785 # Ar
1110 1110 1 0.0 368.0674378309208 481.9660850334092 280.59901775373913 # Ar
1111 1111 1 0.0 554.4195678981482 358.26106858356763 497.66930748859784 # Ar
1112 1112 1 0.0 116.31759401877237 501.2973115890731 281.9415032456619 # Ar
1113 1113 1 0.0 566.4564549754474 523.5217120213962 526.0634678582804 # Ar
1114 1114 1 0.0 19.143686740912592 540.0589840044148 460.8003581657453 # Ar
1115 1115 1 0.0 421.3623256082731 149.82411955292181 589.9589037134683 # Ar
1116 1116 1 0.0 52.85884046005931 371.94980787025753 425.7667432899297 # Ar
1117 1117 1 0.0 277.38676174107735 522.8523841162386 154.86969439336337 # Ar
1118 1118 1 0.0 265.9898039123881 558.555410019685 259.65268791986216 # Ar
1119 1119 1 0.0 243.16498750035075 49.27922078601677 371.0486442585563 # Ar
1120 1120 1 0.0 65.64799126511042 243.37089688924152 533.4800474789574 # Ar
1121 1121 1 0.0 56.35061450132262 269.49800042346453 4.799494268183036 # Ar
1122 1122 1 0.0 509.1942890249239 298.0578583588771 172.6955040683477 # Ar
1123 1123 1 0.0 269.74252705626066 326.82508632919235 334.966529192851 # Ar
1124 1124 1 0.0 494.75098594773004 126.67258648721057 537.7333534449795 # Ar
1125 1125 1 0.0 5.4366125809573 38.78040787564061 51.363935524250316 # Ar
1126 1126 1 0.0 239.86203539408666 295.66460156585447 322.5370724707718 # Ar
1127 1127 1 0.0 470.68033705148923 575.1052697896521 285.6490630933384 # Ar
1128 1128 1 0.0 407.82427247102925 119.38134969489073 123.93825319873764 # Ar
1129 1129 1 0.0 560.3490988724584 123.18494807244825 485.03061176476086 # Ar
1130 1130 1 0.0 497.8623739427809 209.16523908493747 149.5299026477568 # Ar
1131 1131 1 0.0 550.2015232210507 572.0663138190781 268.9600838228713 # Ar
1132 1132 1 0.0 434.9807347398479 232.86161967386235 196.70434683913234 # Ar
1133 1133 1 0.0 177.38720622792013 324.8416455497181 51.552418525230934 # Ar
1134 1134 1 0.0 578.2417732866036 616.6807966320417 128.9371741597219 # Ar
1135 1135 1 0.0 601.5694348070884 59.33770307666307 467.2502220269923 # Ar
1136 1136 1 0.0 428.78506703100607 287.7318909893769 269.80129939766897 # Ar
1137 1137 1 0.0 80.4795169577431 384.81211558075734 543.6104903773542 # Ar
1138 1138 1 0.0 294.26192642739505 553.5772389628587 634.6989871366335 # Ar
1139 1139 1 0.0 399.70015720833834 372.22743800854863 47.51045094444433 # Ar
1140 1140 1 0.0 491.20374943576473 467.2380753060545 112.38399221307827 # Ar
1141 1141 1 0.0 134.94787970527 119.69863367197257 179.01866863933515 # Ar
1142 1142 1 0.0 476.7021139628659 295.96031898077916 415.825835164511 # Ar
1143 1143 1 0.0 267.7459894086291 261.37825528809265 174.77219440065613 # Ar
1144 1144 1 0.0 408.33482297615575 190.05723712567013 327.574986796776 # Ar
1145 1145 1 0.0 379.782233424309 32.25647819846817 301.89154178953487 # Ar
1146 1146 1 0.0 455.3555251094188 523.1014244738496 135.69844979363825 # Ar
1147 1147 1 0.0 563.4963064831912 28.847563026487613 609.2932945232759 # Ar
1148 1148 1 0.0 573.8280427183648 264.98501462125233 353.9385140132757 # Ar
1149 1149 1 0.0 510.39804881417285 370.409626113234 152.85978741348453 # Ar
1150 1150 1 0.0 628.3476093219656 75.04268581347884 512.8374334346433 # Ar
1151 1151 1 0.0 137.86399633982765 461.99355704376075 93.75134341853091 # Ar
1152 1152 1 0.0 238.18661673939746 426.8479899590965 419.877279250307 # Ar
1153 1153 1 0.0 285.6950473591456 419.9234593045823 587.3945844892061 # Ar
1154 1154 1 0.0 319.57598814532207 502.3771569951898 20.28039119886905 # Ar
1155 1155 1 0.0 561.9937621233532 316.3930325309752 9.339224474661258 # Ar
1156 1156 1 0.0 272.610656007965 525.0509409113165 598.1103281103012 # Ar
1157 1157 1 0.0 273.28516873357927 544.5109912928665 133.72854229479407 # Ar
1158 1158 1 0.0 284.6008096669143 581.7961549613675 566.0048957838749 # Ar
1159 1159 1 0.0 285.4587770835581 609.043376273499 103.84767376214589 # Ar
1160 1160 1 0.0 460.6431979350786 460.20973889900796 325.1282442742358 # Ar
1161 1161 1 0.0 363.8116387593902 576.4322428169168 465.5186037832441 # Ar
1162 1162 1 0.0 220.9969075433482 51.69638069017691 638.5069833300923 # Ar
1163 1163 1 0.0 108.85616743511837 625.7658186225428 2.5801050462500554 # Ar
1164 1164 1 0.0 267.55019577053787 447.6600357817152 618.1966831992472 # Ar
1165 1165 1 0.0 501.4188702854954 250.0952379666137 401.5447904020578 # Ar
1166 1166 1 0.0 416.4985765838373 115.16003781469483 523.0668875702981 # Ar
1167 1167 1 0.0 340.96161476308885 444.86155420881505 94.27600323238177 # Ar
1168 1168 1 0.0 204.17932761763518 236.60673036260255 354.2876264178486 # Ar
1169 1169 1 0.0 368.949397989638 627.5782080840356 397.3090819369808 # Ar
1170 1170 1 0.0 299.5231147542646 446.9684546522595 460.3246931176583 # Ar
1171 1171 1 0.0 331.63808945515734 209.44182980918097 158.99063482815689 # Ar
1172 1172 1 0.0 361.5846942888785 326.1251516684889 154.48013413377868 # Ar
1173 1173 1 0.0 406.82005310605535 86.97648512359898 135.72731243343893 # Ar
1174 1174 1 0.0 191.14348113693103 543.9497062157242 239.828505392809 # Ar
1175 1175 1 0.0 174.70402236764158 615.1769721356808 83.86069231331915 # Ar
1176 1176 1 0.0 194.6220794528289 75.05753323807465 433.41257706757625 # Ar
1177 1177 1 0.0 333.89347169511063 214.83519465889614 316.26441992321753 # Ar
1178 1178 1 0.0 189.91192908452757 103.81048769500389 118.1489604738563 # Ar
1179 1179 1 0.0 627.199292353926 342.74374787931265 192.63180051982857 # Ar
1180 1180 1 0.0 503.2962597757297 417.6526267220537 430.4187399884071 # Ar
1181 1181 1 0.0 460.57062180564753 96.11767755800237 11.160047346542134 # Ar
1182 1182 1 0.0 159.09442943537886 570.1385912281397 551.9017146029067 # Ar
1183 1183 1 0.0 613.4854647786967 168.79825344077025 389.18889275465335 # Ar
1184 1184 1 0.0 152.45657633468628 39.91668447137776 70.29312004983151 # Ar
1185 1185 1 0.0 135.1818048873338 284.2374565542353 305.4742858220014 # Ar
1186 1186 1 0.0 336.696835256944 173.6011972723191 251.4032208738738 # Ar
1187 1187 1 0.0 192.48413339897874 197.11566671196292 466.7553815669797 # Ar
1188 1188 1 0.0 404.736823677969 27.1728717809212 66.91006597895559 # Ar
1189 1189 1 0.0 586.2911900877576 37.501441232080815 213.73934136071912 # Ar
1190 1190 1 0.0 42.797929832490844 58.382346006560354 156.83036095641242 # Ar
1191 1191 1 0.0 448.7264619218541 110.34865051870469 63.7025877531302 # Ar
1192 1192 1 0.0 75.06935826553966 477.47657231386415 552.6579321053049 # Ar
1193 1193 1 0.0 144.77642130482474 217.01051102988745 209.35749982869314 # Ar
1194 1194 1 0.0 568.8962617175279 363.2603044459669 95.43026996836949 # Ar
1195 1195 1 0.0 480.900531088788 357.14124599956125 179.37876531417766 # Ar
1196 1196 1 0.0 252.22229964305336 281.6482979139414 411.9164906468502 # Ar
1197 1197 1 0.0 28.181109461006727 643.9628029094804 143.10220941915193 # Ar
1198 1198 1 0.0 388.59838393619475 345.94898224240256 136.32265137806385 # Ar
1199 1199 1 0.0 58.69074335124853 617.1314039853913 286.35460218830997 # Ar
1200 1200 1 0.0 577.9425852434762 598.202368395004 485.2970384773185 # Ar
1201 1201 1 0.0 68.59718282356961 415.0496444366404 637.7333476641953 # Ar
1202 1202 1 0.0 57.18449583831868 445.9007899190296 251.42364943236302 # Ar
1203 1203 1 0.0 245.60850914361617 571.6736731551622 615.2172817361799 # Ar
1204 1204 1 0.0 17.97939488516789 378.0006712168246 528.3747376712527 # Ar
1205 1205 1 0.0 77.05828494286247 571.5934074420345 352.03276506175126 # Ar
1206 1206 1 0.0 590.0121190039821 508.8114626290443 615.3739877438642 # Ar
1207 1207 1 0.0 509.2211761723537 392.39913162077164 603.1554439033421 # Ar
1208 1208 1 0.0 122.50544043903004 108.11154618072074 343.8070130833189 # Ar
1209 1209 1 0.0 413.4025950138894 521.8395710972935 458.598032659074 # Ar
1210 1210 1 0.0 607.1616088925284 553.2291391425622 377.21410383597805 # Ar
1211 1211 1 0.0 527.5678428211241 531.1881308065705 408.72454434738404 # Ar
1212 1212 1 0.0 511.7783316361115 381.0664993918217 32.030794666088084 # Ar
1213 1213 1 0.0 316.75953741596044 242.76996593439853 180.18255429633768 # Ar
1214 1214 1 0.0 63.644308399912816 611.0404008382391 197.17893947822012 # Ar
1215 1215 1 0.0 358.93636833839787 152.71957675021204 219.59661496343813 # Ar
1216 1216 1 0.0 231.22381052617263 83.5466779700009 111.96045750757379 # Ar
1217 1217 1 0.0 44.182078852118146 92.00442837934217 343.1259097294849 # Ar
1218 1218 1 0.0 199.63172789695378 299.5549806767233 488.85144825372583 # Ar
1219 1219 1 0.0 322.7923088057085 154.6158443897822 392.43096270553076 # Ar
1220 1220 1 0.0 558.5316569709182 404.0997446903515 188.8282767380532 # Ar
1221 1221 1 0.0 367.76740792738923 585.0087154024569 491.8459539763335 # Ar
1222 1222 1 0.0 508.07288967986864 86.10636099890053 326.4114673063081 # Ar
1223 1223 1 0.0 195.35380142825943 601.1754475685016 28.339561965447448 # Ar
1224 1224 1 0.0 175.0534204710051 544.4772091061565 244.09311151837426 # Ar
1225 1225 1 0.0 17.765548360374908 633.7472078735443 320.68297433232397 # Ar
1226 1226 1 0.0 364.10738465544017 359.71748847996065 405.64249321835854 # Ar
1227 1227 1 0.0 573.6420926657697 138.29770180092603 112.55902393016396 # Ar
1228 1228 1 0.0 347.3383501322087 426.55129884270485 164.8314502880994 # Ar
1229 1229 1 0.0 116.76670273149578 197.70587797183384 351.57880210379807 # Ar
1230 1230 1 0.0 407.2859569219032 471.5593466121796 603.7932038335874 # Ar
1231 1231 1 0.0 629.7590047697068 189.33992941199858 97.72593571139372 # Ar
1232 1232 1 0.0 437.80619416987724 233.70787301323807 428.49360633760165 # Ar
1233 1233 1 0.0 601.0081458923072 569.4655491236821 336.32622619457294 # Ar
1234 1234 1 0.0 310.36013575406537 24.526461871264914 150.96136267685333 # Ar
1235 1235 1 0.0 71.12679634483295 593.627770883034 472.3407912794948 # Ar
1236 1236 1 0.0 182.76954636717736 225.95342687614655 17.028015689402775 # Ar
1237 1237 1 0.0 68.25247169241435 519.0377963140194 204.9922751527037 # Ar
1238 1238 1 0.0 194.41771424041445 489.65287082637053 227.34427750153313 # Ar
1239 1239 1 0.0 603.2669949597408 470.9115266331795 637.9664694689972 # Ar
1240 1240 1 0.0 420.730732057313 219.16495431246756 152.03935227055337 # Ar
1241 1241 1 0.0 408.51090068754104 12.131694592739729 602.271479735581 # Ar
1242 1242 1 0.0 616.5738100403441 462.9128170932094 327.2104418264135 # Ar
1243 1243 1 0.0 33.783111550324776 370.28578852429325 185.2063926723362 # Ar
1244 1244 1 0.0 437.37484159779916 44.74787616519606 234.92273889836966 # Ar
1245 1245 1 0.0 506.8832581853098 471.20840198974986 25.361336913495908 # Ar
1246 1246 1 0.0 418.7611315261378 318.66645307165373 444.76712307224005 # Ar
1247 1247 1 0.0 535.4896872270858 43.85513666650311 486.9594183604012 # Ar
1248 1248 1 0.0 619.6676296798345 152.33561724958466 327.3773911835954 # Ar
1249 1249 1 0.0 462.85506604693956 582.4416761052653 451.8128493864438 # Ar
1250 1250 1 0.0 236.18681753477807 530.0391597138704 543.4806523737475 # Ar
1251 1251 1 0.0 290.0140268755989 108.83910954839784 493.0857687516345 # Ar
1252 1252 1 0.0 153.89939504491136 464.768552984253 580.5947579577422 # Ar
1253 1253 1 0.0 185.10636848930503 326.62344877260387 226.7986643976306 # Ar
1254 1254 1 0.0 457.979700646904 188.85765487739022 259.5657807280073 # Ar
1255 1255 1 0.0 62.32905642097215 91.83936785294777 358.14744749149725 # Ar
1256 1256 1 0.0 516.2237942519522 100.36209561211741 437.0473536648881 # Ar
1257 1257 1 0.0 134.09511544913696 492.8453362265985 378.692702781097 # Ar
1258 1258 1 0.0 298.0454457735195 565.3530870109425 576.5221108009779 # Ar
1259 1259 1 0.0 365.2920828003936 548.0057261072027 154.76270540250084 # Ar
1260 1260 1 0.0 615.6172107219536 192.0121576290729 31.735467615890215 # Ar
1261 1261 1 0.0 417.42108609663796 592.5387979800995 381.7694814884961 # Ar
1262 1262 1 0.0 352.3365898875229 6.8270181476117635 184.17913817061194 # Ar
1263 1263 1 0.0 113.54531385128868 363.3344516401373 83.81052795693746 # Ar
1264 1264 1 0.0 531.6212527911047 572.1884381229963 446.75714480747155 # Ar
1265 1265 1 0.0 539.4187641758766 339.2789249152281 415.74637287133646 # Ar
1266 1266 1 0.0 349.1950237597825 181.63652525030204 590.7874966084398 # Ar
1267 1267 1 0.0 118.90831056254727 582.4368940767683 171.38406400328407 # Ar
1268 1268 1 0.0 28.765380249911914 364.2776745032305 196.99242850862913 # Ar
1269 1269 1 0.0 492.91332260333405 518.5048121364989 209.79773757341815 # Ar
1270 1270 1 0.0 371.0389197232885 576.3716116157404 45.54149240496792 # Ar
1271 1271 1 0.0 483.9567875143688 645.6561362841687 375.6058894800898 # Ar
1272 1272 1 0.0 263.2005917593765 527.2907255087059 488.4531210284494 # Ar
1273 1273 1 0.0 371.3406375957254 49.922244075077614 281.7807381551765 # Ar
1274 1274 1 0.0 404.8670130833873 116.34187612206473 263.4567107803854 # Ar
1275 1275 1 0.0 112.80737258423268 587.1793797999911 15.34352283550523 # Ar
1276 1276 1 0.0 534.317933891043 361.5669677939403 112.81642883891817 # Ar
1277 1277 1 0.0 611.0038822101606 587.0559067575191 572.7656092332261 # Ar
1278 1278 1 0.0 562.3341123039212 302.7612491633379 313.68339373314836 # Ar
1279 1279 1 0.0 473.72019101198885 621.7803281880631 259.71457351329207 # Ar
1280 1280 1 0.0 318.28817978954686 145.4788135180197 224.208001815659 # Ar
1281 1281 1 0.0 621.658964999974 534.158966586336 610.0831002624282 # Ar
1282 1282 1 0.0 575.271798798272 395.65582362962977 32.535668067638156 # Ar
1283 1283 1 0.0 135.2295832158992 147.176077417663 481.82024590865 # Ar
1284 1284 1 0.0 67.14418804480987 582.9952678985869 16.3817010567386 # Ar
1285 1285 1 0.0 198.08061188338115 265.3490004631761 547.6964197783069 # Ar
1286 1286 1 0.0 286.38924347821444 279.80967697691733 613.6642265816256 # Ar
1287 1287 1 0.0 462.2183820911243 468.23211796667135 508.75496986532113 # Ar
1288 1288 1 0.0 25.492188776543145 509.47008756520376 504.89024397516306 # Ar
1289 1289 1 0.0 442.85286250925066 38.28116194847023 556.2417474767186 # Ar
1290 1290 1 0.0 252.8826398055588 479.002580839353 89.52253632827298 # Ar
1291 1291 1 0.0 166.5054910273388 444.6977380712359 472.78002116450165 # Ar
1292 1292 1 0.0 490.38796435141836 549.0738778390514 308.34308938892144 # Ar
1293 1293 1 0.0 516.8614072161948 332.18747209104447 13.001888646658712 # Ar
1294 1294 1 0.0 219.13919478195018 296.73033181178886 415.59447178776514 # Ar
1295 1295 1 0.0 487.9954205763874 16.594613814827966 71.02968042799235 # Ar
1296 1296 1 0.0 480.42658672806175 516.3198698016981 367.59602632334116 # Ar
1297 1297 1 0.0 0.3116482573993858 78.79363674156951 141.28178226201823 # Ar
1298 1298 1 0.0 645.6214062703078 431.5472115267879 318.6650153073846 # Ar
1299 1299 1 0.0 396.31655352488934 234.5874732228375 275.11816994104885 # Ar
1300 1300 1 0.0 245.59048555539724 227.0144195447095 455.4750831346409 # Ar
1301 1301 1 0.0 211.74234133068956 488.9598368666973 581.5371810774615 # Ar
1302 1302 1 0.0 452.1167028728435 410.7733536806246 158.78640889888229 # Ar
1303 1303 1 0.0 306.0549771866897 308.56916977926375 0.22120112165324057 # Ar
1304 1304 1 0.0 290.74391446930184 370.42480828026504 28.07861696165428 # Ar
1305 1305 1 0.0 107.9542315794078 246.95699185877695 135.45169117008777 # Ar
1306 1306 1 0.0 522.7999675258199 570.4962268687317 212.61471357613485 # Ar
1307 1307 1 0.0 165.8923705979991 402.9251206482705 17.25131628186458 # Ar
1308 1308 1 0.0 435.78550901427525 179.0183476894829 104.63505503902259 # Ar
1309 1309 1 0.0 144.3115966131608 339.6437720666255 71.5117080428751 # Ar
1310 1310 1 0.0 85.79553606639546 477.2266910452867 208.17527261355175 # Ar
1311 1311 1 0.0 262.02771356465655 9.617509570024794 24.77358767334913 # Ar
1312 1312 1 0.0 241.58574943900874 469.83730249437247 419.31118250935964 # Ar
1313 1313 1 0.0 556.4931564702447 33.45004799189387 495.2789331724518 # Ar
1314 1314 1 0.0 119.70931054032852 496.41073677488833 475.4065346113562 # Ar
1315 1315 1 0.0 448.4531640418766 75.13523697276173 95.91868741477927 # Ar
1316 1316 1 0.0 607.0166397798448 608.5271385626731 545.5918537603787 # Ar
1317 1317 1 0.0 573.4748503729236 49.10507152897375 302.51723550715263 # Ar
1318 1318 1 0.0 581.1108046670585 487.5468462270718 28.385456191804867 # Ar
1319 1319 1 0.0 386.6355555346715 522.6796411029374 539.9393863843686 # Ar
1320 1320 1 0.0 488.8752754430048 133.37398890804653 352.46518165427767 # Ar
1321 1321 1 0.0 209.19763852407837 542.795238053852 476.2679273824963 # Ar
1322 1322 1 0.0 490.0522119399574 493.2147562404482 112.88743726487083 # Ar
1323 1323 1 0.0 580.6579417866393 363.2077663815046 273.752852200957 # Ar
1324 1324 1 0.0 198.55995794938852 207.31218807773925 602.5091081807263 # Ar
1325 1325 1 0.0 208.5954915217522 71.06978923201922 304.5146844786752 # Ar
1326 1326 1 0.0 461.5921756403403 439.684073670086 18.28862131014042 # Ar
1327 1327 1 0.0 502.1851436546163 524.6000309890384 230.79428510882263 # Ar
1328 1328 1 0.0 218.99547204977867 222.0324123870969 433.94016991784406 # Ar
1329 1329 1 0.0 408.46340206075786 103.32726703277784 303.47834887083184 # Ar
1330 1330 1 0.0 354.99251592770446 213.02629972117344 243.98952086088286 # Ar
1331 1331 1 0.0 16.548493983598476 484.353598070415 585.1719888662291 # Ar
1332 1332 1 0.0 284.90012834182676 206.4812115708407 527.6303196050342 # Ar
1333 1333 1 0.0 243.94135645310206 128.3303089474797 61.360380951792195 # Ar
1334 1334 1 0.0 374.7571856717927 454.7831635977792 479.2053088183267 # Ar
1335 1335 1 0.0 329.3842555627934 274.5861647532385 452.1017229008311 # Ar
1336 1336 1 0.0 45.226351633357055 555.1593784196133 540.8847999209803 # Ar
1337 1337 1 0.0 49.97927020277656 99.24113043703385 245.7187207622656 # Ar
1338 1338 1 0.0 156.7861715387687 539.3394811775185 85.24912401736294 # Ar
1339 1339 1 0.0 433.48543970375067 598.55641481311 592.7116637145579 # Ar
1340 1340 1 0.0 443.13602273135695 143.61666239495 199.25476607963157 # Ar
1341 1341 1 0.0 20.37121064490221 308.54920325541104 498.0580311930052 # Ar
1342 1342 1 0.0 616.6951505840844 59.320161667079795 149.81990737333243 # Ar
1343 1343 1 0.0 491.60280035942725 196.9205360063226 384.62810946158214 # Ar
1344 1344 1 0.0 598.3175669662888 85.55324852448553 173.62439844290486 # Ar
1345 1345 1 0.0 93.41441625240469 594.2558199960897 502.6121791203986 # Ar
1346 1346 1 0.0 395.11051139182837 284.35571741007254 377.46444580248067 # Ar
1347 1347 1 0.0 264.8266245283981 210.2283000367171 459.05387877527767 # Ar
1348 1348 1 0.0 641.3346493404729 198.40531778234444 268.21140194409276 # Ar
1349 1349 1 0.0 561.8944767687719 229.58981488541033 514.8443402916986 # Ar
1350 1350 1 0.0 369.74121194015987 157.24087927666497 277.31077964022165 # Ar
1351 1351 1 0.0 203.6400603261678 444.1043524144312 81.74516259599181 # Ar
1352 1352 1 0.0 352.1190286422624 632.585515672812 416.7561358643804 # Ar
1353 1353 1 0.0 23.943890072248312 517.6430978285017 517.7600418381584 # Ar
1354 1354 1 0.0 300.8247734695693 648.1592310434766 71.88682114649022 # Ar
1355 1355 1 0.0 404.5270058630622 402.1197248989205 190.76365410790856 # Ar
1356 1356 1 0.0 359.05261633907793 512.2186917083054 12.302591485217983 # Ar
1357 1357 1 0.0 32.53142542435706 474.0554242427522 364.87831754042344 # Ar
1358 1358 1 0.0 163.79609835757878 349.9967581711284 26.010156341994264 # Ar
1359 1359 1 0.0 387.94278899688317 142.0970970138957 73.46495118225798 # Ar
1360 1360 1 0.0 487.5575302796642 119.20334655298751 578.2316609893552 # Ar
1361 1361 1 0.0 486.57015859818586 232.58562770314714 513.1424985674545 # Ar
1362 1362 1 0.0 369.1503375969893 523.2340356131575 118.34598189065693 # Ar
1363 1363 1 0.0 537.9342891048832 341.1481794337237 491.1939569696849 # Ar
1364 1364 1 0.0 417.21463566034697 179.61968498385852 129.7510604725167 # Ar
1365 1365 1 0.0 187.9763055016583 60.16970085824099 333.0776914521956 # Ar
1366 1366 1 0.0 354.51881789761865 619.7031087110274 392.4010906020784 # Ar
1367 1367 1 0.0 583.6740174387829 53.556812974569674 270.40642057537707 # Ar
1368 1368 1 0.0 10.876475213481353 260.19190202399807 426.3557972580408 # Ar
1369 1369 1 0.0 375.0365622894854 328.1976949029863 460.93314860688633 # Ar
1370 1370 1 0.0 534.0781805960806 527.8341059176213 255.51915151500518 # Ar
1371 1371 1 0.0 54.63601256645431 266.6267902458625 56.219332339973754 # Ar
1372 1372 1 0.0 87.9985504437348 513.8346416967807 496.06108410557346 # Ar
1373 1373 1 0.0 69.08527644440701 525.703649631532 248.1977902650325 # Ar
1374 1374 1 0.0 397.28510579156045 391.7571305578261 561.1938719825031 # Ar
1375 1375 1 0.0 70.45382489414516 157.6444584890648 284.47662776639424 # Ar
1376 1376 1 0.0 517.2927556630548 298.1593893959318 585.6261026870642 # Ar
1377 1377 1 0.0 370.75379650943876 156.14164192069433 206.06276380747823 # Ar
1378 1378 1 0.0 35.975260599948996 556.9621764497714 480.71602766004696 # Ar
1379 1379 1 0.0 581.660787085004 129.91730426051703 289.119201615872 # Ar
1380 1380 1 0.0 409.7403232638911 301.8597374608539 587.0447978316694 # Ar
1381 1381 1 0.0 610.1901260684172 262.50086196702085 435.6624516996706 # Ar
1382 1382 1 0.0 592.7847642860784 593.6763394454955 35.04203567407466 # Ar
1383 1383 1 0.0 356.27584092243416 206.3254250901678 275.6354080012348 # Ar
1384 1384 1 0.0 605.7845493779124 473.9903235607409 460.736914246215 # Ar
1385 1385 1 0.0 214.49614256257544 463.94039346071594 408.10109197122455 # Ar
1386 1386 1 0.0 172.55087395424968 208.4328425579926 608.8912826466868 # Ar
1387 1387 1 0.0 263.86137464970267 486.0180305177589 226.17110994720363 # Ar
1388 1388 1 0.0 493.94065534742106 475.68814351803155 145.00865867786365 # Ar
1389 1389 1 0.0 414.02646948995954 434.1561964888841 449.3228483336471 # Ar
1390 1390 1 0.0 99.26305428555577 210.55474486898135 494.63812317055744 # Ar
1391 1391 1 0.0 559.8004409532293 47.35582225452854 34.42424422591639 # Ar
1392 1392 1 0.0 527.8036131843397 277.5624029213736 515.6699817649906 # Ar
1393 1393 1 0.0 36.112389734042175 207.77955936118687 577.6769973890788 # Ar
1394 1394 1 0.0 242.17460925414045 430.01765542795926 441.62515873280086 # Ar
1395 1395 1 0.0 65.30323913329632 593.5134774822855 74.2896859351203 # Ar
1396 1396 1 0.0 313.9924849852482 505.17818683094396 528.7259327061996 # Ar
1397 1397 1 0.0 546.6496455870708 132.62732765825942 341.09156204106034 # Ar
1398 1398 1 0.0 233.9487661093443 537.1304686600407 475.8555069592788 # Ar
1399 1399 1 0.0 104.31563422093599 584.0706471161344 506.4327728792307 # Ar
1400 1400 1 0.0 589.9699213321206 220.9239221572639 313.5881622130379 # Ar
1401 1401 1 0.0 549.3002457144761 401.94111231652363 128.44592571523515 # Ar
1402 1402 1 0.0 353.53182587254935 405.9612258123307 168.6922747129648 # Ar
1403 1403 1 0.0 435.0290636140703 611.7798422359668 299.22141971183163 # Ar
1404 1404 1 0.0 350.5675741514638 518.0594320467738 403.18597185565363 # Ar
1405 1405 1 0.0 23.415672326572125 292.2841561271479 612.1102751237526 # Ar
1406 1406 1 0.0 114.30247192576574 83.0448106263986 638.1398416799033 # Ar
1407 1407 1 0.0 187.3238688072558 228.8856236972681 199.95066672995344 # Ar
1408 1408 1 0.0 267.58669089344187 148.1403169599092 370.3027017566952 # Ar
1409 1409 1 0.0 274.53144446513073 586.4518508888231 614.3080058053763 # Ar
1410 1410 1 0.0 527.7894285939396 139.28351804713537 376.9700443401459 # Ar
1411 1411 1 0.0 580.0706206693308 53.71451269593124 456.05792030172745 # Ar
1412 1412 1 0.0 402.885354271024 26.674119721468934 640.4261258741611 # Ar
1413 1413 1 0.0 475.6182373801135 394.6866195387802 68.34355744973227 # Ar
1414 1414 1 0.0 177.82025211841795 203.86104883298006 69.133634993867 # Ar
1415 1415 1 0.0 160.6754945453916 286.51610263758363 149.16762040291312 # Ar
1416 1416 1 0.0 48.28452079717439 408.2886519020504 500.33133108171444 # Ar
1417 1417 1 0.0 634.2703526245606 561.9450411874625 184.621083421733 # Ar
1418 1418 1 0.0 401.9801952469373 631.0235634882325 579.3158014005002 # Ar
1419 1419 1 0.0 646.5095199458275 395.3689087798246 277.00874288808046 # Ar
1420 1420 1 0.0 54.83721638028214 453.441175188615 275.7933772807768 # Ar
1421 1421 1 0.0 371.0074479402374 549.3721829127985 32.61221514410155 # Ar
1422 1422 1 0.0 418.99030473675595 25.57490467635423 92.83495900322968 # Ar
1423 1423 1 0.0 301.29482524930063 417.606013971085 419.50444845399994 # Ar
1424 1424 1 0.0 608.7225631601422 204.2181493340648 426.706308368885 # Ar
1425 1425 1 0.0 425.3100858840173 66.57286791279425 434.0206730098257 # Ar
1426 1426 1 0.0 486.0414630852001 262.1736487205331 51.76374276819405 # Ar
1427 1427 1 0.0 481.2393332459821 591.645514792106 275.84890193918994 # Ar
1428 1428 1 0.0 401.2283568334897 329.6300356443546 200.60627965763226 # Ar
1429 1429 1 0.0 195.58374244362008 383.11024628924497 37.31356375504187 # Ar
1430 1430 1 0.0 455.99253714629634 3.736346161536427 106.86620765286608 # Ar
1431 1431 1 0.0 26.80954106035093 166.6358939777987 500.15120785809165 # Ar
1432 1432 1 0.0 183.44135199506061 328.42124005878924 211.88933817602276 # Ar
1433 1433 1 0.0 59.893421376280614 583.240741389313 88.37489506517994 # Ar
1434 1434 1 0.0 107.49261492428401 514.942134374161 591.537842367962 # Ar
1435 1435 1 0.0 425.8397821712354 24.30160507339939 511.44538515518536 # Ar
1436 1436 1 0.0 109.25921154883943 197.54730598379615 554.0268316643352 # Ar
1437 1437 1 0.0 251.69868392563288 566.8930355350213 568.8176600286536 # Ar
1438 1438 1 0.0 85.7749201456195 197.24495571988655 450.67580616050634 # Ar
1439 1439 1 0.0 51.91188526872139 128.99989968133167 63.60980339405382 # Ar
1440 1440 1 0.0 585.4644183424076 275.94285372279455 555.9615314988525 # Ar
1441 1441 1 0.0 175.2362352069627 31.004835276561675 358.18935121900404 # Ar
1442 1442 1 0.0 13.910612955427716 130.64443029679055 6.8594790338459095 # Ar
1443 1443 1 0.0 361.55249770183957 120.57109971450323 323.4445606567562 # Ar
1444 1444 1 0.0 598.4621323617828 600.129737391712 498.89925841930045 # Ar
1445 1445 1 0.0 572.9599625609983 66.05811744980014 236.38758384109477 # Ar
1446 1446 1 0.0 343.2014449167466 304.5319510899323 74.00665273627591 # Ar
1447 1447 1 0.0 89.08550993699194 455.8996091400033 311.7461566598559 # Ar
1448 1448 1 0.0 230.14929473543813 20.548907165894427 332.86263583075475 # Ar
1449 1449 1 0.0 136.56176137445192 285.4798295055596 335.82004199288565 # Ar
1450 1450 1 0.0 145.05142913759448 641.5915262203536 42.77203782581789 # Ar
1451 1451 1 0.0 502.53522661688083 321.320242705126 202.94268701512823 # Ar
1452 1452 1 0.0 496.3806892132526 633.1859604973595 293.60498782491595 # Ar
1453 1453 1 0.0 356.98304936098486 594.9587591784218 21.676714800197992 # Ar
1454 1454 1 0.0 326.45891512778616 579.8699560520693 150.35075995442776 # Ar
1455 1455 1 0.0 321.1869994881288 0.6760673105942194 41.650163026929555 # Ar
1456 1456 1 0.0 614.8798223294965 543.8762437789671 94.43048014100816 # Ar
1457 1457 1 0.0 336.69804824746484 626.8960928329806 373.7100231915696 # Ar
1458 1458 1 0.0 10.714378642271535 510.1790343431886 370.81694825195655 # Ar
1459 1459 1 0.0 81.09653390794507 103.7809215442346 473.9276961586091 # Ar
1460 1460 1 0.0 291.7130206002575 225.720329837156 251.98800549333166 # Ar
1461 1461 1 0.0 239.76556706481873 241.79283185219708 228.96707335859338 # Ar
1462 1462 1 0.0 622.7569766062231 319.55891284687675 349.0244068199822 # Ar
1463 1463 1 0.0 35.99798499546459 471.4826015751341 91.54907665123272 # Ar
1464 1464 1 0.0 442.0245102662652 476.9760771146626 383.17501007899205 # Ar
1465 1465 1 0.0 466.0590813467186 208.1333064734231 357.6791203227227 # Ar
1466 1466 1 0.0 28.704977478472994 511.94959442958054 442.8853587559667 # Ar
1467 1467 1 0.0 235.36172094208044 505.5611308802969 303.8252675899278 # Ar
1468 1468 1 0.0 281.9729125640487 586.3277237925727 524.8045400107555 # Ar
1469 1469 1 0.0 56.21583356928494 413.66088639761267 565.704936260381 # Ar
1470 1470 1 0.0 376.61634176024944 513.8563541649373 109.7176749258854 # Ar
1471 1471 1 0.0 345.3133094697956 341.8222380422956 470.32703270020914 # Ar
1472 1472 1 0.0 447.3321890602291 214.19927180030342 3.0755072739783125 # Ar
1473 1473 1 0.0 465.6339890952564 320.12548273071843 79.25735309792199 # Ar
1474 1474 1 0.0 419.0765991793271 209.68909939504445 8.831227989511863 # Ar
1475 1475 1 0.0 201.79430597459012 114.04095671704987 13.34143051210265 # Ar
1476 1476 1 0.0 437.6404276100761 44.47643164348491 206.04835521307 # Ar
1477 1477 1 0.0 104.01578325958282 421.5612070338852 526.4417596273911 # Ar
1478 1478 1 0.0 6.2112264899949166 111.51105621825475 643.252256002266 # Ar
1479 1479 1 0.0 533.1763603882321 325.20999788007776 471.536761529511 # Ar
1480 1480 1 0.0 131.5536268449218 144.02989443280796 540.4436842150706 # Ar
1481 1481 1 0.0 334.94786169061837 610.702307405786 256.995033073768 # Ar
1482 1482 1 0.0 20.136397572581586 565.4234085651226 441.9694913190053 # Ar
1483 1483 1 0.0 47.19867113677006 442.8482175469079 59.826769178090714 # Ar
1484 1484 1 0.0 150.98093788097603 599.7942398238722 154.3698078518399 # Ar
1485 1485 1 0.0 390.4913065429582 265.55160262662196 67.28531093069135 # Ar
1486 1486 1 0.0 29.030885072470006 95.60633604403877 137.57444826787594 # Ar
1487 1487 1 0.0 148.66693853471153 600.8430013166852 303.16955075664765 # Ar
1488 1488 1 0.0 299.1945259666253 570.6957192261488 226.57148543710426 # Ar
1489 1489 1 0.0 237.9808070776009 237.2529272166276 104.0288654424151 # Ar
1490 1490 1 0.0 452.3501034674215 34.59938649495794 105.12345124606831 # Ar
1491 1491 1 0.0 407.98326251279934 412.8090962429474 210.13852146953846 # Ar
1492 1492 1 0.0 119.3314066565358 399.4014257975495 162.50093477384067 # Ar
1493 1493 1 0.0 554.5427783975601 587.4243290767402 283.9438441103709 # Ar
1494 1494 1 0.0 489.8877704504758 153.42221780135455 522.0046540601054 # Ar
1495 1495 1 0.0 417.44842907014413 306.14959577476026 464.82248107525817 # Ar
1496 1496 1 0.0 401.037165251705 509.69990244383865 482.9276659932912 # Ar
1497 1497 1 0.0 290.14902273194355 45.87194315402961 263.1053526562281 # Ar
1498 1498 1 0.0 506.57542311654674 621.9442344677153 182.80712375041324 # Ar
1499 1499 1 0.0 416.7770998638931 626.7937150447603 271.3825279567683 # Ar
1500 1500 1 0.0 83.6412384805166 459.6201829078063 594.4628797105629 # Ar
1501 1501 1 0.0 384.87580637848333 432.21094419637257 185.95654241628674 # Ar
1502 1502 1 0.0 242.19381218521485 16.607592685218293 210.11664509908485 # Ar
1503 1503 1 0.0 99.78446169725639 336.1161133480792 396.5868323327044 # Ar
1504 1504 1 0.0 259.99974447034737 270.62860728480854 219.18933852186782 # Ar
1505 1505 1 0.0 253.30440380567765 153.68307042509448 146.25930659651024 # Ar
1506 1506 1 0.0 407.55443992154983 402.10653781027855 174.46052526013014 # Ar
1507 1507 1 0.0 588.4402909963849 61.35877807680366 629.860509949486 # Ar
1508 1508 1 0.0 1.0653554961821285 81.32154201122081 29.352083566803195 # Ar
1509 1509 1 0.0 310.4636295040777 314.130656321575 411.1040736906218 # Ar
1510 1510 1 0.0 177.88349107791433 540.2597327037261 134.95359171985743 # Ar
1511 1511 1 0.0 409.5403720598267 607.1438917099855 365.15977886524445 # Ar
1512 1512 1 0.0 350.1386691386359 186.22889714804109 229.30229183034515 # Ar
1513 1513 1 0.0 623.5588808158528 297.5864361938189 422.49398497702566 # Ar
1514 1514 1 0.0 117.98954874016786 447.4720000149763 341.148228720662 # Ar
1515 1515 1 0.0 173.22138560491277 540.7467625550172 643.924569289661 # Ar
1516 1516 1 0.0 269.04902916168396 313.0219537896194 392.11681047321395 # Ar
1517 1517 1 0.0 632.1860759547807 95.80284567914829 29.97571182441329 # Ar
1518 1518 1 0.0 134.93498068918086 114.06837243023894 536.3417078201787 # Ar
1519 1519 1 0.0 79.95707382792092 208.75027805719844 118.46835494177672 # Ar
1520 1520 1 0.0 548.4537100305333 405.8713242326165 108.68071642800349 # Ar
1521 1521 1 0.0 66.77815539635913 408.7772686459272 194.49304092878438 # Ar
1522 1522 1 0.0 307.2492143667257 616.2127688460408 298.4261704625362 # Ar
1523 1523 1 0.0 642.1953827760043 613.9932546135869 352.8709750230185 # Ar
1524 1524 1 0.0 157.0943888048659 205.4865500735739 303.1402963998533 # Ar
1525 1525 1 0.0 59.40512139643743 160.15687870637902 563.46196639718 # Ar
1526 1526 1 0.0 139.94950713393672 314.5277709583978 457.48895739661947 # Ar
1527 1527 1 0.0 157.35637309855147 411.9641198056967 106.42187635531803 # Ar
1528 1528 1 0.0 111.38334845573337 387.0763522730851 166.56056253814975 # Ar
1529 1529 1 0.0 601.3225338029407 340.7684315206959 333.7405727675228 # Ar
1530 1530 1 0.0 553.398143963365 30.196007556790317 614.339342405727 # Ar
1531 1531 1 0.0 148.7509319334682 520.6745510399726 510.6045204405881 # Ar
1532 1532 1 0.0 393.9902213735417 233.07213100817972 174.34513811911395 # Ar
1533 1533 1 0.0 87.49348220784778 479.64960180310936 290.93775015111333 # Ar
1534 1534 1 0.0 272.71510009936696 468.46769595665063 262.47741294641924 # Ar
1535 1535 1 0.0 197.48705079719016 80.75983790482448 391.76119907333924 # Ar
1536 1536 1 0.0 608.0332359356477 227.58153139556512 545.2830364237876 # Ar
1537 1537 1 0.0 536.434843378742 564.7060683041749 308.32659910364475 # Ar
1538 1538 1 0.0 104.17511631799536 307.86202164300244 455.37812281790036 # Ar
1539 1539 1 0.0 484.5577852555582 163.87037367179173 93.48421872998193 # Ar
1540 1540 1 0.0 62.96715393306465 641.3624614895541 246.0170148251849 # Ar
1541 1541 1 0.0 12.304008767579262 331.8850024681741 287.2691572568934 # Ar
1542 1542 1 0.0 229.3624619706624 150.54576489125517 335.43818079473084 # Ar
1543 1543 1 0.0 13.07597255671619 292.61966904243053 349.65348328863496 # Ar
1544 1544 1 0.0 3.6276893243908552 303.0997734735325 579.8723395714718 # Ar
1545 1545 1 0.0 431.65163828605415 354.96596936030403 69.28431832457233 # Ar
1546 1546 1 0.0 147.63515703562805 36.44942253846419 55.923218305797995 # Ar
1547 1547 1 0.0 607.7214828377831 617.4881569648691 285.40672872788303 # Ar
1548 1548 1 0.0 253.9363205165339 560.3553057294832 287.73544199309555 # Ar
1549 1549 1 0.0 396.8577696520451 389.5092502585034 560.6363781933527 # Ar
1550 1550 1 0.0 42.14271472902792 102.50098300213696 418.10108926711007 # Ar
1551 1551 1 0.0 351.7533135115947 610.396393533526 524.5014738743554 # Ar
1552 1552 1 0.0 315.9541306198147 346.13860689066524 167.41496566090342 # Ar
1553 1553 1 0.0 587.0210911680296 47.80681778893386 419.0085537147665 # Ar
1554 1554 1 0.0 645.4418740653115 407.2426725246106 117.20969416106102 # Ar
1555 1555 1 0.0 465.4857303485897 536.1209853137415 594.1173382494648 # Ar
1556 1556 1 0.0 112.9257045299222 0.5889288094210291 551.1355650868179 # Ar
1557 1557 1 0.0 17.202053909226056 25.019651905279495 506.36420161788016 # Ar
1558 1558 1 0.0 476.7042601794844 643.8926217551028 631.4298481011023 # Ar
1559 1559 1 0.0 158.68764882779783 184.16454807708627 560.5530085977177 # Ar
1560 1560 1 0.0 36.421330851523344 136.33271684725443 23.64324286897912 # Ar
1561 1561 1 0.0 116.99682887319068 73.66878466806916 596.4210620275014 # Ar
1562 1562 1 0.0 342.1752577443832 3.729301291926997 23.970266707801528 # Ar
1563 1563 1 0.0 503.73888382812004 162.61174349784875 60.9514116795418 # Ar
1564 1564 1 0.0 21.903637758152055 56.75355204330824 337.92595736093097 # Ar
1565 1565 1 0.0 95.10158950860585 354.2352892711082 481.904859111993 # Ar
1566 1566 1 0.0 506.64368246387653 599.7027696369355 249.39871302260136 # Ar
1567 1567 1 0.0 265.40450940977047 17.278324933263377 49.4955786878552 # Ar
1568 1568 1 0.0 299.433939459803 310.92901367716286 174.49450822399004 # Ar
1569 1569 1 0.0 599.9626250263796 430.67988991643637 138.16336739096923 # Ar
1570 1570 1 0.0 7.008284086501409 35.26220682633402 635.6957530886108 # Ar
1571 1571 1 0.0 465.02190726519075 178.98031417315735 295.92661899786503 # Ar
1572 1572 1 0.0 355.2021918676196 391.6774160250141 203.15691982821318 # Ar
1573 1573 1 0.0 329.10375065369163 137.7285406307051 348.8977954840486 # Ar
1574 1574 1 0.0 195.2040285883619 353.12238707675766 288.75208686097733 # Ar
1575 1575 1 0.0 464.2537344100494 566.5784450491988 534.4400642234981 # Ar
1576 1576 1 0.0 312.0572978254096 429.41240216446676 521.7162233494976 # Ar
1577 1577 1 0.0 504.89599211247963 285.96212850202807 28.23106607589606 # Ar
1578 1578 1 0.0 233.49268671976873 148.41102052474747 67.7077413339919 # Ar
1579 1579 1 0.0 485.8443245511406 88.65352214960286 348.8995229537397 # Ar
1580 1580 1 0.0 362.4331577472226 549.7911520624134 447.9782122669901 # Ar
1581 1581 1 0.0 217.6570776875522 539.8166277504737 521.2813775634734 # Ar
1582 1582 1 0.0 513.8430364879722 194.22931965194547 17.860810274100015 # Ar
1583 1583 1 0.0 354.91546525301334 65.33025997961771 220.45376073832588 # Ar
1584 1584 1 0.0 647.6189749333157 204.12587097680586 92.18656862853263 # Ar
1585 1585 1 0.0 306.080335381003 168.96139450609695 469.7972536181463 # Ar
1586 1586 1 0.0 356.7940796735873 217.46528194530012 417.8820909434231 # Ar
1587 1587 1 0.0 472.47964908912206 501.62529713204225 376.1693537139418 # Ar
1588 1588 1 0.0 531.9261790206166 28.434801189368258 568.3036790661159 # Ar
1589 1589 1 0.0 464.9339049278749 275.7128631250422 1.8545268147741993 # Ar
1590 1590 1 0.0 459.46473711168125 209.4119687213457 139.38103155544232 # Ar
1591 1591 1 0.0 607.4663508408023 193.0028684180186 420.27294734087326 # Ar
1592 1592 1 0.0 440.7754201419912 301.03065427499905 402.52227019564043 # Ar
1593 1593 1 0.0 348.1499066991082 304.0139238093712 535.4678688294307 # Ar
1594 1594 1 0.0 35.49264487302257 489.3877657492485 73.47179719165443 # Ar
1595 1595 1 0.0 325.74362087771937 482.89505640834415 381.65066484232335 # Ar
1596 1596 1 0.0 523.0070303398816 533.1835737763837 104.5766873533253 # Ar
1597 1597 1 0.0 402.72540435133675 567.2048376563307 259.1545294122097 # Ar
1598 1598 1 0.0 152.04007079400165 643.9348845460528 446.12910550320424 # Ar
1599 1599 1 0.0 441.70402867750374 221.33783284885706 431.5339166184363 # Ar
1600 1600 1 0.0 384.97539051544857 452.24179956657764 504.24369836367794 # Ar
1601 1601 1 0.0 624.2756533570326 26.048342960237168 535.7517761466397 # Ar
1602 1602 1 0.0 11.2597794255345 343.02685915180444 513.2491385912448 # Ar
1603 1603 1 0.0 64.35814871137319 206.68821771562384 615.6483691503721 # Ar
1604 1604 1 0.0 107.17792414206005 157.0147944432136 146.03850578303405 # Ar
1605 1605 1 0.0 320.12148560071296 633.9659778852225 234.90575832062117 # Ar
1606 1606 1 0.0 27.29222361034413 120.78651473495887 474.5679973861617 # Ar
1607 1607 1 0.0 286.77760467701285 427.90374303620604 453.2226182071432 # Ar
1608 1608 1 0.0 319.47001058247474 544.9442030861921 49.490432190304304 # Ar
1609 1609 1 0.0 156.0711578616053 2.1084858362216905 275.7900443010456 # Ar
1610 1610 1 0.0 85.37252126290713 181.5521642214715 164.79662341004988 # Ar
1611 1611 1 0.0 281.3425030860646 141.67488258229375 508.15835696398904 # Ar
1612 1612 1 0.0 226.94635911015823 62.224507243699485 617.5021547630469 # Ar
1613 1613 1 0.0 469.7996052891702 36.20358399861474 629.8471241115624 # Ar
1614 1614 1 0.0 525.7373332985354 277.68607839751235 402.26283226378774 # Ar
1615 1615 1 0.0 579.1869285739192 180.4843203666488 79.85091228112897 # Ar
1616 1616 1 0.0 28.632530921337956 460.12147562864936 533.4505440806175 # Ar
1617 1617 1 0.0 234.90830092392318 384.52511581218226 526.1345624622594 # Ar
1618 1618 1 0.0 367.40847809396223 184.604733373459 502.87657340262683 # Ar
1619 1619 1 0.0 245.0953818644382 175.0057952349306 575.3462485827063 # Ar
1620 1620 1 0.0 341.60865805526134 588.732956275734 30.73297364617235 # Ar
1621 1621 1 0.0 7.496096011744912 78.80942597687458 314.3769192399388 # Ar
1622 1622 1 0.0 450.7577533853085 460.2330202930686 13.836509195403503 # Ar
1623 1623 1 0.0 604.6044539050165 554.9325044608438 356.02494182322295 # Ar
1624 1624 1 0.0 286.53976179818125 518.6416451154537 386.350703648568 # Ar
1625 1625 1 0.0 456.1747737447552 52.91172995725168 236.72724110913876 # Ar
1626 1626 1 0.0 71.34597746656097 368.5035441482148 344.622057638165 # Ar
1627 1627 1 0.0 2.2619815637535754 221.59002945800037 160.5165385908479 # Ar
1628 1628 1 0.0 605.2043728092924 355.7257620698501 27.75483814314918 # Ar
1629 1629 1 0.0 593.1073053991336 488.71660830862487 177.22305977661085 # Ar
1630 1630 1 0.0 418.6606137588321 127.93752602794741 599.3421035424709 # Ar
1631 1631 1 0.0 558.3493543862708 83.53865562804853 178.84953562425687 # Ar
1632 1632 1 0.0 119.44811446877648 588.5823285045687 602.2398600510332 # Ar
1633 1633 1 0.0 216.0838671027658 372.4030961604284 493.4870946247222 # Ar
1634 1634 1 0.0 612.7658195772603 633.0550538447069 421.18186727676147 # Ar
1635 1635 1 0.0 424.1612914673229 644.3569321873841 91.0779249005134 # Ar
1636 1636 1 0.0 81.55130694721726 272.1669010739188 94.40349520038295 # Ar
1637 1637 1 0.0 585.9923416611822 404.28150182145384 597.6594976363681 # Ar
1638 1638 1 0.0 45.47477767428357 513.9271617303326 16.475816178906534 # Ar
1639 1639 1 0.0 477.45148660496034 433.300038774739 299.7513747859097 # Ar
1640 1640 1 0.0 293.4799389763998 148.76116232322235 261.30082551710944 # Ar
1641 1641 1 0.0 25.37101031017653 224.98470363274268 453.355079558296 # Ar
1642 1642 1 0.0 123.0575651041079 162.03237833551051 13.311148123878105 # Ar
1643 1643 1 0.0 580.4546550330127 37.83043543807351 387.4790900896797 # Ar
1644 1644 1 0.0 219.28040738827687 260.23819000665867 609.4788161623878 # Ar
1645 1645 1 0.0 368.78183424844696 28.89756441566856 598.3931739626499 # Ar
1646 1646 1 0.0 84.17748310704097 648.2038913114033 513.2179801580891 # Ar
1647 1647 1 0.0 330.36231682846375 493.83845476648617 556.1711096871381 # Ar
1648 1648 1 0.0 274.0085059464355 415.96803250210013 459.60073593823773 # Ar
1649 1649 1 0.0 290.9871107528132 323.64700802918935 634.054425931851 # Ar
1650 1650 1 0.0 127.67216454174593 200.55289340558627 248.42827800283175 # Ar
1651 1651 1 0.0 158.654428109392 468.5624875594008 576.9743398777389 # Ar
1652 1652 1 0.0 480.43892355295367 209.13514362018756 276.9179467489423 # Ar
1653 1653 1 0.0 646.0729407107325 86.95635135216044 582.8683157189886 # Ar
1654 1654 1 0.0 327.27356280763894 121.15735336889684 279.6126625619089 # Ar
1655 1655 1 0.0 465.93827284931587 612.6267857407586 627.1515594448463 # Ar
1656 1656 1 0.0 540.7373583055277 128.23574390736414 537.3566436941969 # Ar
1657 1657 1 0.0 151.7485603394849 536.0780058779633 5.426716350210038 # Ar
1658 1658 1 0.0 67.2338102556648 605.540041112628 451.02957546138316 # Ar
1659 1659 1 0.0 581.8982313902011 328.360966368168 241.43501793167235 # Ar
1660 1660 1 0.0 55.75224264886738 236.28195469655105 9.001531812046672 # Ar
1661 1661 1 0.0 605.5073547724394 238.7451145211631 529.1866782370341 # Ar
1662 1662 1 0.0 246.94875429605156 374.43814255402987 351.60082845166954 # Ar
1663 1663 1 0.0 249.09675188502553 221.35341009267916 374.7640457654668 # Ar
1664 1664 1 0.0 445.26429385689903 336.4017559059722 227.04333875743976 # Ar
1665 1665 1 0.0 634.4503003529495 515.2141051260119 397.59874771758535 # Ar
1666 1666 1 0.0 310.5999833887578 45.01261285990266 18.02916752814761 # Ar
1667 1667 1 0.0 335.2458978467939 52.264649404012765 129.27477971277565 # Ar
1668 1668 1 0.0 214.5297386108849 591.7276295779794 485.57375681570613 # Ar
1669 1669 1 0.0 506.61214914601885 264.9248434793716 257.39930954303134 # Ar
1670 1670 1 0.0 120.54554693381571 369.9297198021098 318.254027139248 # Ar
1671 1671 1 0.0 7.747956668298067 608.2110383129769 326.7826633854341 # Ar
1672 1672 1 0.0 624.8999128565202 495.6727223239696 351.00662927388805 # Ar
1673 1673 1 0.0 237.94115761643113 84.37064596275897 232.82120855086455 # Ar
1674 1674 1 0.0 383.8911762448184 270.3774593777788 492.43909527696366 # Ar
1675 1675 1 0.0 529.1401420076662 587.7152880733911 245.99870351178353 # Ar
1676 1676 1 0.0 338.15573175822726 469.49561158351685 282.32329398055487 # Ar
1677 1677 1 0.0 619.0086496444163 428.5127689634997 523.0987832811383 # Ar
1678 1678 1 0.0 629.0767985901067 255.53621550924538 556.957829449914 # Ar
1679 1679 1 0.0 65.30892550050326 581.0320678316597 68.76526401812008 # Ar
1680 1680 1 0.0 495.5829800647937 364.8487267824952 26.217521861618245 # Ar
1681 1681 1 0.0 214.19316515035342 86.90328879378889 271.27159919970927 # Ar
1682 1682 1 0.0 243.46421666402563 631.8740951979398 458.2781037389999 # Ar
1683 1683 1 0.0 255.75842628414676 479.2861368988846 180.7855218303304 # Ar
1684 1684 1 0.0 15.9047335954132 183.88188850262765 207.4341772377995 # Ar
1685 1685 1 0.0 67.0660453012338 605.37274447114 337.70594124353204 # Ar
1686 1686 1 0.0 83.56513710551633 41.87336629632769 67.94070844017394 # Ar
1687 1687 1 0.0 647.5326841564146 243.80107518921153 490.9506784319106 # Ar
1688 1688 1 0.0 292.69972775712654 353.11988134104024 10.311907293909462 # Ar
1689 1689 1 0.0 415.1357231026431 437.5857384227928 590.0669684832236 # Ar
1690 1690 1 0.0 55.011604105905356 413.0351568050148 80.2074150369918 # Ar
1691 1691 1 0.0 229.33381477068062 346.40125558460727 325.77535372572066 # Ar
1692 1692 1 0.0 58.46821225623116 391.6497573555149 38.030261749034615 # Ar
1693 1693 1 0.0 440.91065893093065 45.981335420356096 419.35485743605375 # Ar
1694 1694 1 0.0 398.78988270316427 185.03999640659936 540.695408411265 # Ar
1695 1695 1 0.0 268.9770761875433 135.4166659856286 486.0371701031315 # Ar
1696 1696 1 0.0 411.7909425316492 73.28489333790338 601.9288847673354 # Ar
1697 1697 1 0.0 453.3395097542617 463.58009571753587 422.4529476539368 # Ar
1698 1698 1 0.0 401.5447030976681 480.47368065470346 132.3196729287544 # Ar
1699 1699 1 0.0 446.91723926413556 272.21589821421026 131.88981748575765 # Ar
1700 1700 1 0.0 615.6732239219663 549.6907219872645 335.22736919223644 # Ar
1701 1701 1 0.0 172.79804174648444 537.1903664326768 329.76290825945557 # Ar
1702 1702 1 0.0 344.466543177947 616.1997706046702 591.44646339846 # Ar
1703 1703 1 0.0 161.1167044011045 491.1230124547335 17.823774163160536 # Ar
1704 1704 1 0.0 314.5806911135747 341.10735363149024 79.23486222949018 # Ar
1705 1705 1 0.0 397.1362942906276 208.1344892161982 0.6558327202043424 # Ar
1706 1706 1 0.0 152.58804266661832 244.35123058214623 321.99983137435686 # Ar
1707 1707 1 0.0 457.8028969771637 611.7058609384045 527.5490809476202 # Ar
1708 1708 1 0.0 294.79710927921815 635.8942493623796 554.7764075926522 # Ar
1709 1709 1 0.0 289.610132905233 160.2643274915954 516.0821632708173 # Ar
1710 1710 1 0.0 258.66266128941317 366.9485739164057 238.03912113645518 # Ar
1711 1711 1 0.0 112.5197692374095 364.91831975905114 110.09437443755917 # Ar
1712 1712 1 0.0 35.774050230266425 606.8027672899019 127.1108833703931 # Ar
1713 1713 1 0.0 5.429805995289582 483.80083317432155 163.10101569951303 # Ar
1714 1714 1 0.0 245.8856573135664 591.6173085571592 490.18495908629785 # Ar
1715 1715 1 0.0 573.9756265536663 365.640017735109 632.4887831794935 # Ar
1716 1716 1 0.0 113.68415990818342 310.7596803928471 419.2692866211609 # Ar
1717 1717 1 0.0 280.31101927404177 434.7731172012816 240.9425999739721 # Ar
1718 1718 1 0.0 253.6071470163313 360.64771601694923 406.854658311683 # Ar
1719 1719 1 0.0 221.7902462570123 619.2533600323765 354.05850685958325 # Ar
1720 1720 1 0.0 127.34983171010508 447.94738007798344 548.777175726601 # Ar
1721 1721 1 0.0 280.3347732145885 612.9999176546451 487.0145061206916 # Ar
1722 1722 1 0.0 234.08275404073692 259.79940878388226 427.3839944186038 # Ar
1723 1723 1 0.0 9.074701504746848 347.7352525307264 275.4457897832171 # Ar
1724 1724 1 0.0 284.30643333303135 610.2471117894878 520.5844038957518 # Ar
1725 1725 1 0.0 538.6067382039976 374.97003873454946 168.3973223601282 # Ar
1726 1726 1 0.0 240.62777408157655 191.53990081943442 254.07236352387528 # Ar
1727 1727 1 0.0 141.91385189697985 540.3929768919481 367.6875333133022 # Ar
1728 1728 1 0.0 162.2081860229642 205.75611193675942 452.13242051430007 # Ar
1729 1729 1 0.0 284.3448819495108 493.53569101032775 340.75190020706765 # Ar
1730 1730 1 0.0 267.6199668750365 67.93672057136568 557.4527151917633 # Ar
1731 1731 1 0.0 451.96096756556733 478.95721629850755 52.80450770881386 # Ar
1732 1732 1 0.0 422.7452878175148 421.6197378796667 436.3170349197128 # Ar
1733 1733 1 0.0 101.39968449561667 6.753739657043411 138.80610061283053 # Ar
1734 1734 1 0.0 294.9278971207851 89.31458280285814 629.4927517999691 # Ar
1735 1735 1 0.0 116.5095754224609 44.28056652353607 455.0988075797011 # Ar
1736 1736 1 0.0 323.6123435086024 249.58612175456125 512.9563026019728 # Ar
1737 1737 1 0.0 519.0040733472505 358.5056100251187 283.7510723472065 # Ar
1738 1738 1 0.0 344.7492230973099 168.2740216069908 400.3135663618855 # Ar
1739 1739 1 0.0 315.9341072143852 107.03064948979966 192.66416955121727 # Ar
1740 1740 1 0.0 38.121559516880524 605.321121869788 384.6526885777662 # Ar
1741 1741 1 0.0 225.03280274879546 506.4070036437982 311.0915720193427 # Ar
1742 1742 1 0.0 313.5376830431909 488.8833024344331 537.216010829228 # Ar
1743 1743 1 0.0 72.75373150167519 414.82547290448787 18.154647080453852 # Ar
1744 1744 1 0.0 241.37013468455095 135.60924296548654 34.01763917505952 # Ar
1745 1745 1 0.0 315.2585101123308 173.71223348191833 268.5613501256779 # Ar
1746 1746 1 0.0 318.03636355200285 341.90711462585364 524.6440096733069 # Ar
1747 1747 1 0.0 529.767216683566 252.22659432097208 576.9729834143071 # Ar
1748 1748 1 0.0 312.3290734249523 439.4206160813951 98.57797738434486 # Ar
1749 1749 1 0.0 101.68943416085483 253.91081860790032 10.94536170948235 # Ar
1750 1750 1 0.0 113.00596914885092 506.52165113673806 608.1306268270409 # Ar
1751 1751 1 0.0 158.69370434759622 472.48807693518984 614.4724134391597 # Ar
1752 1752 1 0.0 248.021897705204 557.7960616800129 526.289434672182 # Ar
1753 1753 1 0.0 637.1448493113849 155.57584947087284 131.14316923322477 # Ar
1754 1754 1 0.0 250.51353048471742 330.7198722158114 485.83437829387816 # Ar
1755 1755 1 0.0 316.39888372233634 646.4234408535701 399.035264493444 # Ar
1756 1756 1 0.0 632.2998939140709 526.4560761342411 98.34767241169283 # Ar
1757 1757 1 0.0 183.0096620478246 410.969611284186 266.5167767082659 # Ar
1758 1758 1 0.0 266.7667694983389 514.6945424056195 279.98255072691467 # Ar
1759 1759 1 0.0 294.48596641893073 7.296282906414296 415.6303777997466 # Ar
1760 1760 1 0.0 411.2803663786114 631.2139178305919 70.9471371737593 # Ar
1761 1761 1 0.0 52.81248967882456 588.0317155860618 365.05257239787755 # Ar
1762 1762 1 0.0 38.001079987369344 223.62525829424618 66.99983589264917 # Ar
1763 1763 1 0.0 252.44788436374742 337.2812827602639 199.34979047261035 # Ar
1764 1764 1 0.0 393.2608281116296 346.1052701792 68.03717046270194 # Ar
1765 1765 1 0.0 114.37482249616377 84.3386771706121 560.4909948417163 # Ar
1766 1766 1 0.0 129.6101139134341 223.7867504995608 305.71458865415934 # Ar
1767 1767 1 0.0 134.42739065288825 605.1964219237335 444.53951946534164 # Ar
1768 1768 1 0.0 59.342682538332085 532.0733085414246 554.3141373234437 # Ar
1769 1769 1 0.0 430.50688631938925 589.9903820851529 13.68213324466259 # Ar
1770 1770 1 0.0 578.1276472252036 539.6344192970215 615.1008723920967 # Ar
1771 1771 1 0.0 108.32809412937532 27.896007451520283 359.40276605203564 # Ar
1772 1772 1 0.0 486.4504437517117 462.08059409535144 585.5319252104624 # Ar
1773 1773 1 0.0 156.88595455710052 91.08863171696578 463.9753591502761 # Ar
1774 1774 1 0.0 382.6953550664983 186.07367605088876 357.3902553291522 # Ar
1775 1775 1 0.0 280.417553159162 448.5429320859262 230.7395794597777 # Ar
1776 1776 1 0.0 624.4097712283797 616.2089421653659 448.6447946278723 # Ar
1777 1777 1 0.0 602.0340877037133 84.24304761621849 71.23603763696376 # Ar
1778 1778 1 0.0 196.47904100808293 282.01138843156843 424.4722221976317 # Ar
1779 1779 1 0.0 584.5278979078547 382.38154349712767 368.83390265756884 # Ar
1780 1780 1 0.0 491.25596862715753 534.6392636758055 107.9650858718457 # Ar
1781 1781 1 0.0 34.927752642958254 313.38801614274786 504.2048978714299 # Ar
1782 1782 1 0.0 504.87084586961845 263.98078292326903 21.68051631097071 # Ar
1783 1783 1 0.0 116.17317022734372 5.494433821665829 39.89870577505406 # Ar
1784 1784 1 0.0 510.422621357678 601.2065218176796 451.62361557894894 # Ar
1785 1785 1 0.0 140.7101895906458 79.46321157898554 190.23407697314423 # Ar
1786 1786 1 0.0 572.6608386035055 153.76668252703087 422.4119734246123 # Ar
1787 1787 1 0.0 333.1037870764043 446.7415703916317 606.0350496862778 # Ar
1788 1788 1 0.0 266.7122679392612 210.9350313894646 210.9191967780313 # Ar
1789 1789 1 0.0 63.1409972366281 8.936370762711618 139.52109803384818 # Ar
1790 1790 1 0.0 318.05309332802545 489.133521930311 244.50691377343335 # Ar
1791 1791 1 0.0 290.4246629800866 587.2816416172915 260.9459759768348 # Ar
1792 1792 1 0.0 389.001596999019 197.22837228126866 236.05400635167453 # Ar
1793 1793 1 0.0 524.9555943596027 510.90124407466857 100.42984945302872 # Ar
1794 1794 1 0.0 628.198213144199 345.79875205146334 231.98497506532095 # Ar
1795 1795 1 0.0 597.6602877849251 216.4768006308149 369.1528669679732 # Ar
1796 1796 1 0.0 601.6839470608809 59.770652836951285 578.9622135786657 # Ar
1797 1797 1 0.0 237.8962146505398 427.85331986748434 390.95850614244677 # Ar
1798 1798 1 0.0 539.6850319810654 416.3679426684842 567.6913416885567 # Ar
1799 1799 1 0.0 0.25355145832765164 69.85712583258854 581.3977681900748 # Ar
1800 1800 1 0.0 326.38894333393694 328.800143837247 178.58633524586838 # Ar
1801 1801 1 0.0 273.66938642934196 285.21880861443583 294.68097119334305 # Ar
1802 1802 1 0.0 238.73592909236285 512.8703431874802 10.62395636728815 # Ar
1803 1803 1 0.0 545.378076462305 568.5968988903201 398.16952699171384 # Ar
1804 1804 1 0.0 97.35258211378472 379.4589010502123 448.2666575607799 # Ar
1805 1805 1 0.0 394.3087423408707 495.3607844111146 532.4971852115095 # Ar
1806 1806 1 0.0 227.00867693702665 232.7201403118604 282.9198707673662 # Ar
1807 1807 1 0.0 45.6312459687959 29.015266525402836 502.1615255196526 # Ar
1808 1808 1 0.0 268.37131683150534 391.73208186632803 251.707854751339 # Ar
1809 1809 1 0.0 153.09336740834277 63.29604821033099 430.9672802466118 # Ar
1810 1810 1 0.0 639.9955201414944 167.06065010474273 152.2755229945329 # Ar
1811 1811 1 0.0 469.2573330496277 278.5337125220083 468.8262846744581 # Ar
1812 1812 1 0.0 184.69733685730932 217.55876406971694 109.11207527174604 # Ar
1813 1813 1 0.0 123.78658102199995 312.1032727812963 133.77584228006492 # Ar
1814 1814 1 0.0 353.2748578923615 297.8598375244806 235.8805112285533 # Ar
1815 1815 1 0.0 260.9701941066866 84.7534575834309 348.17463943815545 # Ar
1816 1816 1 0.0 98.36733193810059 542.9360944254346 249.6890768916158 # Ar
1817 1817 1 0.0 466.0293517558535 348.6772366297223 224.66205650756308 # Ar
1818 1818 1 0.0 593.1162762440863 568.0868084612391 539.3257654914316 # Ar
1819 1819 1 0.0 241.6363946069685 351.0554833672591 89.52186325445614 # Ar
1820 1820 1 0.0 617.1445366599826 239.81833189858668 293.942027258243 # Ar
1821 1821 1 0.0 511.3231104452351 175.40357633411384 47.8473823883077 # Ar
1822 1822 1 0.0 270.4957144227517 157.38021672698846 262.67002742757046 # Ar
1823 1823 1 0.0 36.19502099268802 321.71713502789277 316.5282686903772 # Ar
1824 1824 1 0.0 208.7163169619645 629.6157683452335 411.7207944925224 # Ar
1825 1825 1 0.0 279.5172512449382 519.2049032561009 271.83716507448247 # Ar
1826 1826 1 0.0 159.57390457816982 540.8379098290909 101.84167717154926 # Ar
1827 1827 1 0.0 25.55049959266448 322.4090011136497 603.9480873238451 # Ar
1828 1828 1 0.0 75.50408652005626 598.3503137458291 69.8966176975756 # Ar
1829 1829 1 0.0 588.3027438763 178.41379121327236 73.85505691464644 # Ar
1830 1830 1 0.0 278.44550870930084 320.9244649815585 271.53666959590566 # Ar
1831 1831 1 0.0 239.32265300819694 488.73615178509266 69.92345470365571 # Ar
1832 1832 1 0.0 642.9927030535401 80.51473073699889 346.26829999045464 # Ar
1833 1833 1 0.0 521.9606292440066 185.47876988120063 35.430480924978134 # Ar
1834 1834 1 0.0 346.57011806207083 325.6731959382724 397.1531167805912 # Ar
1835 1835 1 0.0 370.1311316851783 298.2872055263104 535.2064829324324 # Ar
1836 1836 1 0.0 494.84220821497513 634.4971496269018 579.080504486917 # Ar
1837 1837 1 0.0 335.2706160369225 197.4645719909072 486.3401665681691 # Ar
1838 1838 1 0.0 9.245981344330712 469.30286413987665 616.6814486563553 # Ar
1839 1839 1 0.0 97.49671468259855 137.8115461258514 97.22827468459346 # Ar
1840 1840 1 0.0 365.65344564162655 523.9434406570088 307.7184507846768 # Ar
1841 1841 1 0.0 15.577908547043432 629.5492764343094 62.71348517363734 # Ar
1842 1842 1 0.0 256.70380972526215 640.7914004162709 130.2587830318517 # Ar
1843 1843 1 0.0 37.786976405376734 382.52433683786757 538.3669197916051 # Ar
1844 1844 1 0.0 639.0385271266279 39.15332665999186 446.66680588742594 # Ar
1845 1845 1 0.0 451.53600427662826 382.3568040628393 133.39280157511234 # Ar
1846 1846 1 0.0 480.87916677441433 167.25764100270095 356.41698911733675 # Ar
1847 1847 1 0.0 494.8928580756761 232.88436372366274 506.74772034663806 # Ar
1848 1848 1 0.0 139.34474019871308 497.7329491959246 251.76097932341628 # Ar
1849 1849 1 0.0 447.50973150733324 207.40009799475473 328.3625541859579 # Ar
1850 1850 1 0.0 434.3382811790723 320.8629054738445 162.69827378486377 # Ar
1851 1851 1 0.0 360.6331283379644 538.8737058200055 13.72291097391074 # Ar
1852 1852 1 0.0 136.4553230216755 630.4403149006763 92.58464281995671 # Ar
1853 1853 1 0.0 86.21101742022469 314.2460803314068 47.45956037387606 # Ar
1854 1854 1 0.0 390.14090211328096 503.9296848965323 284.05773787287063 # Ar
1855 1855 1 0.0 285.4490171712498 58.635608442991014 247.63562061197658 # Ar
1856 1856 1 0.0 501.8605951793753 304.77311275007384 475.7471229345967 # Ar
1857 1857 1 0.0 326.98192338295644 371.49023239453874 159.1893430956965 # Ar
1858 1858 1 0.0 101.52541161281174 622.1988856417112 49.26821209682814 # Ar
1859 1859 1 0.0 169.85096824790355 28.671367632452895 414.2112990550268 # Ar
1860 1860 1 0.0 330.1669908170144 369.1881342681524 25.029605652701868 # Ar
1861 1861 1 0.0 246.41234383421667 92.9357284981166 319.83466011931165 # Ar
1862 1862 1 0.0 601.5104148708078 246.88280428268516 358.41319396491554 # Ar
1863 1863 1 0.0 492.48474344222853 370.19962576459403 405.19184700237463 # Ar
1864 1864 1 0.0 436.0261174751586 377.81018036425905 501.24495124016994 # Ar
1865 1865 1 0.0 623.459303876663 474.54306653316246 324.2201594755199 # Ar
1866 1866 1 0.0 459.5916763969871 553.1074832295561 178.77220213778634 # Ar
1867 1867 1 0.0 545.8735892263693 490.1512278916894 513.6598094568005 # Ar
1868 1868 1 0.0 321.69192631109007 593.8318652316857 352.1868561113851 # Ar
1869 1869 1 0.0 529.6910053475796 577.8182251146426 326.10421320941174 # Ar
1870 1870 1 0.0 602.2080420524319 414.4170880193111 632.9665897421174 # Ar
1871 1871 1 0.0 21.676130079495433 582.8559849787018 116.96651372388726 # Ar
1872 1872 1 0.0 58.745808768335756 9.782697116161293 352.89026317666674 # Ar
1873 1873 1 0.0 145.85364969605544 516.2945946937865 432.61184738660154 # Ar
1874 1874 1 0.0 397.50813048827297 70.46852719809146 355.3366896672067 # Ar
1875 1875 1 0.0 68.249685900005 192.14850486753585 646.6214017241991 # Ar
1876 1876 1 0.0 534.696483877746 174.59362236005515 95.81687571472288 # Ar
1877 1877 1 0.0 190.41698603360663 528.776794948001 72.36337948175324 # Ar
1878 1878 1 0.0 95.56982337612155 560.5961468296244 376.3525005189523 # Ar
1879 1879 1 0.0 325.97527139260603 364.54637056385764 547.6069589941499 # Ar
1880 1880 1 0.0 327.90763660518064 489.20358500565044 298.35312166798593 # Ar
1881 1881 1 0.0 300.763293652939 410.92224450080477 28.941716089736865 # Ar
1882 1882 1 0.0 75.220347761346 463.88303027021783 267.43236871317987 # Ar
1883 1883 1 0.0 625.5368744382356 254.0983528547006 569.2736911744591 # Ar
1884 1884 1 0.0 168.86533915516284 338.3576397394856 264.7369651417176 # Ar
1885 1885 1 0.0 632.8981008316849 259.87397432449245 614.7289082425638 # Ar
1886 1886 1 0.0 243.8913234312501 196.28885720685273 324.364347084961 # Ar
1887 1887 1 0.0 418.4404462601107 515.0158086139687 478.03976142277503 # Ar
1888 1888 1 0.0 196.2573223927708 131.50242845240467 108.79902292663358 # Ar
1889 1889 1 0.0 592.6215294005596 386.42895482189317 462.80994991345403 # Ar
1890 1890 1 0.0 532.6274810205224 182.1006487921035 307.520588711816 # Ar
1891 1891 1 0.0 350.0299861958072 387.402880797035 158.44194421075417 # Ar
1892 1892 1 0.0 574.6027681563274 426.8080194400094 98.00135191290094 # Ar
1893 1893 1 0.0 209.63547619513122 155.11705130855117 502.34000331138765 # Ar
1894 1894 1 0.0 289.9065579131577 379.1013702054625 89.38261589212125 # Ar
1895 1895 1 0.0 379.87086566857204 526.5250639374472 205.10095149441278 # Ar
1896 1896 1 0.0 59.522714358285775 644.5431588553649 445.0465624140842 # Ar
1897 1897 1 0.0 400.9301153349514 282.1405026281153 332.2738090510349 # Ar
1898 1898 1 0.0 345.2873428871088 354.97533031318056 437.61472718691823 # Ar
1899 1899 1 0.0 161.2794006541997 550.7173306091524 176.65682589682797 # Ar
1900 1900 1 0.0 640.9779088580303 265.4161833866163 562.2614141659693 # Ar
1901 1901 1 0.0 125.86013880602428 572.9860891383594 61.46936655016069 # Ar
1902 1902 1 0.0 111.04831158012898 195.2128974464589 122.44976225603675 # Ar
1903 1903 1 0.0 600.7321243164033 23.455603241435934 137.35077731824595 # Ar
1904 1904 1 0.0 354.9042133484895 549.6027753803272 192.13497223542097 # Ar
1905 1905 1 0.0 446.4800586534377 324.30532865273614 528.0874798560619 # Ar
1906 1906 1 0.0 22.543004370404702 213.31798040698314 407.37205595225186 # Ar
1907 1907 1 0.0 450.48671513918435 527.7194954538417 573.4222942226319 # Ar
1908 1908 1 0.0 376.69771447238094 532.1738780465072 40.94385039000266 # Ar
1909 1909 1 0.0 301.4796370365831 526.0184477633331 486.5834921163874 # Ar
1910 1910 1 0.0 144.59256010928834 67.1807800101307 577.7140626593459 # Ar
1911 1911 1 0.0 573.964473082666 360.6230059091881 512.2993543068127 # Ar
1912 1912 1 0.0 576.4214757154183 136.19780592513473 52.26758201613913 # Ar
1913 1913 1 0.0 252.02225298103542 260.6468124829233 322.9035341410407 # Ar
1914 1914 1 0.0 155.41909788175954 249.31553853262866 53.3147424264844 # Ar
1915 1915 1 0.0 462.0385344107033 529.9437030371389 255.34948980209506 # Ar
1916 1916 1 0.0 383.11433915291326 75.3805353186766 203.44814324858027 # Ar
1917 1917 1 0.0 4.59792630069548 9.06184244701921 640.2794504931492 # Ar
1918 1918 1 0.0 148.58342488748718 356.4259328452544 611.6159077876631 # Ar
1919 1919 1 0.0 556.4642194483607 320.6752629836041 496.17406151621304 # Ar
1920 1920 1 0.0 173.68918632091908 338.83861915365605 474.7538436761845 # Ar
1921 1921 1 0.0 93.80567316389543 228.0923295841816 431.4300064598643 # Ar
1922 1922 1 0.0 32.03759909696272 32.90999540299254 493.1968346275133 # Ar
1923 1923 1 0.0 492.5936182785428 214.52578003361486 356.2809596112857 # Ar
1924 1924 1 0.0 15.078406811010188 26.93776520258638 403.84689950147947 # Ar
1925 1925 1 0.0 57.21619991896008 310.21010660100666 550.731119549631 # Ar
1926 1926 1 0.0 519.9702927369129 66.04327336717007 115.00020312787774 # Ar
1927 1927 1 0.0 139.18125286807484 57.69251848169005 5.235769135768104 # Ar
1928 1928 1 0.0 558.274616715439 221.67091204941718 557.4799707383464 # Ar
1929 1929 1 0.0 108.95553633964789 532.7446501066339 14.844104627144773 # Ar
1930 1930 1 0.0 640.9618109764073 432.12341576743296 60.400029263058606 # Ar
1931 1931 1 0.0 174.2351247807747 419.9524844584956 400.86914859467635 # Ar
1932 1932 1 0.0 12.307072488464653 6.097001083110069 464.29664177978987 # Ar
1933 1933 1 0.0 636.5455287928114 69.58333096904373 465.39224421010385 # Ar
1934 1934 1 0.0 88.12682854065442 332.53636420357867 228.5032010450318 # Ar
1935 1935 1 0.0 225.65218445620414 104.37310970829522 69.41250688874523 # Ar
1936 1936 1 0.0 135.5029093798511 20.83949511298264 401.2181552876809 # Ar
1937 1937 1 0.0 539.4330980680644 554.9729311549601 51.02509243680828 # Ar
1938 1938 1 0.0 408.5717751746039 18.00795346281822 622.8310809972094 # Ar
1939 1939 1 0.0 630.6389820477776 544.8406155554239 272.79972742737016 # Ar
1940 1940 1 0.0 583.0745055472994 18.862369830092266 520.8821542717455 # Ar
1941 1941 1 0.0 476.82695130423247 195.69890525182493 378.079632051734 # Ar
1942 1942 1 0.0 250.5632014088929 442.1296604823889 444.9228104311044 # Ar
1943 1943 1 0.0 88.08742357515787 328.86983336389477 147.69404187647262 # Ar
1944 1944 1 0.0 488.688632276919 421.75603027634617 597.6033082730953 # Ar
1945 1945 1 0.0 596.3268209074688 137.98781359577694 287.3954047550783 # Ar
1946 1946 1 0.0 233.1817143474303 125.25997674197272 499.62334870676716 # Ar
1947 1947 1 0.0 223.6246330522367 367.75307525928406 119.0348236405768 # Ar
1948 1948 1 0.0 407.47661430052864 348.74738696458536 316.8482909691107 # Ar
1949 1949 1 0.0 231.97692480151034 500.42348252508197 619.4412345598001 # Ar
1950 1950 1 0.0 580.9947680003065 445.2233842417683 189.25093154417513 # Ar
1951 1951 1 0.0 368.79344027501287 50.13879187640381 463.6081690573774 # Ar
1952 1952 1 0.0 420.1402953224923 333.62978939118943 567.835980061943 # Ar
1953 1953 1 0.0 621.4994072587166 12.578973978920782 346.6034016820749 # Ar
1954 1954 1 0.0 105.58080493214541 200.14632999636945 223.30076105888955 # Ar
1955 1955 1 0.0 641.1602022481969 627.7186755033342 463.5323094301244 # Ar
1956 1956 1 0.0 223.2738434394377 367.1709067171524 492.46271496091333 # Ar
1957 1957 1 0.0 614.120476927434 140.42854106031353 93.9404734076385 # Ar
1958 1958 1 0.0 255.84234822588385 505.15948783270045 298.90737313874223 # Ar
1959 1959 1 0.0 353.1527189596763 387.2645398351351 340.83722635013527 # Ar
1960 1960 1 0.0 433.7566161517088 478.71146750950845 49.722963680268855 # Ar
1961 1961 1 0.0 372.9572806012647 483.2442900295987 466.0465603685477 # Ar
1962 1962 1 0.0 457.05419001868484 112.55713176579329 535.3540494002859 # Ar
1963 1963 1 0.0 173.02399603891425 371.1896812837253 542.8725567244542 # Ar
1964 1964 1 0.0 12.681438586585921 567.4547861714144 135.7504025070833 # Ar
1965 1965 1 0.0 37.1189449860847 401.7004113525 267.1885138422778 # Ar
1966 1966 1 0.0 308.91720381359147 614.2126023490506 501.73690359033424 # Ar
1967 1967 1 0.0 123.82140860687296 182.57078694127713 64.58645453534955 # Ar
1968 1968 1 0.0 632.7236235455931 446.2669644383005 116.43547671445396 # Ar
1969 1969 1 0.0 47.965414323486634 89.82798216972762 458.89370166910686 # Ar
1970 1970 1 0.0 44.93462686908715 171.664478780042 529.7556801263535 # Ar
1971 1971 1 0.0 121.03416408139556 4.341197927129133 445.72219392809046 # Ar
1972 1972 1 0.0 234.92469190435173 426.7131113439574 629.2187790370456 # Ar
1973 1973 1 0.0 115.1902549861986 291.21519538609493 288.315924302293 # Ar
1974 1974 1 0.0 51.27682539098883 93.80727629505509 400.9754890110128 # Ar
1975 1975 1 0.0 39.021905104086436 313.4919915658063 418.9405984948254 # Ar
1976 1976 1 0.0 637.2612764118438 362.84184816735603 70.5147667878294 # Ar
1977 1977 1 0.0 236.6726323272587 581.7028391702192 81.32361067186483 # Ar
1978 1978 1 0.0 274.0582500034072 326.8405801925467 110.80734879930186 # Ar
1979 1979 1 0.0 241.0043611248525 342.1097169967611 540.3471366147712 # Ar
1980 1980 1 0.0 490.1106327231319 450.3635840406617 238.84983382468255 # Ar
1981 1981 1 0.0 470.8882791695205 17.274951639110842 505.50973859553824 # Ar
1982 1982 1 0.0 550.9202089595117 204.42255771024298 230.22862906503173 # Ar
1983 1983 1 0.0 300.7941149318484 284.7498255832278 79.4362542335751 # Ar
1984 1984 1 0.0 191.2485602024064 488.71228456207984 67.16287633738736 # Ar
1985 1985 1 0.0 266.24106376535894 210.83931810606305 222.28456738855928 # Ar
1986 1986 1 0.0 247.60935484515093 268.9437115854987 365.9061286263702 # Ar
1987 1987 1 0.0 25.761015041678206 186.58769196910654 555.3739671660649 # Ar
1988 1988 1 0.0 371.7868328434916 138.5886873740706 16.574905450879186 # Ar
1989 1989 1 0.0 489.6373460076087 614.3633642111795 223.47577699815392 # Ar
1990 1990 1 0.0 327.78144837363556 433.8764587816061 35.0573920033676 # Ar
1991 1991 1 0.0 310.54025419249786 497.89516170359565 453.0287654592194 # Ar
1992 1992 1 0.0 383.7884942259529 423.99576077943505 226.91757374882417 # Ar
1993 1993 1 0.0 92.91845291173068 570.9053356821187 86.44992191068764 # Ar
1994 1994 1 0.0 198.8374218472863 408.58983601478496 507.0986962804173 # Ar
1995 1995 1 0.0 94.60793872400728 420.39195875108527 57.40240741309048 # Ar
1996 1996 1 0.0 386.7915754037581 257.0953233637288 458.11966566821883 # Ar
1997 1997 1 0.0 466.5865871081172 178.0995345549938 255.79643759561097 # Ar
1998 1998 1 0.0 107.22689241749022 544.6114836309995 66.89080791185485 # Ar
1999 1999 1 0.0 297.6045076884033 144.3368380539307 335.5206400487171 # Ar
2000 2000 1 0.0 308.1414512554674 133.32496671078064 496.5512285570052 # Ar
