LAMMPS data file -- atom_style full -- generated by chemfiles
2000 atoms
0 bonds
0 angles
0 dihedrals
0 impropers
1 atom types
0 bond types
0 angle types
0 dihedral types
0 improper types
0.00000000 1240.21859 xlo xhi
0.00000000 1240.21859 ylo yhi
0.00000000 1240.21859 zlo zhi

# Pair Coeffs
# 1 Ar

Masses

1 39.948 # Ar

Atoms # full

1 1 1 0.0 622.7727476226156 613.1960611708353 726.0043080876968 # Ar
2 2 1 0.0 40.177580380092365 161.0243799678986 179.91636752629404 # Ar
3 3 1 0.0 161.40503875646505 789.4010469798386 735.2435556577254 # Ar
4 4 1 0.0 1054.2688503231604 587.7025756591768 530.6373050550875 # Ar
5 5 1 0.0 599.7726734196037 1232.3858521616578 701.170321292224 # Ar
6 6 1 0.0 24.860494506025343 640.032320852423 1128.7055840022513 # Ar
7 7 1 0.0 343.92049438431644 669.64745286882 588.8767842906365 # Ar
8 8 1 0.0 990.2227462391247 1222.859417027165 535.3062129170393 # Ar
9 9 1 0.0 700.2528435033266 650.003343466487 1034.2069423077644 # Ar
10 10 1 0.0 898.9349570037207 1182.5367462408365 191.40946146449255 # Ar
11 11 1 0.0 25.2638152130464 25.146150187106375 641.4925687953015 # Ar
12 12 1 0.0 359.78469349765817 511.8357920030662 545.7748275703971 # Ar
13 13 1 0.0 676.3290535189095 406.08785090530625 304.3488111963039 # Ar
14 14 1 0.0 15.898824725549368 919.296457880495 1093.6553835383554 # Ar
15 15 1 0.0 592.7591602634475 505.1162502834379 932.6470139156131 # Ar
16 16 1 0.0 594.0941339427319 342.6992121147717 1209.6080948195788 # Ar
17 17 1 0.0 638.4431632731655 430.94871654143986 753.680125380853 # Ar
18 18 1 0.0 1001.1424889309449 582.3811380605331 1097.3822278275388 # Ar
19 19 1 0.0 1043.1944322699715 889.7147446890107 980.0153082616439 # Ar
20 20 1 0.0 612.9227645199599 1083.6919792542872 1144.9971277898278 # Ar
21 21 1 0.0 539.8667006935184 354.72427270162245 542.9310536965502 # Ar
22 22 1 0.0 149.67356695219163 738.7805532625533 932.9443516141947 # Ar
23 23 1 0.0 379.96334191187674 1034.4364893642091 1219.6442209313907 # Ar
24 24 1 0.0 351.8018777620799 888.1392317628519 915.338637368461 # Ar
25 25 1 0.0 1187.8754619942588 798.6071599247402 135.88726469886805 # Ar
26 26 1 0.0 1223.8019955833133 597.1573125021365 1169.3580152120242 # Ar
27 27 1 0.0 624.0347270873906 627.6185306227233 1133.0843138406524 # Ar
28 28 1 0.0 220.3944962151472 346.82106104133027 806.3618840976055 # Ar
29 29 1 0.0 1042.7157866576383 440.81067137825517 471.37823091271713 # Ar
30 30 1 0.0 628.224797106278 895.8916540399682 578.4457170557054 # Ar
31 31 1 0.0 574.3328009050391 896.0495684070311 360.97455434253266 # Ar
32 32 1 0.0 143.87752899492705 805.5707961663655 1203.9763194675504 # Ar
33 33 1 0.0 855.2535688229747 1235.7323819907424 547.0202910049131 # Ar
34 34 1 0.0 775.204427881236 1209.1922769001044 429.99654242355206 # Ar
35 35 1 0.0 571.6604408265493 97.54036322774215 387.08937850416584 # Ar
36 36 1 0.0 148.34817156351906 425.2922649588528 864.8067005113102 # Ar
37 37 1 0.0 1031.6910020601124 1072.7587580376837 646.7326669798537 # Ar
38 38 1 0.0 528.9842301353243 879.9141808512014 777.7801524013718 # Ar
39 39 1 0.0 1030.3035392443198 1121.5966876173213 52.479234417214954 # Ar
40 40 1 0.0 357.75912016556373 174.90343409104656 205.3490301186988 # Ar
41 41 1 0.0 1113.8267914457742 49.90027449934884 1156.0278677266401 # Ar
42 42 1 0.0 537.7262498478248 611.5595454019206 1020.2199312742647 # Ar
43 43 1 0.0 822.0758785524763 183.29570126113126 985.1931477135437 # Ar
44 44 1 0.0 496.43525135638555 1111.2317849946003 952.9959240704825 # Ar
45 45 1 0.0 580.2634407285219 656.0517999469691 497.4013177554367 # Ar
46 46 1 0.0 130.21298804661788 239.23154098030196 144.09481363529235 # Ar
47 47 1 0.0 1075.1651052902182 888.1788040459128 913.8601014969317 # Ar
48 48 1 0.0 281.54073509940605 1226.395631748896 357.11192623639096 # Ar
49 49 1 0.0 179.0198555352552 258.5180526359395 1021.7586316619532 # Ar
50 50 1 0.0 82.89651626926792 245.85500531447082 403.9938293363409 # Ar
51 51 1 0.0 1191.6749822766546 170.15063082964033 690.8404679563822 # Ar
52 52 1 0.0 205.11122548369846 603.0026007052879 910.8491748198976 # Ar
53 53 1 0.0 826.3693030903481 1202.703499495824 854.088100547111 # Ar
54 54 1 0.0 54.33649518604714 517.5227999288043 289.02807658624255 # Ar
55 55 1 0.0 369.2032919491564 1077.212721667699 738.9162843200595 # Ar
56 56 1 0.0 745.812525376131 723.7588189054104 896.5271500415746 # Ar
57 57 1 0.0 624.1462240068099 438.6175909371052 97.36176333870914 # Ar
58 58 1 0.0 273.4844178863192 341.86696355435583 699.4067919312903 # Ar
59 59 1 0.0 846.1222874388535 431.37870024573226 1049.4785041002222 # Ar
60 60 1 0.0 1046.0810416762772 160.05856847025615 477.1990621211764 # Ar
61 61 1 0.0 560.7961876972055 867.6594193852735 1036.981212957103 # Ar
62 62 1 0.0 918.0385473840274 831.8647274840008 1014.3550888218637 # Ar
63 63 1 0.0 218.44526347175977 1145.3529501165874 545.0606870442714 # Ar
64 64 1 0.0 623.1765842818057 1024.3562045791202 939.1021070067693 # Ar
65 65 1 0.0 911.966990127271 1036.16447351219 535.9158212182848 # Ar
66 66 1 0.0 1055.9350650158776 30.487295826311367 828.5340470398103 # Ar
67 67 1 0.0 525.6454230840018 1184.0021555412636 59.38477613334508 # Ar
68 68 1 0.0 283.1508608506965 363.39640257851556 698.4944707685362 # Ar
69 69 1 0.0 9.64103143412173 919.2545106623484 33.75154168099413 # Ar
70 70 1 0.0 1239.1972449402895 345.4009006913465 803.0668461529029 # Ar
71 71 1 0.0 807.0606484210477 442.84037947108345 623.2340102969722 # Ar
72 72 1 0.0 337.3180277402105 516.2633525168644 809.930567743775 # Ar
73 73 1 0.0 793.8617279022019 579.7389060335368 377.7015086614263 # Ar
74 74 1 0.0 1123.0683622238298 751.6398264996147 828.1057407220131 # Ar
75 75 1 0.0 919.2804772187562 181.51868717507307 483.31478089074335 # Ar
76 76 1 0.0 196.34995443230775 154.2699968688013 1075.9878050955774 # Ar
77 77 1 0.0 1057.2837273780297 1019.7841131260816 814.6570363213933 # Ar
78 78 1 0.0 962.7427783067845 801.2513823654051 766.4946637983086 # Ar
79 79 1 0.0 793.8399489080762 662.3219041835225 773.0551581959763 # Ar
80 80 1 0.0 235.39959342839916 856.9552311816585 265.9462217512123 # Ar
81 81 1 0.0 302.17005757434674 738.875865376502 418.21953996642367 # Ar
82 82 1 0.0 408.5097171203341 492.4654363825479 729.3468287448663 # Ar
83 83 1 0.0 520.9645118074903 317.12659801642445 544.1206379782025 # Ar
84 84 1 0.0 34.11114068601363 353.9807527797076 828.491810140284 # Ar
85 85 1 0.0 1231.4109986469946 1019.8352227094334 442.0924035999851 # Ar
86 86 1 0.0 449.9514320664816 1216.4494676004094 627.4497653074023 # Ar
87 87 1 0.0 1110.3714413784926 910.3310082188792 107.38936651685917 # Ar
88 88 1 0.0 567.030053901158 319.14723433459966 491.09962825127604 # Ar
89 89 1 0.0 632.4851949812819 321.0206412776128 478.52404936229203 # Ar
90 90 1 0.0 288.08772639614983 477.3583947122791 443.7055176701845 # Ar
91 91 1 0.0 312.02478737740273 860.7444931291753 301.57201297764493 # Ar
92 92 1 0.0 613.6182493816368 507.3707372422583 888.8382328697543 # Ar
93 93 1 0.0 866.9870446355677 1010.2773074233643 182.7614107858651 # Ar
94 94 1 0.0 1168.4747526478732 144.915348228581 777.9822435715614 # Ar
95 95 1 0.0 719.381001786717 666.9974355960977 816.360470385455 # Ar
96 96 1 0.0 375.92668658985747 533.4317841323635 499.09066722206546 # Ar
97 97 1 0.0 554.4922004042131 384.839754184702 812.3505052438239 # Ar
98 98 1 0.0 287.92261788833906 687.7210915456527 1000.6376727983239 # Ar
99 99 1 0.0 74.57103422209639 460.2984704406155 976.6637650993608 # Ar
100 100 1 0.0 443.17878256279664 603.5961667686639 1057.9761923698504 # Ar
101 101 1 0.0 236.93816993036637 652.4857804296748 1141.2917009537398 # Ar
102 102 1 0.0 1151.8579659627374 175.73833014771452 806.6805673143894 # Ar
103 103 1 0.0 142.04832548717349 47.0609218609291 739.2228318009351 # Ar
104 104 1 0.0 74.07506705748717 533.3999983912759 933.8033514759891 # Ar
105 105 1 0.0 88.13220092655442 421.11885444470886 62.234410213308266 # Ar
106 106 1 0.0 293.61196190499834 911.0275832170073 44.167250189509886 # Ar
107 107 1 0.0 489.16829819244055 55.424305550452914 720.0591504795055 # Ar
108 108 1 0.0 1229.0838766357645 986.7185270232077 849.2569629796624 # Ar
109 109 1 0.0 1142.9110785761216 822.2661586138547 700.5681969995526 # Ar
110 110 1 0.0 367.5324649413583 1235.199499727885 824.2990336533427 # Ar
111 111 1 0.0 959.6926268366868 593.4870565387779 821.6585175794816 # Ar
112 112 1 0.0 401.58792984665837 839.0883798260056 911.0792250306323 # Ar
113 113 1 0.0 707.9986590339319 1217.7569135511544 1091.707714354179 # Ar
114 114 1 0.0 46.05533741799991 305.64040767149027 392.54735524329897 # Ar
115 115 1 0.0 1148.6874786920735 950.6488187629143 559.4806704462502 # Ar
116 116 1 0.0 544.8362301706624 75.26022804162507 812.4019378806021 # Ar
117 117 1 0.0 580.4868333906063 1051.1185833161346 185.8450558534662 # Ar
118 118 1 0.0 37.33616458608535 863.4585886390545 7.707939761471217 # Ar
119 119 1 0.0 770.6669198912588 779.2437934108106 542.713022683969 # Ar
120 120 1 0.0 619.427960297883 28.822452432486568 277.22293960926584 # Ar
121 121 1 0.0 459.3297125775486 29.257327921139446 698.0397195570113 # Ar
122 122 1 0.0 395.1543669465295 414.22564312814313 122.81534880573973 # Ar
123 123 1 0.0 535.5937034901833 797.7952419825932 778.234976047549 # Ar
124 124 1 0.0 161.20610651675466 623.9644410042227 1027.8542521571171 # Ar
125 125 1 0.0 1128.7956975257011 316.01008062859967 125.41969718383531 # Ar
126 126 1 0.0 388.867989216042 72.54591739442245 297.98785007887415 # Ar
127 127 1 0.0 608.307833708619 1113.7862831838534 999.5114404307814 # Ar
128 128 1 0.0 1210.6258045531602 542.038173478686 332.39164516967736 # Ar
129 129 1 0.0 1065.004818437048 510.6344890675524 793.7898430194522 # Ar
130 130 1 0.0 13.838801910059871 835.3528392333883 901.6506535789069 # Ar
131 131 1 0.0 541.8220222862545 1168.726505586678 852.0347183083973 # Ar
132 132 1 0.0 80.12775965846902 366.2207109108708 447.78115740053863 # Ar
133 133 1 0.0 579.2066927335079 1197.4291732929285 548.0291139376743 # Ar
134 134 1 0.0 914.5419806207601 160.26596561235155 274.31307827648595 # Ar
135 135 1 0.0 1037.6237751899046 918.9423407320954 871.349072556354 # Ar
136 136 1 0.0 1081.953761168254 619.3093891530901 481.93202545647455 # Ar
137 137 1 0.0 237.9652197115862 871.0392812131115 856.3323618304086 # Ar
138 138 1 0.0 389.9598320145078 89.58836034787556 885.5624737117873 # Ar
139 139 1 0.0 361.09164146588967 796.9236579840247 1053.0705700595959 # Ar
140 140 1 0.0 200.8882823041076 207.2210296700527 353.06757380803117 # Ar
141 141 1 0.0 2.5738262857525136 608.6502201223731 375.3315234459236 # Ar
142 142 1 0.0 238.25858554590812 87.69832032957578 558.2138828917194 # Ar
143 143 1 0.0 1042.9112208080712 21.234378909503253 312.4117357176374 # Ar
144 144 1 0.0 948.0982018850431 432.5761186923908 482.32454372765903 # Ar
145 145 1 0.0 287.2149704468442 283.58038939922665 168.80741576063122 # Ar
146 146 1 0.0 884.310945310311 86.07007599191864 967.785434133038 # Ar
147 147 1 0.0 1237.8208347079283 607.539089490582 913.1584245567454 # Ar
148 148 1 0.0 1050.289198688385 612.2300298215287 177.34178345852294 # Ar
149 149 1 0.0 43.7836596549334 785.8772644215675 1081.1646519797637 # Ar
150 150 1 0.0 505.528659001067 401.71878450619795 486.86933031763294 # Ar
151 151 1 0.0 231.92107097407805 1167.927513807482 819.7008154440184 # Ar
152 152 1 0.0 533.2870533058493 708.3450121164731 343.7024342184299 # Ar
153 153 1 0.0 1138.2589427382884 1215.2509910580447 56.4666124213446 # Ar
154 154 1 0.0 1238.4627681963198 104.89037094143345 905.2290973851136 # Ar
155 155 1 0.0 322.22563318377956 953.8574955649063 37.30131053054595 # Ar
156 156 1 0.0 49.47391957371788 291.7398877563339 1065.4226994330395 # Ar
157 157 1 0.0 187.2340148772737 233.77089263026627 707.5690826859166 # Ar
158 158 1 0.0 678.690057264915 738.2207391971818 1145.632670908407 # Ar
159 159 1 0.0 689.6345027355301 614.403476465226 1140.8144714332027 # Ar
160 160 1 0.0 411.18480327560957 358.41404529282727 251.4581901979696 # Ar
161 161 1 0.0 665.3177242791485 81.31528943113635 213.69188780628946 # Ar
162 162 1 0.0 78.82840183696187 778.5209879351575 566.6344905699395 # Ar
163 163 1 0.0 955.473015548909 463.693366702296 840.2567537688246 # Ar
164 164 1 0.0 762.334520870686 16.275949642321766 481.72602095701694 # Ar
165 165 1 0.0 172.7563818787665 1056.0210373609139 41.047499316018914 # Ar
166 166 1 0.0 723.19894997799 730.8035511204861 949.9033901137054 # Ar
167 167 1 0.0 1047.7266898686735 719.0040908302989 970.2492835406674 # Ar
168 168 1 0.0 947.7595488098693 1103.6466143991597 606.1881029450303 # Ar
169 169 1 0.0 708.2961808994393 84.46998003380605 537.8939598732952 # Ar
170 170 1 0.0 1025.8355353272818 956.1633508017651 1116.9600640293309 # Ar
171 171 1 0.0 797.954221669147 884.1658458377985 633.748488539394 # Ar
172 172 1 0.0 1181.117570618662 165.45796904080294 422.0995842985918 # Ar
173 173 1 0.0 813.0596456472593 886.5063061689347 236.44981341632 # Ar
174 174 1 0.0 569.6259540000651 912.2819762319476 240.85855795452454 # Ar
175 175 1 0.0 510.6519459147607 869.7144040557354 955.9631615606683 # Ar
176 176 1 0.0 1008.1216285374802 1155.575077174429 798.1579505173468 # Ar
177 177 1 0.0 607.3371689462772 180.80232326233025 722.3230013871585 # Ar
178 178 1 0.0 825.661508131638 229.05225426839536 920.0984333079679 # Ar
179 179 1 0.0 1063.7066859169793 931.8389740301313 85.29804520238152 # Ar
180 180 1 0.0 260.1964568204993 1120.9062117807525 749.162811105349 # Ar
181 181 1 0.0 991.1443177915978 588.6975894332212 530.6918338872752 # Ar
182 182 1 0.0 226.54316927574666 966.2272374685854 824.1038984516786 # Ar
183 183 1 0.0 1028.0971457727176 31.49541369926486 950.0003949672764 # Ar
184 184 1 0.0 443.1162664167832 583.4413030555895 1161.0309695270778 # Ar
185 185 1 0.0 324.76794382096585 362.5995875891724 416.5975786072636 # Ar
186 186 1 0.0 581.3981113390847 490.9329383570615 600.5443120500521 # Ar
187 187 1 0.0 604.354708608775 132.4944308787869 892.2290262423326 # Ar
188 188 1 0.0 1159.3163839985766 1066.1254053872276 986.6344356661967 # Ar
189 189 1 0.0 53.725344248938036 1095.2546237971994 634.155249651208 # Ar
190 190 1 0.0 1032.4157681985505 754.5487081677971 529.9795105285506 # Ar
191 191 1 0.0 14.61345563739093 787.0292788839548 951.8373601202062 # Ar
192 192 1 0.0 337.01398297510593 884.2209008222588 739.8511038894231 # Ar
193 193 1 0.0 793.9486532580038 716.2234545279109 443.07858245793483 # Ar
194 194 1 0.0 680.8013476517438 164.6556659357176 365.15474987857255 # Ar
195 195 1 0.0 1171.3795154294673 554.4851492246435 269.2303923803025 # Ar
196 196 1 0.0 988.0364757903444 19.03332432533786 106.03490689239992 # Ar
197 197 1 0.0 361.75691011830435 83.16934035124778 469.43779551440633 # Ar
198 198 1 0.0 463.0975340290575 765.484570074406 46.31240578395946 # Ar
199 199 1 0.0 296.56489762223543 1194.3882218012332 24.363417078874697 # Ar
200 200 1 0.0 745.2959538043451 58.52139704217162 1238.2135522315368 # Ar
201 201 1 0.0 1031.235971999008 779.0904956065541 862.5792293483253 # Ar
202 202 1 0.0 1024.8786001379258 868.0563288238437 830.2540438251139 # Ar
203 203 1 0.0 318.0299165984614 844.6166670863706 188.57887441836544 # Ar
204 204 1 0.0 408.2004908723333 331.04000541877247 236.96733748074715 # Ar
205 205 1 0.0 750.7963054428285 551.5914089119013 557.7481178764463 # Ar
206 206 1 0.0 135.53830064896587 61.65599101696987 852.90369152387 # Ar
207 207 1 0.0 406.76712906668166 611.931797737913 534.8833597740679 # Ar
208 208 1 0.0 493.2494776224164 1071.4003551898975 528.99210982861 # Ar
209 209 1 0.0 350.9116116334354 717.30982235194 744.3703457901368 # Ar
210 210 1 0.0 1052.9889130266092 653.3209882101017 1082.3096327984085 # Ar
211 211 1 0.0 858.2650146728574 954.1494605951447 905.6952568520056 # Ar
212 212 1 0.0 770.3903827190943 184.37358781087573 30.447240360345738 # Ar
213 213 1 0.0 1085.5208691899718 837.8910944353593 1130.8320489715888 # Ar
214 214 1 0.0 931.7364815712639 694.1246705087012 902.5911466596505 # Ar
215 215 1 0.0 456.15513490748936 757.6048570673697 1098.2094751714883 # Ar
216 216 1 0.0 284.5661866736149 150.1508603476439 1232.7692473816314 # Ar
217 217 1 0.0 505.0853035420666 292.42345502408045 135.8953190917026 # Ar
218 218 1 0.0 384.92124197492376 762.336413315708 997.1587791254783 # Ar
219 219 1 0.0 907.5841712217226 193.01220393207984 1095.9802182466642 # Ar
220 220 1 0.0 1229.6794824748624 94.24026488883682 404.9100044129116 # Ar
221 221 1 0.0 499.380472198301 833.7328050012329 454.6495073493322 # Ar
222 222 1 0.0 857.3100091548687 960.9171133376689 104.90796957065446 # Ar
223 223 1 0.0 197.74687804545826 949.2190588928086 351.62321301050366 # Ar
224 224 1 0.0 320.3850067987814 605.404454556869 385.8040989975951 # Ar
225 225 1 0.0 226.14265237095623 104.0929001769482 1133.5209285444364 # Ar
226 226 1 0.0 58.32314659160819 576.0442768295526 170.9814419785489 # Ar
227 227 1 0.0 777.8429903199359 686.578205846184 243.26787059358236 # Ar
228 228 1 0.0 134.64266775072355 774.5208590371877 688.7200882358728 # Ar
229 229 1 0.0 1027.8360947886138 69.35657675759279 1097.6601310593712 # Ar
230 230 1 0.0 1077.6545982555958 816.2412451753593 837.469024098755 # Ar
231 231 1 0.0 1000.8984219288903 1236.4953035715941 778.4420658936685 # Ar
232 232 1 0.0 667.0280275301419 603.5585422342389 397.006093886435 # Ar
233 233 1 0.0 127.18861952091409 1001.9753271138193 464.64418600933533 # Ar
234 234 1 0.0 450.86369858501183 124.33724390644913 407.0927505062093 # Ar
235 235 1 0.0 1211.5578027348718 870.5903187489107 94.14309604889168 # Ar
236 236 1 0.0 341.0638419160916 72.09072193816726 932.835184182006 # Ar
237 237 1 0.0 500.34621401950096 916.3342742571829 418.5349048870861 # Ar
238 238 1 0.0 354.79731988271163 394.28247368685123 348.4199492807296 # Ar
239 239 1 0.0 1104.9760368739028 410.627640791895 673.9532907934473 # Ar
240 240 1 0.0 646.9278168555361 1100.8907359528835 1017.0947703992337 # Ar
241 241 1 0.0 990.9228340636524 1021.3571827219065 345.53175606721936 # Ar
242 242 1 0.0 736.7689444488946 1058.6228713110788 122.2084040528349 # Ar
243 243 1 0.0 295.9979779694839 957.7516385881738 1099.3909549863395 # Ar
244 244 1 0.0 986.3535170187197 1153.5061085648595 143.19391511377552 # Ar
245 245 1 0.0 762.7546509663191 852.2539475328342 381.8827452159895 # Ar
246 246 1 0.0 783.6570465762243 294.9887122877153 212.83850136796195 # Ar
247 247 1 0.0 497.4913186607253 539.2388059790386 416.1955047404244 # Ar
248 248 1 0.0 998.1316532941659 816.9365791562717 928.340827309848 # Ar
249 249 1 0.0 1065.3726628379857 259.5702203026339 1162.6501469217842 # Ar
250 250 1 0.0 1073.5262927446997 92.9688748515907 1103.036306937709 # Ar
251 251 1 0.0 1085.5373933943913 218.90210663829157 246.10933468879773 # Ar
252 252 1 0.0 657.7532445777356 319.3682621874939 151.43666683416117 # Ar
253 253 1 0.0 605.6522013388833 223.94922807608702 1064.6278975923985 # Ar
254 254 1 0.0 1185.3049158675428 559.5034017632618 947.3090396693608 # Ar
255 255 1 0.0 970.6386667159446 737.9576611547898 207.0449072194253 # Ar
256 256 1 0.0 35.29895419255333 148.51257880826356 474.71663812741906 # Ar
257 257 1 0.0 1080.9473629613153 284.042321619793 807.1703934690188 # Ar
258 258 1 0.0 668.9680583291387 875.1677867530022 250.78604193667815 # Ar
259 259 1 0.0 158.98846421591725 267.0010565882766 942.0351136459008 # Ar
260 260 1 0.0 580.9304037213384 1083.3187649910192 1062.2126393856788 # Ar
261 261 1 0.0 409.68061822474425 313.9822996146125 1192.8718364548206 # Ar
262 262 1 0.0 397.3589682156167 498.33758931335586 931.5442144837974 # Ar
263 263 1 0.0 365.57990608446244 912.8134943416951 153.46792815567687 # Ar
264 264 1 0.0 910.6410218224162 671.9506035943459 979.0454402053829 # Ar
265 265 1 0.0 803.2989245948512 142.1105180234083 636.6350134752586 # Ar
266 266 1 0.0 873.159598369641 716.3096378573117 189.89958490009786 # Ar
267 267 1 0.0 1074.379925888412 740.1248024826712 614.0598804577742 # Ar
268 268 1 0.0 894.4753061725173 950.6622296608466 800.4560803888 # Ar
269 269 1 0.0 1014.4566599122471 261.731872780605 637.9181127617527 # Ar
270 270 1 0.0 572.3853837841839 83.73773491852995 350.1650577970008 # Ar
271 271 1 0.0 454.64260193888686 469.54487679757335 70.83296255252495 # Ar
272 272 1 0.0 975.9494527848387 302.16213671799466 882.9809027372681 # Ar
273 273 1 0.0 542.4073898668087 551.3984893921431 947.267567703174 # Ar
274 274 1 0.0 759.0788840697659 399.9245536303359 132.24174259065742 # Ar
275 275 1 0.0 293.1905569955925 1156.9674729972592 88.34338466325865 # Ar
276 276 1 0.0 248.31159740652876 271.7893806818144 725.3116296975861 # Ar
277 277 1 0.0 553.5273160589185 1104.730872252072 254.06783899632006 # Ar
278 278 1 0.0 210.04232468310636 741.8151882354938 43.14954772889055 # Ar
279 279 1 0.0 197.83315264815903 1195.5682324175523 806.8635287788106 # Ar
280 280 1 0.0 29.85859364693714 511.99269825376217 1212.4481797434285 # Ar
281 281 1 0.0 1001.9631727495698 891.7232126555004 163.81980358116073 # Ar
282 282 1 0.0 1054.76529772404 1229.534321764545 970.5919007237508 # Ar
283 283 1 0.0 67.01669234016283 58.05893350742689 163.59208504266616 # Ar
284 284 1 0.0 1095.8340865236325 1093.1056773244795 931.7841720029586 # Ar
285 285 1 0.0 1130.7116363974126 363.78677014615073 834.3408155209905 # Ar
286 286 1 0.0 50.23293735242426 518.4685621498688 1125.938528006503 # Ar
287 287 1 0.0 420.2165701249341 1086.5742592080471 286.94510385956204 # Ar
288 288 1 0.0 364.64013429503063 1039.553018991901 193.41057136764255 # Ar
289 289 1 0.0 1160.1540497387202 179.10445242893064 811.9040752779838 # Ar
290 290 1 0.0 916.6829175157161 925.3408965658516 530.8576421925106 # Ar
291 291 1 0.0 337.8168422765972 757.1412520503849 287.6295182834929 # Ar
292 292 1 0.0 851.8875334407827 561.1484880485656 618.0116922276699 # Ar
293 293 1 0.0 559.5754443486918 116.16306296672501 833.8206310036652 # Ar
294 294 1 0.0 427.82492506958687 451.48466282551107 933.6201102304171 # Ar
295 295 1 0.0 759.8402291010667 591.1798806461497 266.4057531781667 # Ar
296 296 1 0.0 548.5764185816477 874.0241830100313 342.45862623797495 # Ar
297 297 1 0.0 163.13592578484 910.3332226133946 489.3117811451229 # Ar
298 298 1 0.0 1086.4402010393314 814.4516933058775 465.91401864683365 # Ar
299 299 1 0.0 196.8351857253322 579.8601219123617 943.2115266050752 # Ar
300 300 1 0.0 1197.7328057047914 4.3679254127694 1063.8158174042446 # Ar
301 301 1 0.0 60.174731417082086 1040.9740759283297 756.1541098453913 # Ar
302 302 1 0.0 469.438482533601 367.7711634888133 1075.3783686753434 # Ar
303 303 1 0.0 23.859951295056593 26.792442898342852 1110.570066371282 # Ar
304 304 1 0.0 1065.85576279865 26.17954059919984 628.3571337541929 # Ar
305 305 1 0.0 580.2139505981241 154.79637395506558 1030.5925074993938 # Ar
306 306 1 0.0 754.9292040920728 347.20299538141154 16.352571573700807 # Ar
307 307 1 0.0 791.180983363644 748.2352036104934 1166.9148656145733 # Ar
308 308 1 0.0 1125.4532848530746 755.2265626915566 1215.1933968635053 # Ar
309 309 1 0.0 339.7695224188609 1115.084565924897 1062.8545004461544 # Ar
310 310 1 0.0 645.0917249683996 503.8488284850742 565.0634821058544 # Ar
311 311 1 0.0 935.3211561305787 904.5608453243443 577.3419912487765 # Ar
312 312 1 0.0 762.391382373628 3.0858132543070935 878.824425858298 # Ar
313 313 1 0.0 61.356903419393575 61.02114783654812 1036.459124588703 # Ar
314 314 1 0.0 442.7829194026603 1019.9418222572796 238.19386183724245 # Ar
315 315 1 0.0 97.5684314976089 553.6088147715794 253.55419980221146 # Ar
316 316 1 0.0 499.3850875302296 216.0026246045777 604.1673521170572 # Ar
317 317 1 0.0 940.6391281440173 1091.56822678188 845.7971699163547 # Ar
318 318 1 0.0 359.03184708810744 581.9804427748942 1226.286423795068 # Ar
319 319 1 0.0 1099.3477322599895 553.8534172081196 286.9697185474755 # Ar
320 320 1 0.0 701.1994232440816 794.0269336659195 446.25764232976906 # Ar
321 321 1 0.0 22.49868189614645 328.2049954083558 45.194766192124995 # Ar
322 322 1 0.0 1237.0902002645787 580.6041074421533 463.83996566103787 # Ar
323 323 1 0.0 97.27657568073248 165.81275138053155 774.3528344939374 # Ar
324 324 1 0.0 868.3091403210932 1044.592072562515 25.642850412187048 # Ar
325 325 1 0.0 298.23633401228 497.16690762843166 20.87523513694057 # Ar
326 326 1 0.0 11.181912773551774 105.49896292980786 536.0719106494124 # Ar
327 327 1 0.0 1083.7198921021652 68.45178562306069 27.830994259498215 # Ar
328 328 1 0.0 592.0335899317026 774.3039191498484 518.6139924573654 # Ar
329 329 1 0.0 863.6281221012367 1109.9770817300168 571.7145783497099 # Ar
330 330 1 0.0 619.558115851393 303.2501665237685 250.0316345491293 # Ar
331 331 1 0.0 289.09337260934285 990.7299897009781 400.0242475460876 # Ar
332 332 1 0.0 793.8945499874072 902.3449766531032 971.461084890159 # Ar
333 333 1 0.0 105.88185745240692 554.541632617935 937.0504302792259 # Ar
334 334 1 0.0 983.1883255585814 706.6854464919168 1221.398107994452 # Ar
335 335 1 0.0 673.2026123224707 1181.175817933193 1193.4352225578464 # Ar
336 336 1 0.0 1222.7178724536188 766.7027211311027 27.097681925269068 # Ar
337 337 1 0.0 79.28857033632056 1106.0352834766234 469.92672279420293 # Ar
338 338 1 0.0 557.8192179608435 682.6283032230393 800.3934754888729 # Ar
339 339 1 0.0 456.51014207245646 1220.6070274426406 29.74661290662255 # Ar
340 340 1 0.0 567.696361432436 618.6105378371827 202.07656480567564 # Ar
341 341 1 0.0 621.2850542083336 290.94446529152475 1030.3299811674838 # Ar
342 342 1 0.0 712.2479363469799 83.16107543962526 914.563471102425 # Ar
343 343 1 0.0 245.44315418080566 471.98684781489663 39.568228841284125 # Ar
344 344 1 0.0 1209.0848835191775 845.8836765486609 1211.7946020061277 # Ar
345 345 1 0.0 426.52759167008696 928.9710155220404 104.86807216396535 # Ar
346 346 1 0.0 197.24075130128207 804.3917783723587 1194.849134416873 # Ar
347 347 1 0.0 495.7118535073759 264.71814888651585 735.4797449604431 # Ar
348 348 1 0.0 844.8979510760707 591.4768360121624 1120.9804573927315 # Ar
349 349 1 0.0 1196.1216847690325 598.7132955387743 1176.1787065080675 # Ar
350 350 1 0.0 503.5105693027825 78.99689885420979 919.2752581689496 # Ar
351 351 1 0.0 436.3433691839593 922.4054266262069 65.15478542213712 # Ar
352 352 1 0.0 78.34038571254744 1093.1945280649813 420.17761487767086 # Ar
353 353 1 0.0 889.4167718768363 349.96156543316414 887.5449037497232 # Ar
354 354 1 0.0 1097.3684340683467 755.3509890996477 1235.6298828596462 # Ar
355 355 1 0.0 418.18022915169047 725.9069760889463 317.00220986583594 # Ar
356 356 1 0.0 875.1232849781138 995.4114071445712 404.69123013359297 # Ar
357 357 1 0.0 928.0040706305863 1152.5422086361164 49.75349691357964 # Ar
358 358 1 0.0 509.4543661987183 621.1902298022045 776.1673150313402 # Ar
359 359 1 0.0 259.7836544582478 338.3730927488649 840.9500570378141 # Ar
360 360 1 0.0 1062.128975355225 1213.2477299074949 31.15944857511216 # Ar
361 361 1 0.0 1158.5229402553164 94.69020263400364 440.871938788042 # Ar
362 362 1 0.0 116.38704826572986 584.8110981563611 200.54374117798216 # Ar
363 363 1 0.0 308.22631384825615 678.210299877265 698.045877773835 # Ar
364 364 1 0.0 941.7992452796728 1078.941422074319 442.11511041743006 # Ar
365 365 1 0.0 834.962416260364 16.258614094820594 386.0993267979671 # Ar
366 366 1 0.0 508.82166135461046 856.8031439688814 832.7619962276866 # Ar
367 367 1 0.0 1103.6163464786687 1047.1902704671018 76.83638953703242 # Ar
368 368 1 0.0 144.1867263753375 1086.3535519445213 344.1323662755381 # Ar
369 369 1 0.0 1032.8289895554312 462.8378865924574 329.77080147357395 # Ar
370 370 1 0.0 959.2157221552258 152.51050667567728 1095.575647399117 # Ar
371 371 1 0.0 1095.1941488511495 579.82380083606 1099.4566693372067 # Ar
372 372 1 0.0 765.9089730927766 960.5948730389729 752.8992408444743 # Ar
373 373 1 0.0 1223.881029915828 496.7006701919552 831.8377316372821 # Ar
374 374 1 0.0 165.5541274610998 1220.6131589512615 500.1710305198496 # Ar
375 375 1 0.0 5.990903976872584 175.5287730654875 326.8385609572919 # Ar
376 376 1 0.0 948.8025558917439 645.4279606758093 343.86524374444787 # Ar
377 377 1 0.0 677.0829526748254 1178.9570862424569 427.3017821548388 # Ar
378 378 1 0.0 209.1916723206387 1034.2868262123459 492.3276774038288 # Ar
379 379 1 0.0 353.95081870410206 937.3014114943967 389.4096897106701 # Ar
380 380 1 0.0 187.66134799887902 740.8249091077184 437.96352886270046 # Ar
381 381 1 0.0 1039.4844759989555 1092.6822054119768 301.1700921247101 # Ar
382 382 1 0.0 306.4974395381997 656.7807291046353 39.41423710743962 # Ar
383 383 1 0.0 205.5483095803433 1065.3157370487704 1129.0309430053594 # Ar
384 384 1 0.0 668.3985511893163 83.97343967853627 399.4562057777807 # Ar
385 385 1 0.0 495.78343031089213 1055.7536553534708 601.3924038355832 # Ar
386 386 1 0.0 3.6424410386844666 68.72398126185395 832.707286078448 # Ar
387 387 1 0.0 134.7642123518708 1107.6521924166607 645.4305121509343 # Ar
388 388 1 0.0 966.9331690108149 252.13010121110247 645.8940854748948 # Ar
389 389 1 0.0 1053.3147565637917 280.9241736704995 201.37609256135758 # Ar
390 390 1 0.0 404.13846863758505 542.0774098470407 886.8038017015886 # Ar
391 391 1 0.0 456.5132439648843 679.7349821958111 214.62772527856313 # Ar
392 392 1 0.0 1011.1767912062656 696.5229359547067 619.4468120845689 # Ar
393 393 1 0.0 552.1286801999637 256.3450042899636 683.1724173889816 # Ar
394 394 1 0.0 314.49536714867844 543.1726666998569 15.455082419701847 # Ar
395 395 1 0.0 757.1325518251901 791.8721603686939 301.2813460504691 # Ar
396 396 1 0.0 1193.8746393750516 381.39599871577406 434.5580106174185 # Ar
397 397 1 0.0 412.588652898396 173.81266527678935 205.09272704379387 # Ar
398 398 1 0.0 1057.5261275408773 1236.8821790807897 106.9231075580276 # Ar
399 399 1 0.0 1184.6671684352627 196.09088677972034 685.6035810198372 # Ar
400 400 1 0.0 1003.9869961806091 293.5688063042343 626.7777106196212 # Ar
401 401 1 0.0 245.05646182093403 1169.4171997090298 1104.1410752652243 # Ar
402 402 1 0.0 289.4920353281036 974.4296396697869 87.59733432701398 # Ar
403 403 1 0.0 164.84366251117513 770.6215111794667 488.7688570951794 # Ar
404 404 1 0.0 1222.974014094207 258.39741962521083 507.3580810939262 # Ar
405 405 1 0.0 1026.3945232732262 677.9062012315776 715.046492141019 # Ar
406 406 1 0.0 1071.6505974604047 79.90551747910206 301.4780565269403 # Ar
407 407 1 0.0 905.7986546910305 418.21034597373836 871.1382535676751 # Ar
408 408 1 0.0 736.146915931949 1142.7006181743413 968.9418492485946 # Ar
409 409 1 0.0 430.34144260602847 1082.1834338524936 1081.2646026083353 # Ar
410 410 1 0.0 461.2222435791238 759.5406323759015 68.41028736585848 # Ar
411 411 1 0.0 1034.9682338093742 339.80979087475606 208.49392002124614 # Ar
412 412 1 0.0 614.1219242617707 464.26579721786277 645.5262216972924 # Ar
413 413 1 0.0 493.4740305433446 53.30006011523941 1107.8631477462052 # Ar
414 414 1 0.0 483.779724604736 1173.774481570142 131.9292520620769 # Ar
415 415 1 0.0 1205.186313788111 172.93254397807775 337.2138482559703 # Ar
416 416 1 0.0 8.545283867444308 867.6634256783157 114.28799129606186 # Ar
417 417 1 0.0 447.543393933439 115.95268150642929 1209.268420619664 # Ar
418 418 1 0.0 864.9784140027048 232.94701027041512 565.5062010198901 # Ar
419 419 1 0.0 392.0976467935703 943.7862742767504 979.7267061332218 # Ar
420 420 1 0.0 936.6180137452947 561.2662707899772 86.62827307403482 # Ar
421 421 1 0.0 388.32226289980406 86.42302919725743 626.2135903746905 # Ar
422 422 1 0.0 744.5597229311986 55.407121315065176 499.4636888851355 # Ar
423 423 1 0.0 518.900696921268 1110.0444109430616 501.5799369813965 # Ar
424 424 1 0.0 224.5624055237669 1136.1155933725415 411.025504520078 # Ar
425 425 1 0.0 62.66092416399047 1005.1635592214219 993.6738076372422 # Ar
426 426 1 0.0 927.6931584400724 239.11498057991184 556.8897938316314 # Ar
427 427 1 0.0 770.1043126209402 506.917205603584 660.3139632219933 # Ar
428 428 1 0.0 136.06398740103467 428.8226240119201 951.5774767117198 # Ar
429 429 1 0.0 934.2019742885215 813.6259165240672 595.4337352885681 # Ar
430 430 1 0.0 767.3918497996196 552.1586586838409 590.9521342426748 # Ar
431 431 1 0.0 834.0794963312708 1138.2150344418767 510.48760543638775 # Ar
432 432 1 0.0 202.3528997645172 14.735445799914867 407.8461138930462 # Ar
433 433 1 0.0 792.0562133685754 447.28300062854163 39.53414013652596 # Ar
434 434 1 0.0 301.5121894211052 638.5593116308678 1238.9581324368569 # Ar
435 435 1 0.0 992.1139207773558 853.090659218537 797.1576722765319 # Ar
436 436 1 0.0 487.818259519205 482.2592556940586 588.7314343693336 # Ar
437 437 1 0.0 231.1889173533479 59.28132997929345 1239.6365589414213 # Ar
438 438 1 0.0 188.76083942559913 800.5791649270213 1142.6956070426302 # Ar
439 439 1 0.0 339.63363177212665 235.1153725282088 595.8045767170993 # Ar
440 440 1 0.0 1065.3611895936667 1017.7622728197643 463.148621852411 # Ar
441 441 1 0.0 1108.7465815155767 878.7934977198353 412.98219662375817 # Ar
442 442 1 0.0 1097.892946377741 550.3598110254705 691.175584441381 # Ar
443 443 1 0.0 908.1101102265357 61.04126322289563 472.07144328645234 # Ar
444 444 1 0.0 276.7631636113016 489.40422305465574 908.8381981161697 # Ar
445 445 1 0.0 1164.5268730744763 838.2046590648359 689.417152716535 # Ar
446 446 1 0.0 753.776996336471 692.5881214487966 584.7380471198817 # Ar
447 447 1 0.0 133.08977996707068 817.8019613953776 987.4941700716015 # Ar
448 448 1 0.0 269.2127248110263 1115.2683077991044 917.0647250593918 # Ar
449 449 1 0.0 261.04826361484515 660.0506106085406 708.0882944284779 # Ar
450 450 1 0.0 186.0240650157556 844.4459234265761 699.628377886012 # Ar
451 451 1 0.0 122.60919489740542 1134.0601301547294 109.43416021813742 # Ar
452 452 1 0.0 1193.1132561707534 1171.5892940476901 91.17734681276843 # Ar
453 453 1 0.0 985.0351084959327 310.1658553214362 230.45870384162833 # Ar
454 454 1 0.0 179.46085044635538 544.5886244065708 88.47538645988793 # Ar
455 455 1 0.0 645.1620197380461 786.6434803203739 1230.831879224505 # Ar
456 456 1 0.0 376.604091767227 883.0094456360891 261.3578064017462 # Ar
457 457 1 0.0 162.2020307830958 1035.6691904828465 871.9444764797809 # Ar
458 458 1 0.0 811.3083111478326 839.0655714704375 878.3450645331537 # Ar
459 459 1 0.0 1212.0869903267953 34.06405331171677 1205.4257544001666 # Ar
460 460 1 0.0 114.29767684104061 1042.6841592401204 830.7631914225733 # Ar
461 461 1 0.0 308.82874024768495 778.6661864031738 340.13286153974826 # Ar
462 462 1 0.0 1003.3005544682936 158.03553305397955 1119.799205195996 # Ar
463 463 1 0.0 594.5634012816924 890.2572367555554 811.8007751115393 # Ar
464 464 1 0.0 189.54585652155774 631.674118200003 153.8503413326467 # Ar
465 465 1 0.0 14.32558221066736 1187.3573816560609 1106.4640999049209 # Ar
466 466 1 0.0 531.5558386078146 872.5687996782808 1108.1898856334615 # Ar
467 467 1 0.0 161.33881577051324 680.6685138737222 70.04718603492542 # Ar
468 468 1 0.0 875.5926340220627 152.35119915654266 1130.1569000235675 # Ar
469 469 1 0.0 1135.9086537885664 1102.169558854279 320.0264350268245 # Ar
470 470 1 0.0 575.9344121547479 398.90503446094783 322.60410558296894 # Ar
471 471 1 0.0 1021.299554324192 393.3138452685405 155.42367446323132 # Ar
472 472 1 0.0 697.4561201972075 1181.6174205930706 328.0278442965342 # Ar
473 473 1 0.0 460.7046700070778 668.5492102269206 676.3596947141627 # Ar
474 474 1 0.0 936.1570575592035 1049.3976047014094 157.59707413991222 # Ar
475 475 1 0.0 712.8073941643518 106.02758402823004 159.60712591076026 # Ar
476 476 1 0.0 1170.1114224164362 1005.3760135707345 759.5410129346758 # Ar
477 477 1 0.0 130.3214507041467 1166.9460016806304 716.6046225855829 # Ar
478 478 1 0.0 193.4966780907544 1182.5680733182317 149.96871050698428 # Ar
479 479 1 0.0 343.27962405925024 175.87295318259243 1187.8285647848622 # Ar
480 480 1 0.0 989.3548932552899 211.61715018072886 197.93776193272265 # Ar
481 481 1 0.0 696.9469443526496 1132.6414037755465 42.82651486182774 # Ar
482 482 1 0.0 938.5039977653176 587.78647897629 1195.1986420865826 # Ar
483 483 1 0.0 326.5433342666101 1228.2620883523514 513.4682414340484 # Ar
484 484 1 0.0 984.9278443220298 1171.0558155241636 406.8445326263215 # Ar
485 485 1 0.0 224.59487972781633 996.8982262778425 218.17807415393534 # Ar
486 486 1 0.0 892.0612402046482 645.0049154701965 776.6878237812946 # Ar
487 487 1 0.0 344.87982191033643 189.09559178179964 1139.2065527218535 # Ar
488 488 1 0.0 1037.7738732972314 380.29280583698363 1235.5474473007457 # Ar
489 489 1 0.0 89.31324310833406 270.0650402273322 235.97642818195186 # Ar
490 490 1 0.0 383.3723931489363 450.2720066162177 428.779912370343 # Ar
491 491 1 0.0 769.330871335373 1124.9115214753363 871.4225109521676 # Ar
492 492 1 0.0 1007.05853952639 1110.4777601788212 1066.259632274301 # Ar
493 493 1 0.0 223.35158354209017 282.3812144007557 153.70443509855784 # Ar
494 494 1 0.0 1216.9960706799495 618.6829245855431 350.52578501660184 # Ar
495 495 1 0.0 7.1812567685376285 527.131032936055 713.2188531526001 # Ar
496 496 1 0.0 8.464291291057462 813.8327653712823 1184.8159771195253 # Ar
497 497 1 0.0 1178.1323212184814 800.9111691977588 353.1676811081389 # Ar
498 498 1 0.0 781.3340343232031 272.2940968709498 824.7517413955055 # Ar
499 499 1 0.0 1153.4558794078844 618.3209452398904 672.3195576247974 # Ar
500 500 1 0.0 468.8206998051776 466.57839424995734 925.192430377387 # Ar
501 501 1 0.0 599.4399221583913 1047.7580742626258 1040.641894757543 # Ar
502 502 1 0.0 637.6239334619701 271.51959423033765 482.7541519161479 # Ar
503 503 1 0.0 119.68085349248669 1085.1452719836936 645.4839042903307 # Ar
504 504 1 0.0 424.55340051019533 370.5631385290492 630.0943170373727 # Ar
505 505 1 0.0 1129.2063317349944 853.9225321144299 74.31441422211499 # Ar
506 506 1 0.0 21.329840673797634 246.9041631244699 297.7310028377607 # Ar
507 507 1 0.0 897.7372192121256 1003.3380065178693 338.00435270210437 # Ar
508 508 1 0.0 221.9725819523731 988.1334010245325 1074.4706104713168 # Ar
509 509 1 0.0 381.3777461905521 516.1530171482107 1016.7546536956694 # Ar
510 510 1 0.0 217.2539491269194 546.5273589723621 965.8449608209968 # Ar
511 511 1 0.0 459.7045583739085 920.6677047649741 1003.4787065958662 # Ar
512 512 1 0.0 254.5817325372669 345.75534668736174 241.3253547143938 # Ar
513 513 1 0.0 177.00170157840284 788.1807938396645 1034.710416044013 # Ar
514 514 1 0.0 63.45978008099665 375.3020286695469 440.8113570898892 # Ar
515 515 1 0.0 1046.0834197355011 695.3443035226901 315.55519614627934 # Ar
516 516 1 0.0 707.0824885334432 78.61856112192078 412.8518769000608 # Ar
517 517 1 0.0 1172.0933428338667 1078.1404887390693 653.9349841508404 # Ar
518 518 1 0.0 138.6002969302743 5.141457946986091 978.9530676831349 # Ar
519 519 1 0.0 1134.3035389882739 446.2005466446626 283.0202331973769 # Ar
520 520 1 0.0 817.2866422037608 985.9249878732538 968.5443691385105 # Ar
521 521 1 0.0 1224.107213745252 186.26025696889116 1002.1277564398265 # Ar
522 522 1 0.0 149.89641045668589 800.9615401272779 983.8919980535157 # Ar
523 523 1 0.0 642.044972757039 669.3957504933121 898.480518845565 # Ar
524 524 1 0.0 748.9464385766611 175.18304482828265 631.0467848763624 # Ar
525 525 1 0.0 779.1385226446234 931.374903813416 718.4639618086443 # Ar
526 526 1 0.0 597.4163117002012 286.51728847402643 952.0648249621909 # Ar
527 527 1 0.0 1165.5665716617825 723.1781092463278 929.5426826118526 # Ar
528 528 1 0.0 449.73141306555294 271.9847571322963 295.91461152031343 # Ar
529 529 1 0.0 157.56251654399873 6.344085557070516 945.1007355611516 # Ar
530 530 1 0.0 184.45490491516048 1229.6828124440572 759.9883589674225 # Ar
531 531 1 0.0 162.6123144967948 150.9995659448833 461.0927557462883 # Ar
532 532 1 0.0 1130.960504314663 642.2609368387624 391.3382013570132 # Ar
533 533 1 0.0 401.91767364022985 395.85033239975854 596.6038498965343 # Ar
534 534 1 0.0 1204.9013479548087 953.0956599720566 928.9288897464525 # Ar
535 535 1 0.0 1104.1197973670505 286.8428872468531 602.8604533393218 # Ar
536 536 1 0.0 492.8035544580347 294.42313030491414 732.108134072832 # Ar
537 537 1 0.0 213.11708630875677 505.977904773165 144.32890159836617 # Ar
538 538 1 0.0 502.19545433041327 958.9955341920003 999.9935157930115 # Ar
539 539 1 0.0 209.22843759826674 496.47942680024926 453.62458469268313 # Ar
540 540 1 0.0 731.4163609610973 141.71574447008257 1150.1037315647307 # Ar
541 541 1 0.0 133.09452906803335 383.68550457016823 811.0536413552003 # Ar
542 542 1 0.0 954.3575756201787 699.0567577402243 579.0991680488581 # Ar
543 543 1 0.0 373.5358036375667 1158.6812501715847 332.4792757489206 # Ar
544 544 1 0.0 943.4901635825577 412.1620266571979 693.7319018339788 # Ar
545 545 1 0.0 1049.157474320546 439.8121452805693 1024.4701970024107 # Ar
546 546 1 0.0 701.2141864155327 899.8450528148757 1054.1101205263224 # Ar
547 547 1 0.0 1025.6848777490836 140.67552543466934 213.25397310918748 # Ar
548 548 1 0.0 342.61143815899345 713.4913044319716 510.413021848943 # Ar
549 549 1 0.0 907.3728265657365 1194.373246836306 972.7350089931317 # Ar
550 550 1 0.0 630.566460249768 594.3343010609946 384.2120301470337 # Ar
551 551 1 0.0 345.4917706329045 710.1232996469084 492.881550873552 # Ar
552 552 1 0.0 1174.4567697662342 17.056611881067823 978.788398197549 # Ar
553 553 1 0.0 495.1911887028013 399.2066559064393 532.7623152303811 # Ar
554 554 1 0.0 946.1919922686957 708.2863310638338 935.7550333784761 # Ar
555 555 1 0.0 734.2916244682038 332.64501172703325 345.62153059348987 # Ar
556 556 1 0.0 1101.154283199419 353.1400522572697 484.9916317347801 # Ar
557 557 1 0.0 1090.8941855263777 382.8794386102609 677.40000474281 # Ar
558 558 1 0.0 299.7543927319683 806.8421069806718 270.9824005311911 # Ar
559 559 1 0.0 131.33432036355453 651.2350955906167 760.1326797156954 # Ar
560 560 1 0.0 297.32517758176226 131.57139204472372 63.872422659689 # Ar
561 561 1 0.0 408.7337223950061 41.15865437186078 941.8883190815811 # Ar
562 562 1 0.0 656.5624397977524 1014.5825441657943 433.61582322962556 # Ar
563 563 1 0.0 1080.7136089758571 249.25412930379738 847.7433746723837 # Ar
564 564 1 0.0 1121.0716188428992 82.78262168277458 592.2898752524595 # Ar
565 565 1 0.0 446.620262371588 643.4609142636604 669.4696232392539 # Ar
566 566 1 0.0 579.5918403694145 928.1883644662727 687.0546861050756 # Ar
567 567 1 0.0 1204.317360666266 92.84000965266183 103.10777733566387 # Ar
568 568 1 0.0 985.7400121457449 559.1092966692376 392.7701104413253 # Ar
569 569 1 0.0 546.6048624537252 1132.767568951135 571.269941499642 # Ar
570 570 1 0.0 576.2825205835031 1230.5806641761478 39.82078240388234 # Ar
571 571 1 0.0 676.5078402848354 803.3251765676592 9.00591550127838 # Ar
572 572 1 0.0 551.0324743695035 234.14236090691514 574.6349495293119 # Ar
573 573 1 0.0 292.58319238433916 676.7264792754521 645.8874870298714 # Ar
574 574 1 0.0 384.6762308322436 1101.2593427167049 1184.8486866949922 # Ar
575 575 1 0.0 688.7614291300312 563.6734982135075 720.1085447813111 # Ar
576 576 1 0.0 823.7143316200464 1001.3834019628257 1011.3623216106657 # Ar
577 577 1 0.0 207.75618334725382 990.6415558112525 905.5439785537842 # Ar
578 578 1 0.0 949.3356102465085 1120.6232867763842 1007.1279068452517 # Ar
579 579 1 0.0 947.0825347572633 231.84630796322602 96.39321665667272 # Ar
580 580 1 0.0 710.4227222749533 284.3727686678353 442.13221380348006 # Ar
581 581 1 0.0 49.95927518940013 788.7644144812741 1146.6517569992893 # Ar
582 582 1 0.0 256.34062434518313 785.9779146817258 741.5230158093785 # Ar
583 583 1 0.0 245.60004594962032 363.94754834382786 181.8466662293788 # Ar
584 584 1 0.0 102.38255690062819 721.6724209909056 512.8566207404536 # Ar
585 585 1 0.0 206.2663695850219 96.02875221439065 183.1905916416088 # Ar
586 586 1 0.0 1116.33028810879 848.9560605786725 993.2104710397289 # Ar
587 587 1 0.0 984.7366383711438 1166.1219321313965 460.40136384578204 # Ar
588 588 1 0.0 985.5432114520708 688.063985968295 666.4719165297979 # Ar
589 589 1 0.0 217.87032327273732 809.1486215493851 431.81359635328204 # Ar
590 590 1 0.0 361.2436088948736 482.1193805966073 484.39653161732707 # Ar
591 591 1 0.0 1129.0473187772493 328.132314226575 350.8426386938566 # Ar
592 592 1 0.0 522.0334010032008 512.9986363493309 787.3950871920849 # Ar
593 593 1 0.0 894.5227677552592 826.313278760431 435.8701627705969 # Ar
594 594 1 0.0 1139.99974311773 38.615210195936925 470.87402143622256 # Ar
595 595 1 0.0 2.956356622860302 553.2812806012332 293.44537980983347 # Ar
596 596 1 0.0 63.28557338431726 191.5985555340364 262.5382631825435 # Ar
597 597 1 0.0 1090.866533680621 779.6953128697803 730.4067065975834 # Ar
598 598 1 0.0 1020.5053946160791 378.15585191450117 345.27414908867325 # Ar
599 599 1 0.0 443.56405828851973 1142.906052761662 1035.5843484191034 # Ar
600 600 1 0.0 434.0319552112511 551.5449104834289 700.093842064336 # Ar
601 601 1 0.0 416.92709565771736 1005.1901725424804 295.89782313237987 # Ar
602 602 1 0.0 172.87123014257875 67.70354632553187 123.22394533353877 # Ar
603 603 1 0.0 1062.3812112557962 700.9760320951572 1004.6583186939126 # Ar
604 604 1 0.0 753.3850432728061 264.23004838677286 805.0905066382383 # Ar
605 605 1 0.0 582.2289317825714 1077.9037473828541 73.45523647410529 # Ar
606 606 1 0.0 278.2073796108021 125.172020607337 12.873172778484612 # Ar
607 607 1 0.0 917.8720150080244 814.8007571477496 1067.3542403984472 # Ar
608 608 1 0.0 641.5550049785262 7.957357642308084 1024.6428208154396 # Ar
609 609 1 0.0 802.5841240536694 532.7386376676676 1169.9160225324058 # Ar
610 610 1 0.0 551.5311131553683 1112.5861612623298 1189.0591304550092 # Ar
611 611 1 0.0 1039.8652750715637 417.8276023799976 249.6339137188875 # Ar
612 612 1 0.0 1158.404818410562 249.61627257804187 720.7196670688651 # Ar
613 613 1 0.0 206.33204512614208 1117.621071744492 83.23655438401485 # Ar
614 614 1 0.0 1168.110049164682 904.5283065876514 275.08758026354644 # Ar
615 615 1 0.0 310.9747108579234 1125.6344541227154 1104.467184632346 # Ar
616 616 1 0.0 1006.9869350117339 238.50621603008742 136.84302772576572 # Ar
617 617 1 0.0 896.0997887264446 764.222456954938 135.91564537204155 # Ar
618 618 1 0.0 1081.9349750500212 264.688738042717 769.0447808337668 # Ar
619 619 1 0.0 103.54111544694105 942.7492279149841 298.6994787742987 # Ar
620 620 1 0.0 301.6182071139001 717.1469634822013 180.63673218876704 # Ar
621 621 1 0.0 131.66464982012738 806.8076564657205 621.9314429484141 # Ar
622 622 1 0.0 1098.4207631613788 247.1867847510196 956.476705864155 # Ar
623 623 1 0.0 1106.483762288609 913.888159745287 464.68685082952936 # Ar
624 624 1 0.0 1142.2957843421932 662.940122051993 609.4279790904982 # Ar
625 625 1 0.0 301.28452695530467 554.8415059801772 529.3621429932493 # Ar
626 626 1 0.0 169.06856964152541 804.4641829848377 623.5702423034 # Ar
627 627 1 0.0 931.0999217421474 670.0479684217295 971.0809993397539 # Ar
628 628 1 0.0 663.9339971184777 373.1700868794378 573.872548196369 # Ar
629 629 1 0.0 515.0956878299165 482.1611437616502 1205.4910114732431 # Ar
630 630 1 0.0 200.0553778828713 139.39097316991354 1002.1802603541031 # Ar
631 631 1 0.0 1200.0968274189167 234.53395768780652 1129.6167772976698 # Ar
632 632 1 0.0 515.6759120108754 848.5253134175792 64.69058122517185 # Ar
633 633 1 0.0 186.87485975336838 43.42155784077019 153.83021279069655 # Ar
634 634 1 0.0 679.709834210186 1051.366992219803 560.911112876347 # Ar
635 635 1 0.0 312.7992113377366 300.5482576789776 1151.7446454128378 # Ar
636 636 1 0.0 38.69478672506773 105.85923241571881 390.45337105114237 # Ar
637 637 1 0.0 920.54518459176 42.555553849996514 741.6814718625724 # Ar
638 638 1 0.0 917.7469283837709 690.7005761910817 318.88567232806815 # Ar
639 639 1 0.0 397.5559913345334 972.1794501901825 375.72377059569595 # Ar
640 640 1 0.0 980.5713578601525 141.1515551471949 193.84446886257274 # Ar
641 641 1 0.0 865.8155143358285 943.5867511043208 6.42661215765167 # Ar
642 642 1 0.0 572.271153586105 398.80408545600733 270.73479799494135 # Ar
643 643 1 0.0 728.9955094117362 929.0844371568252 545.5183857336744 # Ar
644 644 1 0.0 625.4668197882143 576.7548366193398 1054.8475603092918 # Ar
645 645 1 0.0 1182.195683725162 189.53341842827052 422.76174235324527 # Ar
646 646 1 0.0 130.7806650813225 1093.05886252408 31.306699299266604 # Ar
647 647 1 0.0 112.08684204400663 830.2290877368864 93.74709961492175 # Ar
648 648 1 0.0 1050.8110260554472 1233.6440958589221 190.16266878707245 # Ar
649 649 1 0.0 897.1716752123543 701.8480755727088 392.6339651909071 # Ar
650 650 1 0.0 463.18289452611833 766.1123671591364 725.6876195584746 # Ar
651 651 1 0.0 13.878878477371899 373.1169596817251 286.98065268660656 # Ar
652 652 1 0.0 897.0730724237807 861.492242404884 887.2611202847055 # Ar
653 653 1 0.0 888.9558995054633 1232.0162130573904 254.69918117252237 # Ar
654 654 1 0.0 439.1903922810937 921.5731795477155 585.5931138664522 # Ar
655 655 1 0.0 614.8980325249737 404.034944823603 810.7456123800179 # Ar
656 656 1 0.0 89.52515876671576 848.7852089333519 890.9721016486874 # Ar
657 657 1 0.0 741.455249133429 985.415667953435 745.5571980718271 # Ar
658 658 1 0.0 378.9580669901423 507.12332249371946 359.2622252872983 # Ar
659 659 1 0.0 484.25713356290737 92.91955742922842 1232.5009071499135 # Ar
660 660 1 0.0 222.69543603259416 1013.3671769126414 737.3593742995871 # Ar
661 661 1 0.0 60.15644287976052 977.7147066783059 38.12832335280403 # Ar
662 662 1 0.0 149.24526318852563 1133.221092458539 1037.9142335687518 # Ar
663 663 1 0.0 874.0778350015677 557.2434354155017 547.2138316769314 # Ar
664 664 1 0.0 850.1562665979646 877.9493624105542 1098.8780067388939 # Ar
665 665 1 0.0 139.0435937870274 1238.110723367866 462.91836256317043 # Ar
666 666 1 0.0 1135.0409176632102 490.73944869526173 785.5050086066246 # Ar
667 667 1 0.0 190.51026270411583 86.73524470792296 982.3028855464851 # Ar
668 668 1 0.0 1184.3984294329096 61.403409493632516 322.180898827784 # Ar
669 669 1 0.0 869.5012189874212 315.6074407883358 460.17530361965 # Ar
670 670 1 0.0 856.4834180171322 1217.1191792771588 351.82894555076274 # Ar
671 671 1 0.0 709.3892321060501 514.9345533400846 2.7798507672917556 # Ar
672 672 1 0.0 700.8110641516694 145.96429875407966 39.138857531715864 # Ar
673 673 1 0.0 539.2871656850745 763.3089901535545 29.621247683700883 # Ar
674 674 1 0.0 305.0016902575572 55.77597309273051 1036.8057731748856 # Ar
675 675 1 0.0 624.8001107190998 628.175319801992 516.8478465017704 # Ar
676 676 1 0.0 362.2808479678678 792.6478083980617 255.34416438602625 # Ar
677 677 1 0.0 407.8783328106432 1119.2211554883331 1207.7424236524055 # Ar
678 678 1 0.0 982.0950256153359 424.97568166558347 633.4152855223624 # Ar
679 679 1 0.0 445.3564375360125 112.76303858164701 390.3262397369301 # Ar
680 680 1 0.0 981.0551414835638 545.0619009529522 590.5917353746198 # Ar
681 681 1 0.0 810.3042472383272 490.3609118629563 46.24599682306639 # Ar
682 682 1 0.0 177.7320639890983 587.4105477342149 1092.1111663133545 # Ar
683 683 1 0.0 109.41335579725084 353.92117907426444 686.8493023250184 # Ar
684 684 1 0.0 713.9982074796164 403.9233349036111 559.7275067220309 # Ar
685 685 1 0.0 674.7789366857363 351.84249239802244 177.50179740369643 # Ar
686 686 1 0.0 407.51542818398934 555.8004399802242 175.30581125874735 # Ar
687 687 1 0.0 700.8664493747995 643.0343747593208 1162.897805613876 # Ar
688 688 1 0.0 1211.2721172262475 802.9683661570756 931.9992145281026 # Ar
689 689 1 0.0 633.0516645402581 1203.1426587045855 885.8183368521245 # Ar
690 690 1 0.0 560.4893445792301 173.30941094562894 342.010338418219 # Ar
691 691 1 0.0 751.0321199653281 587.3198884177383 1167.7332715935238 # Ar
692 692 1 0.0 1201.992634630744 264.83876734660487 920.5252060339518 # Ar
693 693 1 0.0 1187.022868384939 780.7642469769436 686.3688006918329 # Ar
694 694 1 0.0 3.655496332234271 374.4269201307528 307.28903562512227 # Ar
695 695 1 0.0 331.2819550967249 639.0622857970135 281.237698482034 # Ar
696 696 1 0.0 804.281531029839 532.9079104509395 872.6279697172987 # Ar
697 697 1 0.0 303.4990865408923 151.6787557718914 15.62039601409882 # Ar
698 698 1 0.0 368.1739301752305 29.350877137437923 274.2925774545424 # Ar
699 699 1 0.0 448.0926623804027 374.65581197349275 296.80692681467997 # Ar
700 700 1 0.0 1117.7052306492387 388.4851312853891 1059.873846521696 # Ar
701 701 1 0.0 1144.7185794357413 647.8108441791179 1104.4410219827819 # Ar
702 702 1 0.0 987.2732098140042 1086.7243969602334 640.4420951224924 # Ar
703 703 1 0.0 150.69101602146696 784.3572890631559 189.5155020053317 # Ar
704 704 1 0.0 737.3155386022545 839.8107392783097 492.7304435640741 # Ar
705 705 1 0.0 41.25831293872025 11.030246961257205 416.80445268216687 # Ar
706 706 1 0.0 54.44066354542066 1026.2733681680452 112.25822384557941 # Ar
707 707 1 0.0 643.5264466838258 784.0669814644054 149.21107083008718 # Ar
708 708 1 0.0 86.73916172606215 545.0079197280896 871.0770450313302 # Ar
709 709 1 0.0 332.1405408413266 552.5929500217985 162.6894080028321 # Ar
710 710 1 0.0 963.0416467463822 1189.2280161759022 862.244062124667 # Ar
711 711 1 0.0 1114.7028415680695 102.97170545887748 1129.3988688020688 # Ar
712 712 1 0.0 277.3688530596223 52.19951044809249 502.92956282635504 # Ar
713 713 1 0.0 438.3089047520956 1109.6561280194078 7.724153750695187 # Ar
714 714 1 0.0 143.1841906421268 1218.3929077125445 954.3435940713896 # Ar
715 715 1 0.0 44.46525866703937 831.4559712690473 512.2861666924166 # Ar
716 716 1 0.0 245.1181827964582 737.0254581160851 132.07940053395924 # Ar
717 717 1 0.0 252.2699084503011 580.5789956968691 627.3614659807741 # Ar
718 718 1 0.0 698.969697975338 512.2863543370509 415.9652602112517 # Ar
719 719 1 0.0 1124.274515695511 200.596333496927 513.4815128552116 # Ar
720 720 1 0.0 125.77350749341431 524.085614666122 1193.9661165885373 # Ar
721 721 1 0.0 899.0736421817761 761.1286788373309 696.8549913020115 # Ar
722 722 1 0.0 1054.9977634083095 1052.7541460716714 156.36132365364693 # Ar
723 723 1 0.0 442.0637432717225 1048.877873351772 763.3040723654864 # Ar
724 724 1 0.0 697.0272274682967 199.80025799335445 1006.5339036816532 # Ar
725 725 1 0.0 664.5078445849991 298.2542160198176 150.0563867782222 # Ar
726 726 1 0.0 716.7039656737905 630.6139533677726 652.3387171251394 # Ar
727 727 1 0.0 495.740418287609 172.57440384026086 1072.3209946429056 # Ar
728 728 1 0.0 345.5742884159503 940.7471400808847 418.50780697640107 # Ar
729 729 1 0.0 891.7355761181009 581.210849339225 14.849441879389259 # Ar
730 730 1 0.0 467.24154630842315 544.3134407730246 477.6332347219953 # Ar
731 731 1 0.0 379.07843979278556 994.837825988792 303.5298410819258 # Ar
732 732 1 0.0 947.5337474209321 632.2391789347785 1140.7649063812257 # Ar
733 733 1 0.0 919.3173131813029 1036.0402009864852 319.4787884359054 # Ar
734 734 1 0.0 929.5149244685082 359.8390364169296 760.9622321485163 # Ar
735 735 1 0.0 630.5170925638059 234.4342934402747 1183.516425312254 # Ar
736 736 1 0.0 1042.5732547549298 917.5724757968069 1141.8413568275228 # Ar
737 737 1 0.0 803.1111319297282 708.2676758269863 185.41882237666707 # Ar
738 738 1 0.0 932.7622693263028 535.6033542390221 1177.6581955192419 # Ar
739 739 1 0.0 258.6634685000704 691.0779073684953 286.48250562703527 # Ar
740 740 1 0.0 890.5405490256854 575.1985565647543 666.4693150949306 # Ar
741 741 1 0.0 681.7542910258318 1041.277138911774 548.8546156255851 # Ar
742 742 1 0.0 307.020031025988 316.6677264939289 846.5070598374206 # Ar
743 743 1 0.0 39.027673579632804 910.5086084259191 520.1659736632134 # Ar
744 744 1 0.0 871.5644661058435 378.82137749533456 815.0008448536585 # Ar
745 745 1 0.0 159.20798239672996 12.930866467598088 827.8886056272792 # Ar
746 746 1 0.0 1063.8155155979455 992.8443537679077 641.6938992200313 # Ar
747 747 1 0.0 77.5484258100959 698.7903176782731 1137.2391527332702 # Ar
748 748 1 0.0 198.14595490647764 243.21333019514051 647.6177010291063 # Ar
749 749 1 0.0 406.12921446216944 850.0628244868227 733.3911413129716 # Ar
750 750 1 0.0 206.6052349301715 729.5598098494826 230.95575378660396 # Ar
751 751 1 0.0 1124.239253885539 1032.4296493640713 1156.3115325079086 # Ar
752 752 1 0.0 808.8543504438189 635.7514537317425 16.740348603444644 # Ar
753 753 1 0.0 302.07282569429645 578.179978112777 1061.4385809224477 # Ar
754 754 1 0.0 233.40836658817662 690.3931934247373 740.626920681586 # Ar
755 755 1 0.0 549.319376527846 621.5606258219294 846.6731286325236 # Ar
756 756 1 0.0 258.26729964562935 690.1345811470304 1207.6305269194634 # Ar
757 757 1 0.0 752.5961666383081 677.1120585571321 211.20191982120636 # Ar
758 758 1 0.0 319.17591594571144 700.9214183637966 26.408970041789935 # Ar
759 759 1 0.0 589.2805665359425 805.4910975771433 108.34637394949443 # Ar
760 760 1 0.0 202.79487942036263 539.5356139955982 216.18007211429472 # Ar
761 761 1 0.0 273.3148204543682 1201.6730234255513 91.36386847076595 # Ar
762 762 1 0.0 1117.8021166937315 725.5539549331419 538.2614171931112 # Ar
763 763 1 0.0 283.68807237343583 382.0822601763599 238.7230096022718 # Ar
764 764 1 0.0 1166.8825280330243 808.3228252312261 412.9621140401839 # Ar
765 765 1 0.0 646.2024687846172 554.0846080058913 751.3351021759253 # Ar
766 766 1 0.0 275.0927466441859 1107.100009344393 982.5329981033542 # Ar
767 767 1 0.0 1099.1625685544514 442.54846059390803 1020.888809973381 # Ar
768 768 1 0.0 616.8411773559465 197.59783715550003 1067.0214706502702 # Ar
769 769 1 0.0 706.3386424086269 941.5278878897886 626.4408557014004 # Ar
770 770 1 0.0 481.77204882954044 128.49674188784988 228.04483194726183 # Ar
771 771 1 0.0 1069.0790983939758 406.3697485355365 1133.8373419426607 # Ar
772 772 1 0.0 777.4102138023072 706.9874116667975 1022.6458929681347 # Ar
773 773 1 0.0 133.41991631955733 978.8062401850398 1095.3039945028352 # Ar
774 774 1 0.0 743.8721117674954 592.838732292725 635.0677358677639 # Ar
775 775 1 0.0 1091.3274321707133 34.393659717595234 276.1442822067599 # Ar
776 776 1 0.0 254.57960009712036 1222.8419278847841 858.1382724537382 # Ar
777 777 1 0.0 1200.87609756005 166.0756522883066 47.81918734994378 # Ar
778 778 1 0.0 570.6567369806278 243.21143945465175 529.0275233233845 # Ar
779 779 1 0.0 530.0329786975192 800.3613790596629 917.5910164153845 # Ar
780 780 1 0.0 351.3057794411954 385.14218208441196 1102.8741177272473 # Ar
781 781 1 0.0 370.520892799571 854.6141768962749 339.3029764314929 # Ar
782 782 1 0.0 38.39430913308551 154.04210005812715 117.11068727345155 # Ar
783 783 1 0.0 1164.5278382866568 88.72882271318541 370.1166324445066 # Ar
784 784 1 0.0 1019.7284773571556 405.88564490478865 931.7237045061429 # Ar
785 785 1 0.0 605.6632266586182 443.15681483557677 72.98843749996281 # Ar
786 786 1 0.0 257.56240605568416 567.8449731025631 208.41469555739997 # Ar
787 787 1 0.0 254.70149825648713 74.04676997747265 976.9526471576737 # Ar
788 788 1 0.0 1232.6496807218166 1190.6205329541122 491.41207306753506 # Ar
789 789 1 0.0 185.1523698231588 495.04043335076045 615.2511861670934 # Ar
790 790 1 0.0 738.8451660113979 718.5878701702582 317.9695131983886 # Ar
791 791 1 0.0 45.71680246274597 1090.387075509749 531.6965460408677 # Ar
792 792 1 0.0 142.52484285354782 400.9069094975263 911.2114483502507 # Ar
793 793 1 0.0 105.760456613168 604.7999245788205 889.4624481677644 # Ar
794 794 1 0.0 815.3585503400657 293.8594851288159 1218.1389530312986 # Ar
795 795 1 0.0 884.867508775912 27.424909413892298 566.354877450163 # Ar
796 796 1 0.0 487.26814585497726 572.5902018442556 799.1126860924775 # Ar
797 797 1 0.0 879.6175408716609 1105.2218537439783 79.79528432974323 # Ar
798 798 1 0.0 903.2525142215611 162.20469405278428 158.58969932522425 # Ar
799 799 1 0.0 522.1999746643594 516.2254525073993 807.8852172786179 # Ar
800 800 1 0.0 13.680556060665545 565.0926315398984 993.129177595131 # Ar
801 801 1 0.0 751.7573336362827 205.26370549542577 279.6804025998959 # Ar
802 802 1 0.0 1186.0089496579226 823.792457676694 260.990026110553 # Ar
803 803 1 0.0 396.1753504175897 359.86328375890986 414.03758587584394 # Ar
804 804 1 0.0 505.70540282309173 132.1714784955743 16.77786970533863 # Ar
805 805 1 0.0 1010.8761924359305 658.1103592102811 437.3341148300481 # Ar
806 806 1 0.0 354.93330335262584 600.7767304404721 399.87049194541055 # Ar
807 807 1 0.0 686.2522440865715 243.83937523593104 823.6216148446738 # Ar
808 808 1 0.0 1072.0350190168467 126.42166669786604 650.9429085480743 # Ar
809 809 1 0.0 578.0400408150343 856.9912330957528 916.8573148348434 # Ar
810 810 1 0.0 864.6366692612513 876.4073286856312 334.338343958164 # Ar
811 811 1 0.0 510.4582234438453 419.77269882230996 1165.5828254866026 # Ar
812 812 1 0.0 1188.9819400930776 1105.6139100766663 508.7408435573028 # Ar
813 813 1 0.0 678.2779036551148 789.3038929352025 274.9829057851751 # Ar
814 814 1 0.0 177.20221140610676 155.52927268256204 1006.1235065099705 # Ar
815 815 1 0.0 580.1816831251659 431.1883085969543 885.9222681882139 # Ar
816 816 1 0.0 917.4742811794817 391.42202143300597 165.08265605513725 # Ar
817 817 1 0.0 794.3625187846263 1043.9980157142327 19.944211705107318 # Ar
818 818 1 0.0 526.0754953177959 610.6508988103413 1130.0757322505772 # Ar
819 819 1 0.0 907.491590517908 1147.257563371687 22.87933631707211 # Ar
820 820 1 0.0 753.3818570596952 943.0566478164592 285.04399601933056 # Ar
821 821 1 0.0 466.7417980397398 332.40874289821505 185.62645980885154 # Ar
822 822 1 0.0 979.4690863396436 134.79047034697643 816.6811168117848 # Ar
823 823 1 0.0 439.0092507347887 246.86401259458466 626.7512830780161 # Ar
824 824 1 0.0 1193.8607327920724 194.7054918238338 1058.9877739671936 # Ar
825 825 1 0.0 1061.2778105781765 153.04265471269156 1091.6059790708314 # Ar
826 826 1 0.0 546.8696318645185 772.75871155123 690.5635324149919 # Ar
827 827 1 0.0 254.87254840039188 884.4109918962497 237.53833768610102 # Ar
828 828 1 0.0 596.6398064797804 306.9723059780574 854.1050518921884 # Ar
829 829 1 0.0 274.12073097141854 762.9450498431561 75.2157361178002 # Ar
830 830 1 0.0 270.1194416674226 281.626106245015 1213.1122820890866 # Ar
831 831 1 0.0 54.07106095703667 85.27866179739156 806.3405077400689 # Ar
832 832 1 0.0 877.0115234474498 669.6646783126819 1155.5009970487592 # Ar
833 833 1 0.0 214.9330977189507 12.679944991750325 1056.2922182607058 # Ar
834 834 1 0.0 987.8103135998567 1115.3199148349731 1043.23759242059 # Ar
835 835 1 0.0 47.65235044232003 294.55330635358473 441.81016727663615 # Ar
836 836 1 0.0 1175.53382859269 470.92692736405354 918.4945567935755 # Ar
837 837 1 0.0 286.74770531912367 297.09747343536264 989.2397769544183 # Ar
838 838 1 0.0 1078.2848360429596 1156.9742539215888 777.0999496678769 # Ar
839 839 1 0.0 99.05994967314503 895.3378325665452 494.17913750322003 # Ar
840 840 1 0.0 1110.2020548878088 556.9403412575755 824.8437135161263 # Ar
841 841 1 0.0 639.4589456110898 55.653229605941135 907.9417230879922 # Ar
842 842 1 0.0 329.46537281545346 145.04226889765542 1013.7957858664015 # Ar
843 843 1 0.0 61.903732119053934 86.03927950411605 1077.1742904394007 # Ar
844 844 1 0.0 732.6682507493471 932.1615744192865 1202.8335360264257 # Ar
845 845 1 0.0 241.9693313809085 872.194706127696 563.7966913079566 # Ar
846 846 1 0.0 610.6861185438432 807.3729517525736 114.4171547804154 # Ar
847 847 1 0.0 206.24656814311464 492.771875989182 49.77858972870595 # Ar
848 848 1 0.0 75.48124397986922 1215.1984654275327 1222.9967680792918 # Ar
849 849 1 0.0 1120.183495030595 1189.858272727136 197.87686798578144 # Ar
850 850 1 0.0 1044.2702369612896 504.2748523239609 894.7589464730038 # Ar
851 851 1 0.0 97.62734906057958 1013.9116628973516 928.7490838047866 # Ar
852 852 1 0.0 1147.3814069609425 125.95478060175896 1042.681150948683 # Ar
853 853 1 0.0 251.6517811207942 311.4930456602225 860.5240571512203 # Ar
854 854 1 0.0 1030.949685325773 849.5840947457094 235.47642716580927 # Ar
855 855 1 0.0 1025.923063446328 59.494107974424466 825.5733375900628 # Ar
856 856 1 0.0 794.8607083440352 886.9365537436825 1098.819618411266 # Ar
857 857 1 0.0 663.6561510590197 29.903997107872865 209.91134001750245 # Ar
858 858 1 0.0 207.34222461638976 825.4904351054136 609.7700392962838 # Ar
859 859 1 0.0 354.95050571544107 151.7154249352298 869.7258014153666 # Ar
860 860 1 0.0 684.3450229768159 112.64438995353672 881.3219688461984 # Ar
861 861 1 0.0 364.6851903118932 552.6876462286102 227.61151793345743 # Ar
862 862 1 0.0 860.5276028357438 210.10231580209404 931.0319637192704 # Ar
863 863 1 0.0 114.90080804567238 1019.4546278613623 807.3549693168449 # Ar
864 864 1 0.0 272.7897949954635 810.7356332128187 1020.3867607508794 # Ar
865 865 1 0.0 1043.6682798575503 478.07755257562843 219.26965705946512 # Ar
866 866 1 0.0 1191.9276080693462 1226.0548309705166 1048.7989573196257 # Ar
867 867 1 0.0 136.44779372235138 449.2432986064617 446.88002980389615 # Ar
868 868 1 0.0 579.722733713553 571.3048990108924 190.6542635502206 # Ar
869 869 1 0.0 1190.0905079146696 274.3385192202668 701.5768944583265 # Ar
870 870 1 0.0 589.7025001827659 279.6355325973685 36.81440157129302 # Ar
871 871 1 0.0 851.0612710855546 186.35510644848537 1212.3326919608999 # Ar
872 872 1 0.0 1155.143413888724 1109.6972650417347 673.0405133100388 # Ar
873 873 1 0.0 812.0408207730072 276.1702968206365 273.1296263910797 # Ar
874 874 1 0.0 896.7257398887388 710.5426871020285 1005.167463173516 # Ar
875 875 1 0.0 1040.7375370634634 318.72176182328934 11.62404740687819 # Ar
876 876 1 0.0 916.1287878613973 1214.0663718294606 306.9178683414332 # Ar
877 877 1 0.0 903.4074502396375 959.9593250885023 927.8762358077229 # Ar
878 878 1 0.0 1067.9819942921883 1237.4118605203967 632.3067107942771 # Ar
879 879 1 0.0 1236.5171952457504 780.4900184098358 1076.8331430534981 # Ar
880 880 1 0.0 507.7447365430234 146.59856944356395 1121.257379761553 # Ar
881 881 1 0.0 1108.6922468546286 391.6314151945615 622.6956109563184 # Ar
882 882 1 0.0 719.9931487770618 380.7756207858886 0.39139743416952555 # Ar
883 883 1 0.0 1073.9480801310795 1007.400680303985 30.204525067859564 # Ar
884 884 1 0.0 1083.3798982904905 515.701373323807 702.2141517176694 # Ar
885 885 1 0.0 890.5777056047096 400.9346387961405 1239.2005746877528 # Ar
886 886 1 0.0 706.8588888574537 580.1738239314678 488.16862792731393 # Ar
887 887 1 0.0 726.7917353441586 348.54292426985955 52.39569719319321 # Ar
888 888 1 0.0 596.4315103674469 463.6595115193884 343.4411699107695 # Ar
889 889 1 0.0 185.70316428759034 264.4772678800595 269.50946042980354 # Ar
890 890 1 0.0 831.8602123689367 529.8241787943484 136.69990580528238 # Ar
891 891 1 0.0 103.35414245922178 992.1138929566768 295.7722109762783 # Ar
892 892 1 0.0 512.0895483340178 332.0323156652213 588.8394765358122 # Ar
893 893 1 0.0 377.8885039324832 1201.9897111227804 175.02692486380948 # Ar
894 894 1 0.0 984.6040937480058 657.8294898933614 586.1283568855241 # Ar
895 895 1 0.0 823.0190032658896 579.7095325982572 305.67892954462906 # Ar
896 896 1 0.0 772.1981887598445 923.3123779396757 205.92608088387033 # Ar
897 897 1 0.0 988.8507854833535 990.6827518811289 1064.3186916404704 # Ar
898 898 1 0.0 371.3595827918878 101.15095144292124 458.9514756133506 # Ar
899 899 1 0.0 1057.0454025721665 205.78192929659912 369.51327216636327 # Ar
900 900 1 0.0 1223.332112898069 49.20033418792657 576.9807265407794 # Ar
901 901 1 0.0 680.1276213942833 26.353974008484432 726.9110620675186 # Ar
902 902 1 0.0 771.7241935663171 343.4824345197628 1096.685260446217 # Ar
903 903 1 0.0 429.8267552643242 587.5283687778061 263.50199004396944 # Ar
904 904 1 0.0 588.1520502072328 1146.4093707114885 763.1558711393321 # Ar
905 905 1 0.0 732.7893594031425 662.7446398903611 822.1514301473303 # Ar
906 906 1 0.0 516.1530916758151 188.96342106567076 1142.8502699270657 # Ar
907 907 1 0.0 774.0112174742122 186.79011915745892 537.849280265441 # Ar
908 908 1 0.0 326.0404943453954 1115.8298019286847 707.0868491955314 # Ar
909 909 1 0.0 210.76762770627585 1132.8754231134108 210.82784335840742 # Ar
910 910 1 0.0 1129.3089652888088 1195.8132629219133 622.1504316342035 # Ar
911 911 1 0.0 68.32320558127687 431.3732134742496 801.3069678837339 # Ar
912 912 1 0.0 699.0904093050244 433.26474888879085 11.016486933117394 # Ar
913 913 1 0.0 435.8864876556836 842.1910033473116 351.7462594117632 # Ar
914 914 1 0.0 570.6405803367987 850.1061383954817 424.3059458247958 # Ar
915 915 1 0.0 115.08174634504492 991.6404324546492 833.6726886517262 # Ar
916 916 1 0.0 406.4475266311546 1228.028938288105 387.9469806394879 # Ar
917 917 1 0.0 121.17788657432315 113.92682990804431 935.6630345795318 # Ar
918 918 1 0.0 320.6787552713543 762.4269489328117 526.7039183103548 # Ar
919 919 1 0.0 333.07182747488326 470.23381163320147 214.2036473294895 # Ar
920 920 1 0.0 391.24815006637516 694.3129062846782 763.6797222821625 # Ar
921 921 1 0.0 1008.7794011786857 1177.9479276800207 862.1726786026854 # Ar
922 922 1 0.0 239.63570000905344 529.934573437115 194.2077771522792 # Ar
923 923 1 0.0 762.3350480691291 534.6655003188606 408.0575487009813 # Ar
924 924 1 0.0 606.6178009232647 209.50269356404198 982.0859733393861 # Ar
925 925 1 0.0 120.98685146446243 51.820034590311685 612.0156884487799 # Ar
926 926 1 0.0 1010.4922758544412 10.57484747477972 1168.135709847011 # Ar
927 927 1 0.0 697.0509460747612 952.3869515938792 0.7035262664890247 # Ar
928 928 1 0.0 715.1683663663886 981.5867801256273 74.35333566344082 # Ar
929 929 1 0.0 1054.1938946698056 755.0680295678776 707.4207820420568 # Ar
930 930 1 0.0 505.5445619963061 1129.1555330502847 649.782536118388 # Ar
931 931 1 0.0 369.03679521510986 1212.0129091006725 965.6549748789355 # Ar
932 932 1 0.0 251.555217880171 455.6375236231731 1108.3992865162425 # Ar
933 933 1 0.0 233.7419415883958 767.1751254468364 240.11478986471977 # Ar
934 934 1 0.0 835.1896184281562 217.3258806875577 167.83420829624296 # Ar
935 935 1 0.0 193.91186168895894 1042.2451802514825 821.9878480050827 # Ar
936 936 1 0.0 266.07854411548516 313.93532928864425 869.6714256930347 # Ar
937 937 1 0.0 32.21362713555321 513.4360773606161 463.3103891986952 # Ar
938 938 1 0.0 569.7083811016022 537.9336424635413 1062.4522637671555 # Ar
939 939 1 0.0 538.243674548051 96.83665805426355 143.6002802873681 # Ar
940 940 1 0.0 1223.8695850499853 346.56045751717784 816.4279632395367 # Ar
941 941 1 0.0 935.6233075659555 664.4518339172178 723.6156171307595 # Ar
942 942 1 0.0 1147.980436113574 344.03248005522346 665.8301408314578 # Ar
943 943 1 0.0 1111.7603778878358 730.2801909131597 583.009724170456 # Ar
944 944 1 0.0 1120.821842248746 272.3649222810123 431.35731344721603 # Ar
945 945 1 0.0 87.1034591864901 698.4186456984742 1143.842574419508 # Ar
946 946 1 0.0 564.8734275345355 413.045848542535 720.0912497601201 # Ar
947 947 1 0.0 962.6397511184973 378.5665091849201 124.78324629903523 # Ar
948 948 1 0.0 1120.7739144482432 1239.232696903929 563.7002536210412 # Ar
949 949 1 0.0 973.808847551054 837.9858859401003 609.2341833306 # Ar
950 950 1 0.0 476.1737162443418 450.1058261700635 1151.8602223805888 # Ar
951 951 1 0.0 443.44059154620857 46.871105351993414 182.80717165678087 # Ar
952 952 1 0.0 386.82233137713354 1074.9084040018802 323.95833628957985 # Ar
953 953 1 0.0 806.260389425035 155.92280705592285 500.82864184730806 # Ar
954 954 1 0.0 112.33972095829535 1211.722828826811 672.6715017687034 # Ar
955 955 1 0.0 720.5452117992081 250.34312539448612 89.29192980303328 # Ar
956 956 1 0.0 365.0892098069309 223.52934516889135 167.08728744168482 # Ar
957 957 1 0.0 551.1020104497522 1204.8582229953388 880.5509333431805 # Ar
958 958 1 0.0 1041.6243534806006 803.0881717277963 1160.887664380745 # Ar
959 959 1 0.0 1010.1604970959424 1118.1833702616925 1199.1708636388323 # Ar
960 960 1 0.0 1104.864681333346 978.1536218216853 757.4358533052002 # Ar
961 961 1 0.0 330.38408622234357 749.2160378276932 396.50201878565105 # Ar
962 962 1 0.0 1179.787373181318 897.3085522362919 1118.844573117837 # Ar
963 963 1 0.0 222.9122501021203 1134.5191192791958 48.67407580819852 # Ar
964 964 1 0.0 672.6709126414876 262.56616310137576 757.0245441853195 # Ar
965 965 1 0.0 309.11496892690764 262.7232406189099 915.4141746519172 # Ar
966 966 1 0.0 793.921008782733 131.81029383219948 548.3212883240768 # Ar
967 967 1 0.0 1034.4369992069014 469.7393673593789 766.2159390698208 # Ar
968 968 1 0.0 503.6454447629235 406.56784899727796 509.80600743075195 # Ar
969 969 1 0.0 285.9749612597028 184.24059584706558 752.9951141087663 # Ar
970 970 1 0.0 1083.7738439998986 398.9697684196759 120.37003965209955 # Ar
971 971 1 0.0 538.9510517338546 53.43049196719044 1119.8710365304112 # Ar
972 972 1 0.0 708.8749534586271 901.3331591896355 975.416638613621 # Ar
973 973 1 0.0 131.05530455324848 985.0081033065238 68.35539706654632 # Ar
974 974 1 0.0 708.3028534803029 1043.562587428572 617.866900193384 # Ar
975 975 1 0.0 1005.2236131544735 915.7406247789719 233.1668534604226 # Ar
976 976 1 0.0 972.915015774967 458.56353525766707 716.7484316360582 # Ar
977 977 1 0.0 499.41175666765923 642.6974100965125 954.5717499487472 # Ar
978 978 1 0.0 967.1050721080508 74.42400347748521 870.964241511543 # Ar
979 979 1 0.0 330.6283485163939 1186.228909874227 26.276744167683376 # Ar
980 980 1 0.0 990.3911721377646 31.984667747452853 322.18340996541536 # Ar
981 981 1 0.0 949.9905782230398 71.72064861546308 272.5947645972728 # Ar
982 982 1 0.0 1045.6370879482329 1056.2941374371333 974.7879490334311 # Ar
983 983 1 0.0 238.82759569259437 237.49874182626417 490.81912346037717 # Ar
984 984 1 0.0 283.30742635296883 1138.9691270348983 29.1425281043188 # Ar
985 985 1 0.0 558.8983549360836 37.92023288652599 251.19712189281492 # Ar
986 986 1 0.0 634.7515633327856 238.42002413612533 503.64014758946195 # Ar
987 987 1 0.0 324.0006055540501 584.5347318560775 910.7468735585901 # Ar
988 988 1 0.0 664.9488945392956 837.0575153973705 589.1659753371317 # Ar
989 989 1 0.0 1138.140364761444 482.145445690551 1056.036712147556 # Ar
990 990 1 0.0 122.70684795866897 46.66732767915993 753.4646810558912 # Ar
991 991 1 0.0 1024.2200041843969 200.2973301341703 707.3457887325985 # Ar
992 992 1 0.0 1024.2693286951428 1200.7550141300605 540.0480757751089 # Ar
993 993 1 0.0 1004.0405543548651 369.73807545065625 938.6771985323229 # Ar
994 994 1 0.0 1010.3448966872911 763.0641606028289 628.5016484925246 # Ar
995 995 1 0.0 1021.4050130218997 82.55326896023013 540.4239059278325 # Ar
996 996 1 0.0 968.6716990541012 1063.2648639693907 574.8077426278928 # Ar
997 997 1 0.0 591.2736297834243 807.9124620777576 70.46337365872296 # Ar
998 998 1 0.0 441.1243541064559 759.9598105428261 305.56137992322783 # Ar
999 999 1 0.0 537.3308891441121 203.329341577505 679.945955989236 # Ar
1000 1000 1 0.0 809.9531019972047 464.04548023995125 891.7423475401334 # Ar
1001 1001 1 0.0 581.0977602490226 1124.656268747664 809.2562301560816 # Ar
1002 1002 1 0.0 668.772248678299 302.5276950400159 786.8860248278941 # Ar
1003 1003 1 0.0 299.1947228640169 256.57255291216705 574.2865592191249 # Ar
1004 1004 1 0.0 580.5208756103407 728.4053685754668 792.6190680046701 # Ar
1005 1005 1 0.0 992.65811424174 933.3210403329026 86.47080044968492 # Ar
1006 1006 1 0.0 292.7363381208282 582.8228284853277 817.3119715049563 # Ar
1007 1007 1 0.0 840.9361699787764 62.77110613210232 127.12642915168892 # Ar
1008 1008 1 0.0 135.97103247777642 656.6716915663161 1126.5259781022003 # Ar
1009 1009 1 0.0 819.6314139153928 84.36423424617278 942.4700910085642 # Ar
1010 1010 1 0.0 704.6634842344415 610.7165123389826 344.527130011145 # Ar
1011 1011 1 0.0 887.9949378109949 779.2294236434286 898.1155473112577 # Ar
1012 1012 1 0.0 231.12872313673716 661.1819642351377 1152.1899353866027 # Ar
1013 1013 1 0.0 671.285751451568 888.2325534622136 245.8520355169023 # Ar
1014 1014 1 0.0 774.3565977681268 325.6449843656945 343.0318203358534 # Ar
1015 1015 1 0.0 657.7616550336203 519.976425894635 716.9860004007963 # Ar
1016 1016 1 0.0 28.487121508944938 1069.6711927216184 370.74833901075306 # Ar
1017 1017 1 0.0 549.869341375911 24.32395813153847 579.2946999244048 # Ar
1018 1018 1 0.0 545.3755502979043 1064.1892106448786 671.5708353846683 # Ar
1019 1019 1 0.0 410.30076556938667 912.0389928563791 360.87231805137543 # Ar
1020 1020 1 0.0 53.99463812220678 684.7790830067854 793.085105521134 # Ar
1021 1021 1 0.0 622.9186848420691 896.548798249211 39.320932783870326 # Ar
1022 1022 1 0.0 707.1007935193555 417.5224893546105 907.7447718623337 # Ar
1023 1023 1 0.0 787.0564352168458 297.26795000886034 614.9643228257484 # Ar
1024 1024 1 0.0 800.3916901811571 305.71474214164704 1164.5969614539856 # Ar
1025 1025 1 0.0 181.9745264068196 448.17149366536887 168.25206394794628 # Ar
1026 1026 1 0.0 465.08102243740007 986.2338578360786 677.9495784352207 # Ar
1027 1027 1 0.0 574.7994707954014 1068.9210807722716 818.028139723773 # Ar
1028 1028 1 0.0 38.98953441017793 985.7409781490456 427.166233309001 # Ar
1029 1029 1 0.0 416.069591742223 396.9707788753876 207.39280358536678 # Ar
1030 1030 1 0.0 520.7405150894728 641.0831029957354 616.1490087439802 # Ar
1031 1031 1 0.0 365.8110435072757 371.65806952561167 448.26232224128705 # Ar
1032 1032 1 0.0 549.3277040378845 1208.8307027919968 1134.8216168208803 # Ar
1033 1033 1 0.0 235.59925755778494 366.5501316356315 504.5079475611367 # Ar
1034 1034 1 0.0 141.6425761227197 497.21792785798266 224.77843152718916 # Ar
1035 1035 1 0.0 972.202110161262 803.3235863796277 746.1112670710072 # Ar
1036 1036 1 0.0 648.0313089216652 551.9987686229196 1199.8090022242395 # Ar
1037 1037 1 0.0 431.8374696276648 740.1327470609835 600.2761341847216 # Ar
1038 1038 1 0.0 336.43031035448433 679.8375251348446 719.7420770359263 # Ar
1039 1039 1 0.0 652.5805297960776 62.86140710222651 535.3287849798838 # Ar
1040 1040 1 0.0 630.9879414230116 215.95942688884824 544.6205172861684 # Ar
1041 1041 1 0.0 548.4567393711815 578.5861194957081 888.617179713765 # Ar
1042 1042 1 0.0 1175.3195069169228 424.00374177059496 15.889595067614 # Ar
1043 1043 1 0.0 225.69027857240067 335.8135373201525 26.27524115870142 # Ar
1044 1044 1 0.0 1227.6742650035549 41.365388985096885 594.5474427399264 # Ar
1045 1045 1 0.0 834.0010821073781 868.8037304370125 167.35476697388435 # Ar
1046 1046 1 0.0 1176.1852730825174 496.3134541342269 624.4601301654403 # Ar
1047 1047 1 0.0 325.2652399943948 674.0796755678999 917.9711819143382 # Ar
1048 1048 1 0.0 870.9465088749015 1052.711027895244 905.5183616168042 # Ar
1049 1049 1 0.0 596.3650658205024 1008.0895040076584 195.07162851274273 # Ar
1050 1050 1 0.0 143.26692024094402 1186.0611959253151 1144.3065951961082 # Ar
1051 1051 1 0.0 468.53287192426995 147.55851677564567 615.1038746969215 # Ar
1052 1052 1 0.0 1206.3635487969489 39.23575958903163 472.4410543000163 # Ar
1053 1053 1 0.0 564.3465712317683 1088.632588141626 269.80244367013177 # Ar
1054 1054 1 0.0 909.122302733984 983.8766294611634 556.0945671152967 # Ar
1055 1055 1 0.0 939.8923422731339 759.3334187724702 857.8339275800334 # Ar
1056 1056 1 0.0 85.53295032130701 517.185868410523 1062.7041256245707 # Ar
1057 1057 1 0.0 753.2024614475815 1232.6724664464004 171.76334245573824 # Ar
1058 1058 1 0.0 1010.2424453643582 677.0920198083197 78.2858110250008 # Ar
1059 1059 1 0.0 220.21507278771372 488.7329799594743 158.54325584360186 # Ar
1060 1060 1 0.0 1026.5426284217417 244.10433307927664 312.03245546068365 # Ar
1061 1061 1 0.0 801.090279293263 265.4331815835623 83.15696845778427 # Ar
1062 1062 1 0.0 135.63182993779984 1078.9821345697903 28.706593648151948 # Ar
1063 1063 1 0.0 530.049751232209 938.3992679715393 578.9599825308082 # Ar
1064 1064 1 0.0 245.87872747963894 452.0568445564812 1034.256499914376 # Ar
1065 1065 1 0.0 1076.6150305518654 585.0394757141197 235.30450474750901 # Ar
1066 1066 1 0.0 982.0601860382376 592.0890935342637 87.49630794738766 # Ar
1067 1067 1 0.0 227.64147112359836 349.0762625986579 501.4545361181605 # Ar
1068 1068 1 0.0 371.28138771825894 679.7273837336518 1004.9610991201099 # Ar
1069 1069 1 0.0 853.7462495202282 345.11238490466764 77.04654870491689 # Ar
1070 1070 1 0.0 985.1105634147405 162.2365640365023 500.00938636810275 # Ar
1071 1071 1 0.0 407.7088891179625 222.8410877245726 765.3094858966601 # Ar
1072 1072 1 0.0 624.9266867030924 23.135257197927018 1223.3203013223913 # Ar
1073 1073 1 0.0 174.30424481619514 418.06512688420827 917.8337967266028 # Ar
1074 1074 1 0.0 1072.1691680149415 883.6310527266043 866.9074549196359 # Ar
1075 1075 1 0.0 810.5404324829472 1060.7108219956888 926.6425177714906 # Ar
1076 1076 1 0.0 395.62384578030117 1198.3694584029693 971.2810408152341 # Ar
1077 1077 1 0.0 937.4787353844088 119.84618228631444 1123.5364430970606 # Ar
1078 1078 1 0.0 72.0807737694101 407.0351583929524 373.6330012528754 # Ar
1079 1079 1 0.0 918.5791389908082 148.6610906473676 1150.3080017501675 # Ar
1080 1080 1 0.0 54.886259448976574 266.9913909678901 691.5348696299936 # Ar
1081 1081 1 0.0 183.19597957915585 479.30171944716363 563.949193528355 # Ar
1082 1082 1 0.0 146.18052470224364 517.660095476151 1208.7018771471185 # Ar
1083 1083 1 0.0 868.0192712046551 654.1123025366775 1205.3248247575375 # Ar
1084 1084 1 0.0 393.4850490757474 1223.639411564342 491.26871382419057 # Ar
1085 1085 1 0.0 1137.178659819673 862.7054320343398 293.2274550110357 # Ar
1086 1086 1 0.0 435.1413170518579 677.28610677234 458.05213492486007 # Ar
1087 1087 1 0.0 556.7481541536233 1086.2983297783405 561.8483034363238 # Ar
1088 1088 1 0.0 757.3273458310118 16.877943173191223 459.78459865356865 # Ar
1089 1089 1 0.0 554.6634457668316 28.350559876054714 155.22511041924977 # Ar
1090 1090 1 0.0 722.8573642919588 757.3060683171709 1220.5538807922778 # Ar
1091 1091 1 0.0 428.0423536768176 415.9002384109845 400.3060975718126 # Ar
1092 1092 1 0.0 1006.9964345792927 941.4407735147989 145.36705976533773 # Ar
1093 1093 1 0.0 508.42989351453997 1220.191261496289 712.5844686258379 # Ar
1094 1094 1 0.0 255.754645335575 678.9953873173795 198.80188106926167 # Ar
1095 1095 1 0.0 1183.7119115750847 679.1927931214492 576.542841183822 # Ar
1096 1096 1 0.0 188.33418690665664 251.6850057827577 612.5712891410791 # Ar
1097 1097 1 0.0 387.47690933592423 79.68157211110362 1055.3918668267775 # Ar
1098 1098 1 0.0 774.604719223622 1071.7785428394782 762.5956430560923 # Ar
1099 1099 1 0.0 50.762959763643394 1020.3111172032375 1025.3837132005667 # Ar
1100 1100 1 0.0 374.6610575315973 374.3340700398786 753.8613448136572 # Ar
1101 1101 1 0.0 884.2905172925788 1238.9993454128205 989.4939735514188 # Ar
1102 1102 1 0.0 1207.9924228388675 38.62459068584903 1010.5220461780274 # Ar
1103 1103 1 0.0 343.4324381977066 441.6471411906509 238.32172345650713 # Ar
1104 1104 1 0.0 251.09817637130857 1136.5559936219597 869.1262167930173 # Ar
1105 1105 1 0.0 248.11379343253287 748.626677188501 34.6963951920209 # Ar
1106 1106 1 0.0 668.1778643256999 1034.1669168903788 841.8514958780116 # Ar
1107 1107 1 0.0 747.3370640402983 631.4021778515597 1081.5898337581614 # Ar
1108 1108 1 0.0 318.3233940702159 82.91323812593572 139.12084494427702 # Ar
1109 1109 1 0.0 713.2785818847943 554.5210701279651 956.4020249266166 # Ar
1110 1110 1 0.0 464.2617319511764 327.2115018495029 936.7870994585152 # Ar
1111 1111 1 0.0 1208.6415310698399 699.0700456037298 528.3613709071127 # Ar
1112 1112 1 0.0 137.35883032375406 416.862810084541 528.3006076706876 # Ar
1113 1113 1 0.0 804.7845611512263 240.6874520212755 446.6824650010956 # Ar
1114 1114 1 0.0 850.4150746677282 372.9837919119276 700.540706645983 # Ar
1115 1115 1 0.0 1123.8549089828302 37.57618342405646 726.4708388031381 # Ar
1116 1116 1 0.0 725.928806652802 693.247704847427 1227.4121553170937 # Ar
1117 1117 1 0.0 644.1763712328235 757.0297915103779 511.5926012750561 # Ar
1118 1118 1 0.0 93.06270170776888 606.5696186649742 592.1155745125361 # Ar
1119 1119 1 0.0 761.3153223765006 884.740733354299 850.9479219488865 # Ar
1120 1120 1 0.0 141.1313783634018 865.5089526893046 129.15748758939205 # Ar
1121 1121 1 0.0 436.5240494172148 82.45193963048233 720.629585601796 # Ar
1122 1122 1 0.0 198.33328585793078 699.4713844038857 419.2916364944489 # Ar
1123 1123 1 0.0 317.8728329111185 803.5922541523927 527.8692381126273 # Ar
1124 1124 1 0.0 1109.0739877154738 803.5361439492043 40.94008184165393 # Ar
1125 1125 1 0.0 1110.0027849526184 1134.4041758324913 253.33559465392196 # Ar
1126 1126 1 0.0 704.0802501530353 1123.2772502798591 146.0878437097866 # Ar
1127 1127 1 0.0 183.35290226733784 61.23539400769039 111.80344957008975 # Ar
1128 1128 1 0.0 388.8946801459906 139.73891816103006 1001.2044937927988 # Ar
1129 1129 1 0.0 882.3335567042269 743.5479839852095 306.21439171430984 # Ar
1130 1130 1 0.0 1111.7448087708456 249.31258916534222 1215.1662460321822 # Ar
1131 1131 1 0.0 772.3141393319247 853.0534841010726 964.4351455926761 # Ar
1132 1132 1 0.0 198.46688049918407 1238.2751010754212 1043.5904740182239 # Ar
1133 1133 1 0.0 140.89589592711914 1116.8133706091694 1109.60719093371 # Ar
1134 1134 1 0.0 284.81484102384604 608.62065527557 336.8914797119157 # Ar
1135 1135 1 0.0 775.9261227802749 379.8956896999555 383.84410718274637 # Ar
1136 1136 1 0.0 100.82437237358688 361.2647148800465 843.7123152168873 # Ar
1137 1137 1 0.0 55.504509773646966 342.832054908523 432.679748700313 # Ar
1138 1138 1 0.0 760.8422490694117 872.7917090669408 1127.034133202193 # Ar
1139 1139 1 0.0 123.24372933538018 261.77608860758147 384.0887782848323 # Ar
1140 1140 1 0.0 91.20690658557034 165.36617213560805 208.36485875582568 # Ar
1141 1141 1 0.0 517.4315444667542 506.73978646788584 826.2812796533408 # Ar
1142 1142 1 0.0 62.03771384453051 305.2429806167398 555.6946686579458 # Ar
1143 1143 1 0.0 8.999252531488835 418.26324519598273 658.3443214667046 # Ar
1144 1144 1 0.0 1109.9396687972078 897.7121413075124 639.8786720078759 # Ar
1145 1145 1 0.0 116.83111136751553 602.1982010869377 1189.3153286867773 # Ar
1146 1146 1 0.0 818.7317459211384 783.3374744117828 827.3801760889538 # Ar
1147 1147 1 0.0 628.2766216248799 252.2081526250875 106.77957817835235 # Ar
1148 1148 1 0.0 573.6610281159873 77.2251607897425 420.22558082501524 # Ar
1149 1149 1 0.0 302.17810458093834 171.64098997219958 387.4766405752576 # Ar
1150 1150 1 0.0 294.6400533612013 616.0768948128953 747.9420937881699 # Ar
1151 1151 1 0.0 884.8417884432934 45.93275741663562 642.2252683015499 # Ar
1152 1152 1 0.0 830.1266825283152 441.3504026040818 484.7364978677255 # Ar
1153 1153 1 0.0 1107.8932252318518 155.44870284778744 579.7943036657977 # Ar
1154 1154 1 0.0 523.1865483470551 780.2384923275041 845.3693608431867 # Ar
1155 1155 1 0.0 300.5547062963382 731.7765707409284 61.22568195210238 # Ar
1156 1156 1 0.0 351.75609645629635 1201.464014680005 841.7752683435406 # Ar
1157 1157 1 0.0 338.43977979163566 647.3032270230947 1024.6517354284479 # Ar
1158 1158 1 0.0 906.4534636613992 348.90658910852085 402.7467389764192 # Ar
1159 1159 1 0.0 728.567551702987 1019.3879235258029 173.02045818037246 # Ar
1160 1160 1 0.0 1222.0248404013232 985.0749067117724 706.5985458211545 # Ar
1161 1161 1 0.0 657.665501188995 343.04700633158393 1083.936756155699 # Ar
1162 1162 1 0.0 1051.2195507499707 174.90056399654313 524.3579349907011 # Ar
1163 1163 1 0.0 222.10195973599963 1026.8889396804916 897.1776628001868 # Ar
1164 1164 1 0.0 144.03614506683527 911.1823478786843 582.3961855833472 # Ar
1165 1165 1 0.0 886.585211860877 1069.565204468665 279.4725537815295 # Ar
1166 1166 1 0.0 1069.0076462125628 91.74568277353673 1087.751571334354 # Ar
1167 1167 1 0.0 783.7363684650561 986.7253468394262 281.77823576139144 # Ar
1168 1168 1 0.0 563.6060717999018 1109.77537082646 751.4702896571788 # Ar
1169 1169 1 0.0 178.28065891110631 306.61335449020044 240.87873971329495 # Ar
1170 1170 1 0.0 32.76075144159458 447.50476842087886 601.1133173574832 # Ar
1171 1171 1 0.0 1114.6836033121635 1003.9725998262111 1144.4893305913495 # Ar
1172 1172 1 0.0 154.76507997486797 193.2404578823086 591.7400385290631 # Ar
1173 1173 1 0.0 506.5967241483461 1217.4081886401812 406.5376554841282 # Ar
1174 1174 1 0.0 652.3833506109626 292.47118538363884 878.9739367387916 # Ar
1175 1175 1 0.0 266.4812530283427 966.054191450583 172.4145196180218 # Ar
1176 1176 1 0.0 1029.9694483541937 346.31111699896786 509.31054044877163 # Ar
1177 1177 1 0.0 310.42116217777044 1098.6137192250922 448.0621608595849 # Ar
1178 1178 1 0.0 788.4053578473679 833.4464160354711 43.10495739908289 # Ar
1179 1179 1 0.0 871.3102893797756 533.9301549457408 560.7187230406888 # Ar
1180 1180 1 0.0 150.3840407759912 64.05907310621936 554.5262850364212 # Ar
1181 1181 1 0.0 126.22167850366726 626.323113502017 1239.7898254619886 # Ar
1182 1182 1 0.0 895.7976766648758 219.52701233394046 520.8024280334581 # Ar
1183 1183 1 0.0 782.5509563307307 622.6061025439398 767.5214292791283 # Ar
1184 1184 1 0.0 537.1776761519875 907.7479895959292 431.7176876135865 # Ar
1185 1185 1 0.0 1211.2595925949915 818.0495275991358 612.0705355940851 # Ar
1186 1186 1 0.0 341.2220601084784 532.020205160252 257.54166714259384 # Ar
1187 1187 1 0.0 470.26861643783883 1232.5404668556046 1059.5606241328278 # Ar
1188 1188 1 0.0 410.72142498984743 754.6518529179958 289.7233839203873 # Ar
1189 1189 1 0.0 29.2769648613481 190.05187858218346 549.0615585279265 # Ar
1190 1190 1 0.0 91.4856839563215 78.68234497386806 1166.5860663397905 # Ar
1191 1191 1 0.0 871.8829267823103 955.7523743347878 571.1075732914799 # Ar
1192 1192 1 0.0 764.8889093497123 126.37714925644569 1015.0770348354877 # Ar
1193 1193 1 0.0 963.2208927095681 1144.658459201032 595.9620856668217 # Ar
1194 1194 1 0.0 529.295542624143 1205.712778299981 567.7626773915358 # Ar
1195 1195 1 0.0 675.5370783691852 817.9038604586428 959.6107938280584 # Ar
1196 1196 1 0.0 118.28789263051733 125.0906490394646 189.3757352850291 # Ar
1197 1197 1 0.0 804.0134268890095 897.6094613012749 1131.7886320355385 # Ar
1198 1198 1 0.0 961.7857720760214 296.67460089086586 951.7570082818162 # Ar
1199 1199 1 0.0 1066.2461537096478 37.21909063599973 525.5357389916461 # Ar
1200 1200 1 0.0 307.4703419802951 291.45385777327454 420.02562686553836 # Ar
1201 1201 1 0.0 291.4575195697609 1133.5618623873677 949.8599918642152 # Ar
1202 1202 1 0.0 1075.6413178664618 782.7297467754984 356.12655184452944 # Ar
1203 1203 1 0.0 230.16815908779327 345.80966661708686 930.1365470246284 # Ar
1204 1204 1 0.0 86.15694956251933 700.111488223344 1066.6761086465506 # Ar
1205 1205 1 0.0 239.17976257748677 56.31536820972538 284.78715047691685 # Ar
1206 1206 1 0.0 184.6163914643926 370.88967771233365 583.0526656287651 # Ar
1207 1207 1 0.0 792.9087096588419 519.7567357020672 681.5255622437671 # Ar
1208 1208 1 0.0 127.67611237620483 342.59364535855036 815.8006098074188 # Ar
1209 1209 1 0.0 128.55727535835615 234.06341972693866 415.78561861316894 # Ar
1210 1210 1 0.0 779.0406993669451 301.0073452497782 1166.1479581738147 # Ar
1211 1211 1 0.0 960.6745511604914 802.9861236313775 191.17464152226756 # Ar
1212 1212 1 0.0 965.9128682603322 1150.586275293044 842.9343610176187 # Ar
1213 1213 1 0.0 1042.282260851705 858.6900971419622 901.427777610623 # Ar
1214 1214 1 0.0 164.70360784189953 375.206262920166 655.6773544235241 # Ar
1215 1215 1 0.0 367.4229610043157 1047.0803058466668 146.6400650532333 # Ar
1216 1216 1 0.0 1071.8157049663141 835.6723630402149 568.8174684238808 # Ar
1217 1217 1 0.0 783.7892814717685 403.0792471837884 313.4417264499175 # Ar
1218 1218 1 0.0 1191.2450869958598 286.0270715449583 15.913114643272111 # Ar
1219 1219 1 0.0 1053.4102965316051 724.0392485074208 104.88178990223493 # Ar
1220 1220 1 0.0 525.7883135885098 164.1270025287148 156.9015894880776 # Ar
1221 1221 1 0.0 301.321667500436 210.00364981066147 789.6915785277406 # Ar
1222 1222 1 0.0 1191.1607193516347 117.54673179154838 312.76293681941127 # Ar
1223 1223 1 0.0 457.4676705406598 333.9218175081203 78.18150056676721 # Ar
1224 1224 1 0.0 951.654632668685 738.4820963566062 531.3187639706273 # Ar
1225 1225 1 0.0 292.4670150429303 216.3307170028 924.8357494864094 # Ar
1226 1226 1 0.0 51.75255720097806 259.06039328480165 781.2985501880285 # Ar
1227 1227 1 0.0 288.87161053726186 169.4242548968073 1008.5059375772327 # Ar
1228 1228 1 0.0 208.04646751052078 969.6729532983946 1150.978901277535 # Ar
1229 1229 1 0.0 728.6266815290303 411.829699785076 868.6695220113439 # Ar
1230 1230 1 0.0 351.83588880867035 1232.5501804720534 1194.2234039786838 # Ar
1231 1231 1 0.0 805.114559605891 940.7405471775783 1128.8267386596867 # Ar
1232 1232 1 0.0 664.0450705210393 1240.1410827156894 9.331711579460805 # Ar
1233 1233 1 0.0 293.8384096350646 926.2149546555346 212.29283334731522 # Ar
1234 1234 1 0.0 24.637955932481013 492.50992002884715 522.6963115136593 # Ar
1235 1235 1 0.0 563.9182547822797 749.4502430232485 1116.8997042476412 # Ar
1236 1236 1 0.0 712.282813086936 1102.4797256802462 59.90881796534151 # Ar
1237 1237 1 0.0 507.20771221974314 116.07825173180932 5.353318304919879 # Ar
1238 1238 1 0.0 140.1433019872408 882.749431311281 24.898484925376433 # Ar
1239 1239 1 0.0 1071.5128266127667 103.02064247794081 208.4317822746789 # Ar
1240 1240 1 0.0 727.7974899244937 721.8453474530218 676.0919902573298 # Ar
1241 1241 1 0.0 233.74665797539308 131.72931618693323 1102.5003187261188 # Ar
1242 1242 1 0.0 1023.521005828105 338.39117552910824 1029.1548428352917 # Ar
1243 1243 1 0.0 618.1785176795596 971.4699926992363 549.1233155583033 # Ar
1244 1244 1 0.0 266.6949704971871 304.0206329441006 1233.5568505472993 # Ar
1245 1245 1 0.0 64.36956709144937 1162.9616096509935 1117.9583840899252 # Ar
1246 1246 1 0.0 413.89592655853573 23.18401447510841 1004.8780392845412 # Ar
1247 1247 1 0.0 364.39001119800065 1148.8501556185522 620.0684594660735 # Ar
1248 1248 1 0.0 1125.2837256653634 278.2714622978631 256.02685263110635 # Ar
1249 1249 1 0.0 753.8768331819737 1043.9121452158608 1234.8640823975343 # Ar
1250 1250 1 0.0 1005.7734800513862 196.66159779607116 451.30126966626153 # Ar
1251 1251 1 0.0 336.1542107557967 1117.1574711724518 37.70840557273745 # Ar
1252 1252 1 0.0 143.14785393189163 934.4949598589624 744.8121530353056 # Ar
1253 1253 1 0.0 959.2075612474803 603.237320630767 952.1475271907974 # Ar
1254 1254 1 0.0 132.54105438947235 61.30393270247662 519.5940576255416 # Ar
1255 1255 1 0.0 303.7181820851163 1077.771100591771 25.53518401804529 # Ar
1256 1256 1 0.0 216.1791290556472 152.94781775817498 1210.535044329031 # Ar
1257 1257 1 0.0 809.7289223026198 324.76741935134777 978.7785686891101 # Ar
1258 1258 1 0.0 251.7314467634386 978.4632385532693 170.6583973561899 # Ar
1259 1259 1 0.0 166.093711869381 783.9012632021473 424.06345849707577 # Ar
1260 1260 1 0.0 716.6445675917818 888.9737311840287 100.74004312686786 # Ar
1261 1261 1 0.0 332.3245323645465 144.98948127663428 914.4242298560264 # Ar
1262 1262 1 0.0 1239.3927532635 569.620399459726 808.9049849991322 # Ar
1263 1263 1 0.0 696.6663244482111 1106.7454212246755 1132.282648551059 # Ar
1264 1264 1 0.0 1161.79816908358 921.3196954404799 470.76733511645045 # Ar
1265 1265 1 0.0 964.9038292463792 884.7945029570415 278.55783181027573 # Ar
1266 1266 1 0.0 973.3908005238035 390.1908672082347 843.3061166676615 # Ar
1267 1267 1 0.0 647.7908770880188 1088.1618309190974 143.69459897537388 # Ar
1268 1268 1 0.0 1079.9870326874454 667.948273680866 62.09410357048698 # Ar
1269 1269 1 0.0 985.2265356925154 528.857048944201 384.1320132321366 # Ar
1270 1270 1 0.0 802.9552802705193 42.05018607878577 723.3681809330842 # Ar
1271 1271 1 0.0 52.01540667906155 424.0883654728272 672.1653999194307 # Ar
1272 1272 1 0.0 255.63617211261612 763.6433177996734 901.2641628840335 # Ar
1273 1273 1 0.0 321.76292624682907 698.7748105476146 127.75924248483969 # Ar
1274 1274 1 0.0 651.4218026774232 1112.9894958665125 316.45158640628716 # Ar
1275 1275 1 0.0 637.7550107773964 389.6936574084939 302.61138184908737 # Ar
1276 1276 1 0.0 554.0969265153021 976.9851697210062 286.27425282143395 # Ar
1277 1277 1 0.0 527.2871893890581 1180.5889473979003 446.372637181812 # Ar
1278 1278 1 0.0 1001.5764618895664 86.8461105958562 1030.0172763647734 # Ar
1279 1279 1 0.0 1124.0403480004688 33.576866522235385 585.4091141741918 # Ar
1280 1280 1 0.0 185.37217809867911 948.4133541881716 416.28942689543413 # Ar
1281 1281 1 0.0 758.6033535584405 81.23441563061225 284.64782636622806 # Ar
1282 1282 1 0.0 98.12577312975077 784.0355220219709 891.3768244587785 # Ar
1283 1283 1 0.0 418.7627348486892 177.61264061720453 227.55039720754064 # Ar
1284 1284 1 0.0 1028.3878579245682 351.4423196702835 216.86632524782712 # Ar
1285 1285 1 0.0 501.4079522438334 585.4119616805161 224.9919717793648 # Ar
1286 1286 1 0.0 1163.7547064797773 1114.0431506254708 676.4364724811561 # Ar
1287 1287 1 0.0 1114.7660674748458 278.4179480207278 368.1279251881421 # Ar
1288 1288 1 0.0 934.3579599517167 354.0048620286808 1094.645999648612 # Ar
1289 1289 1 0.0 839.141367027066 1013.6816140913011 685.0677084654468 # Ar
1290 1290 1 0.0 1133.7074878524984 157.0601150027059 671.0919005690022 # Ar
1291 1291 1 0.0 1036.5607828205316 477.4886528962505 409.06546131752594 # Ar
1292 1292 1 0.0 388.6293221617933 270.59689170203694 1211.9911155114785 # Ar
1293 1293 1 0.0 236.7894524670415 1235.8231318886342 1031.5128122101453 # Ar
1294 1294 1 0.0 301.725317336897 446.87806763617 591.2978160254345 # Ar
1295 1295 1 0.0 659.9966153979798 60.811298359412795 734.3380950647918 # Ar
1296 1296 1 0.0 904.0966462644197 655.4623912813171 426.39995766781954 # Ar
1297 1297 1 0.0 35.39433084907538 683.3640595892565 461.62460802613776 # Ar
1298 1298 1 0.0 290.9553789134303 350.7700791462423 1163.2479300416635 # Ar
1299 1299 1 0.0 586.645574923581 1122.7460358041792 462.01397016763025 # Ar
1300 1300 1 0.0 198.1653947221829 135.27026970974842 288.89436314884364 # Ar
1301 1301 1 0.0 1149.9400224342319 738.4340374960917 606.1261219989093 # Ar
1302 1302 1 0.0 585.6793810088723 42.4975101216337 1140.233308318936 # Ar
1303 1303 1 0.0 533.0202278433343 724.7488477811944 725.3634446948338 # Ar
1304 1304 1 0.0 709.1446638957232 276.7879608936599 1220.7948930081402 # Ar
1305 1305 1 0.0 1206.6820973205492 664.7117726159871 268.9919361607848 # Ar
1306 1306 1 0.0 273.4164490945689 1043.5458971126375 793.2141433517614 # Ar
1307 1307 1 0.0 1087.8930310797332 553.4930552099503 1023.5038729138105 # Ar
1308 1308 1 0.0 624.5575496286464 65.20583550899558 1207.924918681236 # Ar
1309 1309 1 0.0 247.3131968479297 581.6942387587786 852.0117703540926 # Ar
1310 1310 1 0.0 820.3636878939557 774.6605019014833 706.7569170858078 # Ar
1311 1311 1 0.0 366.74652126590394 384.22698052115476 1032.2464252582486 # Ar
1312 1312 1 0.0 1165.9998404984274 844.7919322027775 692.1987089572463 # Ar
1313 1313 1 0.0 19.36649178307268 330.45809379412634 924.2883314510982 # Ar
1314 1314 1 0.0 697.1355013951845 602.0205406431402 38.148124785473954 # Ar
1315 1315 1 0.0 648.2181377474972 66.7351557580085 1144.7904359359497 # Ar
1316 1316 1 0.0 272.03793985493013 25.858335741425616 118.3558850958496 # Ar
1317 1317 1 0.0 242.6163896860669 147.17046293074827 246.00823969934555 # Ar
1318 1318 1 0.0 442.9446695491183 587.914307468092 796.053679234813 # Ar
1319 1319 1 0.0 899.5065571316829 828.3738764124508 616.2079958658938 # Ar
1320 1320 1 0.0 1174.1816470600047 779.1597538261641 1164.2186076232827 # Ar
1321 1321 1 0.0 373.303673491504 714.0317232671348 113.72692270451124 # Ar
1322 1322 1 0.0 608.3915920883661 650.9526999905586 618.9925202365285 # Ar
1323 1323 1 0.0 252.9253449630247 644.6300362939161 891.4490333949869 # Ar
1324 1324 1 0.0 623.9187521468162 330.86338695820376 1085.1518061086656 # Ar
1325 1325 1 0.0 105.74399647531236 828.2323466372058 665.9865114487683 # Ar
1326 1326 1 0.0 69.31814489956565 863.2164144202151 70.64441168348718 # Ar
1327 1327 1 0.0 111.66534797858095 209.17046071630924 216.96088658101039 # Ar
1328 1328 1 0.0 1090.9650840453173 989.2111151971884 893.3280351976675 # Ar
1329 1329 1 0.0 171.08620343423175 1204.9638097539937 170.73577623963405 # Ar
1330 1330 1 0.0 635.0196986046905 501.12519003015774 177.02914298056277 # Ar
1331 1331 1 0.0 273.97836942790263 371.5009909268864 517.9840478458311 # Ar
1332 1332 1 0.0 1026.1593874686466 875.8167630171022 340.6749331293795 # Ar
1333 1333 1 0.0 1205.2594741284581 977.9768301142063 1108.6144079031237 # Ar
1334 1334 1 0.0 1132.6163249776964 680.7365539346061 398.89729732618997 # Ar
1335 1335 1 0.0 535.1817170823515 958.200119307209 813.4801405142929 # Ar
1336 1336 1 0.0 625.4342308933558 929.2620473322378 23.677833144085234 # Ar
1337 1337 1 0.0 555.6230265243372 1042.3958141816568 984.8172629492171 # Ar
1338 1338 1 0.0 775.1458697677095 336.28006494453393 953.5831454383122 # Ar
1339 1339 1 0.0 1007.8285114371278 733.3776958972946 126.14818208266847 # Ar
1340 1340 1 0.0 643.2391378608731 524.7559540560832 1119.1820881617068 # Ar
1341 1341 1 0.0 403.19699501640065 682.5791175761134 280.8507952352414 # Ar
1342 1342 1 0.0 323.7315297744061 530.9783675417883 348.3356490939562 # Ar
1343 1343 1 0.0 843.828618062686 859.0678264066523 256.7304284289895 # Ar
1344 1344 1 0.0 1177.3333504354534 785.2420272418714 309.1676426701061 # Ar
1345 1345 1 0.0 551.4639435882468 421.3916224509981 555.8772839902538 # Ar
1346 1346 1 0.0 220.33130775743186 112.10454788856715 553.0043035210349 # Ar
1347 1347 1 0.0 541.5020010491265 244.91673757616337 280.37780419241244 # Ar
1348 1348 1 0.0 1204.2009122480865 806.1162577028622 669.2272743429717 # Ar
1349 1349 1 0.0 680.3657885990506 5.784263875378714 274.9500787073552 # Ar
1350 1350 1 0.0 164.4042205173057 211.90538669984346 773.7552495812699 # Ar
1351 1351 1 0.0 924.8714077064006 413.75789710939006 792.3771438085422 # Ar
1352 1352 1 0.0 76.29399892738991 253.43066446697546 924.4411079931144 # Ar
1353 1353 1 0.0 240.64576962256004 502.03289955440624 1099.0846780527888 # Ar
1354 1354 1 0.0 209.73129950076128 70.15137737513582 935.410292750848 # Ar
1355 1355 1 0.0 307.679890489356 592.7410179618611 50.4347805540592 # Ar
1356 1356 1 0.0 584.1820518284159 1191.3255654667814 334.8316573312531 # Ar
1357 1357 1 0.0 720.6323771632243 527.4591852029909 950.5738464912375 # Ar
1358 1358 1 0.0 737.3404810284584 552.8419011873253 176.8356963311362 # Ar
1359 1359 1 0.0 892.9262826833725 74.91560545786002 290.9673577352224 # Ar
1360 1360 1 0.0 466.86892909177425 309.92439401529373 245.2806620092468 # Ar
1361 1361 1 0.0 417.75742980441913 836.4236507901086 1124.3828377956738 # Ar
1362 1362 1 0.0 143.4796656018312 969.506389702031 1006.9875287052394 # Ar
1363 1363 1 0.0 1063.1664344766464 401.14591121850987 729.0606331436915 # Ar
1364 1364 1 0.0 300.60154513541545 74.24418737567461 614.5121371397789 # Ar
1365 1365 1 0.0 116.00734694626534 1197.098425574132 687.0670866122612 # Ar
1366 1366 1 0.0 439.56571987208036 1021.9279979865704 1012.4911523287789 # Ar
1367 1367 1 0.0 75.621136827865 842.0276000678693 241.1461994674933 # Ar
1368 1368 1 0.0 744.3133634623495 156.15934017618872 313.27261543863403 # Ar
1369 1369 1 0.0 706.3081979770769 312.5123386932699 1192.3605842819952 # Ar
1370 1370 1 0.0 928.4302004099463 584.3479513479181 751.1914916046286 # Ar
1371 1371 1 0.0 202.50176686897962 197.77334811978952 237.04815715864913 # Ar
1372 1372 1 0.0 986.1205145576405 720.1157076879177 1121.9271232736871 # Ar
1373 1373 1 0.0 1046.3413889790154 765.2129245154938 494.0292175192785 # Ar
1374 1374 1 0.0 669.8248251362136 541.1246033906301 885.751091184666 # Ar
1375 1375 1 0.0 930.3349326780454 17.47786942807828 1.3873302979822384 # Ar
1376 1376 1 0.0 1206.7526215822722 921.7550628429874 480.2070288939855 # Ar
1377 1377 1 0.0 989.4350439983 530.5071011735838 1025.6522787941813 # Ar
1378 1378 1 0.0 1084.0798532278905 24.136795599534835 326.4636130961584 # Ar
1379 1379 1 0.0 582.776907746243 295.8802127624566 507.86350398633255 # Ar
1380 1380 1 0.0 748.2442613204855 221.8406236286862 620.6757649443338 # Ar
1381 1381 1 0.0 116.114179716674 401.5557580036093 159.62381296506368 # Ar
1382 1382 1 0.0 190.71950920030056 779.6333256232767 746.0790613924444 # Ar
1383 1383 1 0.0 308.33535050617076 262.589105305592 795.7776650288347 # Ar
1384 1384 1 0.0 1094.306929241248 801.5279131259562 777.8372732868734 # Ar
1385 1385 1 0.0 74.69895408985363 1181.1208071536664 216.37098790929272 # Ar
1386 1386 1 0.0 853.5445175126786 794.0902674610086 579.8936438732143 # Ar
1387 1387 1 0.0 475.634988981245 187.30846668186837 982.7189921424551 # Ar
1388 1388 1 0.0 212.01043030244335 332.6631742978849 460.2835183899649 # Ar
1389 1389 1 0.0 1039.472448863625 280.9757862502806 932.1018157588411 # Ar
1390 1390 1 0.0 674.356158517349 294.67453591821055 1130.7925630011614 # Ar
1391 1391 1 0.0 1158.620726810749 325.05434759991823 563.2451992627098 # Ar
1392 1392 1 0.0 35.81300619428716 1226.3176766719962 524.7428362175827 # Ar
1393 1393 1 0.0 1054.1856816480615 833.9867262509662 135.2205857644649 # Ar
1394 1394 1 0.0 206.06979981980305 134.24277060465428 971.7019465115027 # Ar
1395 1395 1 0.0 210.33867416311134 590.9215791958851 165.23724241477078 # Ar
1396 1396 1 0.0 155.52067557575543 491.67032123189847 666.8386811952992 # Ar
1397 1397 1 0.0 133.88573117385582 911.3688802869851 971.8716110924404 # Ar
1398 1398 1 0.0 882.110523036117 404.71818262846716 875.7712763441456 # Ar
1399 1399 1 0.0 180.6422851837984 410.6204499134448 36.942631913182204 # Ar
1400 1400 1 0.0 494.3875138361914 376.40478206676823 1131.4769070876448 # Ar
1401 1401 1 0.0 525.2337177740853 606.8089825119715 736.9400338282179 # Ar
1402 1402 1 0.0 285.3040705484656 721.8129966902119 962.3584895389276 # Ar
1403 1403 1 0.0 485.2481120501845 1222.3212485330707 60.07143538524968 # Ar
1404 1404 1 0.0 574.8294223649588 657.8837594061848 188.49854952791182 # Ar
1405 1405 1 0.0 465.6355553306472 733.0346013791088 364.5639093064064 # Ar
1406 1406 1 0.0 579.119077587567 1060.1173593437572 1015.3735003645381 # Ar
1407 1407 1 0.0 565.5144823259409 1083.9591875118267 81.8991405404791 # Ar
1408 1408 1 0.0 754.6085325079047 232.15355846095633 1184.1497964668076 # Ar
1409 1409 1 0.0 1071.4115183272017 641.0220011025192 1232.980859599812 # Ar
1410 1410 1 0.0 739.7479378765671 277.4500308761401 572.0760051844735 # Ar
1411 1411 1 0.0 868.6821028812684 1002.2370880398571 1116.6167513148307 # Ar
1412 1412 1 0.0 887.3716872505644 828.7856874288611 822.886633155712 # Ar
1413 1413 1 0.0 850.7812801777245 820.3928674152712 487.2779199373695 # Ar
1414 1414 1 0.0 330.25957468492476 451.1360975391446 182.26487752157777 # Ar
1415 1415 1 0.0 106.561339241917 278.634899008555 1229.0877578569552 # Ar
1416 1416 1 0.0 499.7235748518962 1090.5329497156813 741.9222253669035 # Ar
1417 1417 1 0.0 583.6183061872629 864.21652803264 1106.576981577844 # Ar
1418 1418 1 0.0 799.2700356003005 1101.3724915733394 105.91783635836539 # Ar
1419 1419 1 0.0 1024.2125967463016 1.8763089624751284 661.1821546668376 # Ar
1420 1420 1 0.0 119.1794395163902 1207.600993690864 925.6088042748243 # Ar
1421 1421 1 0.0 291.79382227941113 9.153836142010988 361.70874759334674 # Ar
1422 1422 1 0.0 944.1824654884189 899.6764158837063 594.1719534248068 # Ar
1423 1423 1 0.0 688.507453604173 648.0058224952888 657.1993770108805 # Ar
1424 1424 1 0.0 576.3377282019886 564.4065161251118 586.3571344326278 # Ar
1425 1425 1 0.0 104.7618774450852 288.99903989520703 1209.6237456453864 # Ar
1426 1426 1 0.0 522.1766347567419 327.6648193883548 621.6277881647007 # Ar
1427 1427 1 0.0 429.737766809224 310.2295521390525 729.5303251630241 # Ar
1428 1428 1 0.0 300.6156979171679 621.2599682135162 709.4902267581382 # Ar
1429 1429 1 0.0 1079.8730655862078 966.7911218369608 345.3252764483262 # Ar
1430 1430 1 0.0 20.86714382473989 1173.600172400489 754.7470504280609 # Ar
1431 1431 1 0.0 169.21709697130277 238.29425638270834 311.95613139023027 # Ar
1432 1432 1 0.0 549.9951232298076 869.23028837697 955.7585047394697 # Ar
1433 1433 1 0.0 316.72790814893426 1005.0486977570839 942.975330282956 # Ar
1434 1434 1 0.0 398.0048259665183 566.1994318327893 941.5694955142587 # Ar
1435 1435 1 0.0 487.9616874706227 532.4298233293537 602.2514525925567 # Ar
1436 1436 1 0.0 267.86662646455954 434.9309022511695 365.3280777301873 # Ar
1437 1437 1 0.0 1224.7533008510034 156.78481241722204 651.6005501961391 # Ar
1438 1438 1 0.0 647.1769390121812 1161.6822600424227 660.7804684545642 # Ar
1439 1439 1 0.0 302.7557491140687 1166.6192883121537 10.097043218116863 # Ar
1440 1440 1 0.0 1063.080811332474 1215.9361359681257 361.8508110648178 # Ar
1441 1441 1 0.0 1102.1706639381391 135.68761879033772 1038.6848961696596 # Ar
1442 1442 1 0.0 468.22193714365267 83.11325227376147 506.3369927876984 # Ar
1443 1443 1 0.0 937.7346094253182 1005.4425083718555 562.9197960918608 # Ar
1444 1444 1 0.0 705.150545367738 1039.8646528301726 974.3800968491065 # Ar
1445 1445 1 0.0 584.3794035573497 139.39654226603324 50.5535119655872 # Ar
1446 1446 1 0.0 1091.1441232589366 98.6364382037666 317.72814282073983 # Ar
1447 1447 1 0.0 667.8565597152357 238.3110178018164 834.5457313511884 # Ar
1448 1448 1 0.0 888.4203952009149 1040.178724095023 413.61001904750765 # Ar
1449 1449 1 0.0 210.13201885511785 660.0430339927801 1224.6650259113878 # Ar
1450 1450 1 0.0 986.8456591817387 212.77104135740365 987.802414950426 # Ar
1451 1451 1 0.0 190.7176989435468 140.13867674196973 942.6093886850595 # Ar
1452 1452 1 0.0 1017.0065433608085 569.9763734931441 80.05882554415764 # Ar
1453 1453 1 0.0 1109.4550194840613 938.264707079199 995.6583091452285 # Ar
1454 1454 1 0.0 281.88525443757095 577.1487014388589 87.61172055740944 # Ar
1455 1455 1 0.0 155.6283071562254 967.5483106373129 153.99464470872465 # Ar
1456 1456 1 0.0 705.5241280835738 452.21035889115166 947.6070882734853 # Ar
1457 1457 1 0.0 72.47995419064684 592.1985992754708 478.10322702052054 # Ar
1458 1458 1 0.0 1134.252520980775 826.3075734529278 34.288731942919156 # Ar
1459 1459 1 0.0 1201.040017711397 2.090274772534564 56.78397499103882 # Ar
1460 1460 1 0.0 1208.946183307038 654.075840451621 1136.0700296496545 # Ar
1461 1461 1 0.0 64.91701322897639 878.0048354437727 474.224699724163 # Ar
1462 1462 1 0.0 1039.9719533350426 352.35687083168176 205.4110894745466 # Ar
1463 1463 1 0.0 1218.2295400626956 1175.0855756785793 855.8147390675745 # Ar
1464 1464 1 0.0 276.62425087305456 618.8166932172884 252.52997194983544 # Ar
1465 1465 1 0.0 509.0461274947822 167.7805388791371 131.7115930354153 # Ar
1466 1466 1 0.0 141.61594632493046 676.310780795473 360.07075917471656 # Ar
1467 1467 1 0.0 778.238643228385 131.7439082874395 117.19246948114242 # Ar
1468 1468 1 0.0 137.3819982652083 760.5635395051387 1172.5813822935215 # Ar
1469 1469 1 0.0 875.6563909994527 48.37215481732172 374.82571319185314 # Ar
1470 1470 1 0.0 240.98408238737807 770.323467645887 944.4657377439667 # Ar
1471 1471 1 0.0 635.6356940351873 809.2603658135519 1105.452642629362 # Ar
1472 1472 1 0.0 142.75138604088357 424.625401814695 475.8529190732195 # Ar
1473 1473 1 0.0 1069.5881721400042 881.7152204711374 387.09222299235023 # Ar
1474 1474 1 0.0 1024.1018773178814 481.8719203593001 553.5788335748302 # Ar
1475 1475 1 0.0 583.9136141363041 1166.950454524235 1155.2409246335199 # Ar
1476 1476 1 0.0 502.9111756543444 30.599671799377372 43.619177212736275 # Ar
1477 1477 1 0.0 256.2240030970364 80.70545545455218 298.47398126267865 # Ar
1478 1478 1 0.0 988.532936909768 492.5695458784793 630.4829624140186 # Ar
1479 1479 1 0.0 58.784849853245255 192.44444432163027 1205.8042868799728 # Ar
1480 1480 1 0.0 188.39668744266362 793.1850315114189 407.296605813355 # Ar
1481 1481 1 0.0 323.46705132024147 200.57717523978548 1195.5361793957193 # Ar
1482 1482 1 0.0 832.064613550762 610.5927324840077 180.2070566338051 # Ar
1483 1483 1 0.0 977.2421060812285 1103.1625616876327 751.3509658575213 # Ar
1484 1484 1 0.0 109.52123711342095 113.65944217610868 657.8207141557126 # Ar
1485 1485 1 0.0 584.9466599568933 526.9670878505439 670.8613006045945 # Ar
1486 1486 1 0.0 1117.285135380944 349.5643230763633 318.9388116928998 # Ar
1487 1487 1 0.0 1236.842908976307 515.9114389207285 357.9459202552298 # Ar
1488 1488 1 0.0 155.03891768433957 682.3843310724313 104.83094164629513 # Ar
1489 1489 1 0.0 680.4276918748651 295.38821981136834 829.582685105598 # Ar
1490 1490 1 0.0 152.82307166044197 364.3643237727858 754.2270018696788 # Ar
1491 1491 1 0.0 109.12112035184064 23.475343879220308 141.54015983663612 # Ar
1492 1492 1 0.0 573.229202284863 597.0966545935181 296.4169277223029 # Ar
1493 1493 1 0.0 196.85899447836113 611.8705112676562 207.52617690006218 # Ar
1494 1494 1 0.0 787.4700010913004 1216.805076324901 972.0880029524802 # Ar
1495 1495 1 0.0 1021.9851905617904 310.3079411986836 576.115732599894 # Ar
1496 1496 1 0.0 67.30548216299155 995.5501033528631 1057.9540082325216 # Ar
1497 1497 1 0.0 374.121901756885 71.13454216964267 537.8978749711546 # Ar
1498 1498 1 0.0 386.3673174251456 760.0465453118132 344.1782584911808 # Ar
1499 1499 1 0.0 603.8079487072856 256.8999539079211 671.7240572466683 # Ar
1500 1500 1 0.0 1012.9677000513781 1083.6780701267312 340.4946394786068 # Ar
1501 1501 1 0.0 1018.8101489725282 575.6195302941969 633.72531658548 # Ar
1502 1502 1 0.0 167.20671349387152 680.5645276245651 338.58646966897277 # Ar
1503 1503 1 0.0 1013.9850803932575 1140.3852394423843 1157.7276848047475 # Ar
1504 1504 1 0.0 869.3098685699297 1154.9449622481538 1062.4672479984931 # Ar
1505 1505 1 0.0 215.41723879377497 612.0388970676503 861.4542569109594 # Ar
1506 1506 1 0.0 762.5608898087967 1199.77259693269 442.86787210407846 # Ar
1507 1507 1 0.0 482.9097502707605 301.3274868208311 550.9216681310133 # Ar
1508 1508 1 0.0 355.25765436558737 461.6130647549363 719.8877386989328 # Ar
1509 1509 1 0.0 1113.2834230946883 636.4352035153125 423.77724394565286 # Ar
1510 1510 1 0.0 659.5165542391667 824.0135143115493 1081.4712155111843 # Ar
1511 1511 1 0.0 617.3326865389026 1234.089282447396 1179.3532496730957 # Ar
1512 1512 1 0.0 178.1658976056026 54.889598876513915 653.509724935822 # Ar
1513 1513 1 0.0 1148.3940626366473 367.8388654033606 114.7195242148526 # Ar
1514 1514 1 0.0 297.63241737906037 315.16056618892196 234.78809703535762 # Ar
1515 1515 1 0.0 420.5834266308162 861.6098458036763 809.3977052275588 # Ar
1516 1516 1 0.0 399.3413836505801 1062.1811451491037 614.0767707237578 # Ar
1517 1517 1 0.0 676.4257861980424 403.1433323143798 155.9414658792222 # Ar
1518 1518 1 0.0 990.591591730028 214.0462220805652 1162.1111847163136 # Ar
1519 1519 1 0.0 873.5754798039469 830.4251308891902 191.16717874318022 # Ar
1520 1520 1 0.0 243.29203022215398 1096.4120906910505 124.72859688560655 # Ar
1521 1521 1 0.0 146.0150842283636 482.6838848531965 3.536645756966759 # Ar
1522 1522 1 0.0 67.55836720463418 856.2690772184803 1217.164532386125 # Ar
1523 1523 1 0.0 445.26619883712755 951.4114233410187 118.33502662573235 # Ar
1524 1524 1 0.0 703.4307690592248 773.3008081871492 267.6177423243731 # Ar
1525 1525 1 0.0 461.85841438238737 872.8753185224747 206.82931730493758 # Ar
1526 1526 1 0.0 363.2315926988766 649.3846224186967 835.0344011059491 # Ar
1527 1527 1 0.0 279.76977867734075 908.1328060021931 138.14407766034333 # Ar
1528 1528 1 0.0 102.673299655365 293.7281461415405 421.6842069696327 # Ar
1529 1529 1 0.0 448.65338898187144 870.1266988488769 764.6477335924749 # Ar
1530 1530 1 0.0 696.2231963864405 387.3879952268196 155.89836962918736 # Ar
1531 1531 1 0.0 486.82082660646944 1216.9610255262087 438.78455762438944 # Ar
1532 1532 1 0.0 216.53939378120398 809.4138617721956 778.2420648048807 # Ar
1533 1533 1 0.0 11.89876593456446 1144.6840768631607 975.8737425595867 # Ar
1534 1534 1 0.0 432.98245206261294 767.879416159418 379.07015314056963 # Ar
1535 1535 1 0.0 271.4621218605871 586.8529395194269 141.02366310965007 # Ar
1536 1536 1 0.0 610.1498147350289 782.0095823279129 310.754747053485 # Ar
1537 1537 1 0.0 138.39231016870738 169.5003736895111 261.66272532375456 # Ar
1538 1538 1 0.0 1207.7748748215495 112.66248373002304 350.63423790475395 # Ar
1539 1539 1 0.0 181.11831364934477 913.3588234484945 275.2449564340613 # Ar
1540 1540 1 0.0 273.12747392367737 859.3199632218592 1112.3783874795638 # Ar
1541 1541 1 0.0 1140.766410863981 954.438821558571 216.34189501963004 # Ar
1542 1542 1 0.0 554.1300335847222 835.5565624068194 1121.296818801414 # Ar
1543 1543 1 0.0 990.5384989204385 1046.686550058128 477.80878702708395 # Ar
1544 1544 1 0.0 1025.1485317277507 887.8376703160524 212.42580028535963 # Ar
1545 1545 1 0.0 611.3469023861834 738.5708609406712 62.09033874024712 # Ar
1546 1546 1 0.0 750.9139559681543 213.26488823116298 1173.5365567207905 # Ar
1547 1547 1 0.0 159.97172260969188 964.901695230857 1037.0373473473505 # Ar
1548 1548 1 0.0 653.8481121746344 1127.9555877915918 11.444088818625557 # Ar
1549 1549 1 0.0 109.55658053959718 623.8346361363139 347.8159482280809 # Ar
1550 1550 1 0.0 189.76182466559393 743.409969930568 14.598740554923609 # Ar
1551 1551 1 0.0 1046.406737132332 875.0007851012242 596.0723563411648 # Ar
1552 1552 1 0.0 237.58121985489265 349.19849043950484 1045.1509205222396 # Ar
1553 1553 1 0.0 665.8974588833375 955.344187066847 1152.7961420804588 # Ar
1554 1554 1 0.0 283.9188438433445 1061.1031900849086 535.3117456037465 # Ar
1555 1555 1 0.0 1165.3295560435558 78.41161764047034 624.8749736239267 # Ar
1556 1556 1 0.0 979.7587286207113 665.0583263386346 68.41843237044084 # Ar
1557 1557 1 0.0 358.58818839571785 391.1299601599186 104.23078017878582 # Ar
1558 1558 1 0.0 565.8669900448489 585.1285249064789 1184.4856854296766 # Ar
1559 1559 1 0.0 396.48400992000563 778.492102546548 961.9678653084775 # Ar
1560 1560 1 0.0 833.045284317751 123.81393366506137 841.2780604688699 # Ar
1561 1561 1 0.0 1125.4933087823738 426.2522942062986 368.5911403647219 # Ar
1562 1562 1 0.0 233.5422364032916 1216.6455437387901 790.9884447842342 # Ar
1563 1563 1 0.0 184.6641961542666 960.2595568696198 336.40438034426944 # Ar
1564 1564 1 0.0 513.0584364483967 506.0220323995998 530.8637307418812 # Ar
1565 1565 1 0.0 349.65616563103833 8.777470449664609 218.2056443476203 # Ar
1566 1566 1 0.0 1061.7480356466149 1161.9966118868924 782.2199400079577 # Ar
1567 1567 1 0.0 437.47689991883647 1227.68095245309 669.0391123252128 # Ar
1568 1568 1 0.0 393.3766407117728 1163.5657504173473 573.4607197548887 # Ar
1569 1569 1 0.0 957.6463019241298 836.3220617746638 549.4924967142331 # Ar
1570 1570 1 0.0 3.950939872456238 1088.7800086225377 193.13923668598102 # Ar
1571 1571 1 0.0 734.8187659469023 363.2034267563281 590.7770449399682 # Ar
1572 1572 1 0.0 283.16988401447173 1057.7832528677 982.5516446124366 # Ar
1573 1573 1 0.0 22.429721205319176 811.8915224429126 234.23402940101388 # Ar
1574 1574 1 0.0 775.6822550960798 1001.4820323361791 561.8257044887899 # Ar
1575 1575 1 0.0 915.28240055577 55.47452862073511 581.5926642226009 # Ar
1576 1576 1 0.0 601.0016091838037 41.01088877941142 840.3206076710311 # Ar
1577 1577 1 0.0 81.58129127193494 1129.07786284383 865.2673015888515 # Ar
1578 1578 1 0.0 143.64242835159808 1165.282723222171 1058.0330146335136 # Ar
1579 1579 1 0.0 394.45681881229166 878.0269054106002 55.13257062165288 # Ar
1580 1580 1 0.0 120.1539471748479 649.4552233563535 535.2719446578722 # Ar
1581 1581 1 0.0 438.2136600075741 73.22220549753884 534.2751590439992 # Ar
1582 1582 1 0.0 1067.1598066390886 62.13590958383309 428.6782766669051 # Ar
1583 1583 1 0.0 98.81711768552555 214.06975945115263 58.983917062956856 # Ar
1584 1584 1 0.0 886.2500938505136 745.8436924869785 697.6777815358084 # Ar
1585 1585 1 0.0 693.1087252931372 154.04763600980476 534.9591785962547 # Ar
1586 1586 1 0.0 18.392550319478037 984.6031150797536 271.8013662736501 # Ar
1587 1587 1 0.0 1171.111282090285 550.4660431165439 239.44075906887778 # Ar
1588 1588 1 0.0 110.63250465650317 0.8923894437974724 848.456470855198 # Ar
1589 1589 1 0.0 957.7567346012746 1044.457761086751 539.4780752785957 # Ar
1590 1590 1 0.0 296.848289430013 228.49248773807435 522.4899606456839 # Ar
1591 1591 1 0.0 538.7342451492084 118.39360299812778 506.53819551760756 # Ar
1592 1592 1 0.0 643.891589325612 943.1444788054552 314.925106850911 # Ar
1593 1593 1 0.0 1030.991465950247 469.42396111837553 716.7104540157873 # Ar
1594 1594 1 0.0 291.7599438796255 829.5298721434942 1086.030944699415 # Ar
1595 1595 1 0.0 1028.9183811500502 46.09333664994318 197.95269083416034 # Ar
1596 1596 1 0.0 443.32783799864336 882.4436660735814 200.05477746034722 # Ar
1597 1597 1 0.0 535.3851386343491 210.99474898373384 950.1846374346036 # Ar
1598 1598 1 0.0 871.6170444346626 421.8878614051226 480.418248119221 # Ar
1599 1599 1 0.0 54.43729250461009 950.817448072511 857.9191269526558 # Ar
1600 1600 1 0.0 45.47085797008556 36.611814234954196 700.6743503742042 # Ar
1601 1601 1 0.0 151.66743917988506 751.4904102220394 150.88124533902024 # Ar
1602 1602 1 0.0 985.1297179397317 981.0250462749095 578.8276038069115 # Ar
1603 1603 1 0.0 1076.1265439001545 884.8174119413553 434.60744323316715 # Ar
1604 1604 1 0.0 624.3960288212328 344.62519293117964 400.90158307167553 # Ar
1605 1605 1 0.0 1009.53852163834 847.7313967068895 430.01071286399934 # Ar
1606 1606 1 0.0 975.3430784675865 844.3289915741256 941.2326775600671 # Ar
1607 1607 1 0.0 720.0392722903517 527.9040412822445 999.4310987877683 # Ar
1608 1608 1 0.0 1171.7616427173868 268.59671613183633 986.8959502633534 # Ar
1609 1609 1 0.0 985.7515749981549 538.6098678842134 713.9355230385604 # Ar
1610 1610 1 0.0 1129.5264923902182 1140.8872775090351 153.70777719204764 # Ar
1611 1611 1 0.0 550.6409521839636 786.3327599765435 1076.2689527146954 # Ar
1612 1612 1 0.0 1132.207576285501 37.958174600913715 717.4756001011968 # Ar
1613 1613 1 0.0 408.546298282727 1030.9331599215586 639.57747814492 # Ar
1614 1614 1 0.0 690.1894775941838 260.87349209337503 171.90216493743907 # Ar
1615 1615 1 0.0 584.6338735273445 935.2564460299794 1195.8479847358994 # Ar
1616 1616 1 0.0 1080.385936069583 1085.2600778700544 672.6731972452847 # Ar
1617 1617 1 0.0 1013.3621447780977 340.5739158427372 345.9847397324346 # Ar
1618 1618 1 0.0 899.2834951245693 835.0461438860358 712.0632985472856 # Ar
1619 1619 1 0.0 684.4989228829315 964.4043094135249 1042.3997692783262 # Ar
1620 1620 1 0.0 50.44984815345251 932.3616314275426 43.02294069611686 # Ar
1621 1621 1 0.0 437.48835524398413 1134.30220840381 740.2070681948763 # Ar
1622 1622 1 0.0 136.46085654753165 3.2349716097338725 1239.44836183448 # Ar
1623 1623 1 0.0 809.4460880924028 799.8520792446426 592.0178959650713 # Ar
1624 1624 1 0.0 1022.098724490993 1168.678912206933 1116.1457818456533 # Ar
1625 1625 1 0.0 259.1281512612916 960.3965402866971 116.35564465737822 # Ar
1626 1626 1 0.0 619.6274236203493 246.16314362393013 918.7032716391651 # Ar
1627 1627 1 0.0 606.4546855987616 218.06902598760948 775.0802006368937 # Ar
1628 1628 1 0.0 54.755917322367424 475.55334190222885 1139.9410018046296 # Ar
1629 1629 1 0.0 224.22060101309495 654.792911134494 910.0701475235445 # Ar
1630 1630 1 0.0 1024.7814850123445 789.4570262276177 466.426939269993 # Ar
1631 1631 1 0.0 443.25548736940584 726.5482563000307 136.91702304303237 # Ar
1632 1632 1 0.0 137.22762721678097 1080.4272527222447 611.8621229067477 # Ar
1633 1633 1 0.0 467.6220772585459 471.6936129579636 1172.2762988982236 # Ar
1634 1634 1 0.0 963.4247608499329 1046.6977501537235 1095.9647282203673 # Ar
1635 1635 1 0.0 999.9768657392582 633.2683859807563 1127.0992329020849 # Ar
1636 1636 1 0.0 106.99751301369864 1136.8039170142997 958.1542402699571 # Ar
1637 1637 1 0.0 1203.5257677732438 626.3387548607304 857.409182835597 # Ar
1638 1638 1 0.0 389.43302529331595 810.2715337588517 553.1830642328783 # Ar
1639 1639 1 0.0 507.966877028672 72.32829872384275 601.0371231958737 # Ar
1640 1640 1 0.0 939.5827824290384 604.8014672445137 1141.62160549851 # Ar
1641 1641 1 0.0 382.6454549206871 1131.4845990724477 868.7864430598734 # Ar
1642 1642 1 0.0 368.93655847028066 1224.6052660757523 798.9281624320868 # Ar
1643 1643 1 0.0 839.8021104391032 681.3539465723646 124.50329496218316 # Ar
1644 1644 1 0.0 526.1786422081414 78.00265120965182 1151.2889347866064 # Ar
1645 1645 1 0.0 422.8049711291632 184.15938239928272 221.3240787257021 # Ar
1646 1646 1 0.0 1021.9014724586358 176.5804531567625 23.385288618296002 # Ar
1647 1647 1 0.0 648.4409609786076 353.5753756770168 1225.0517331749516 # Ar
1648 1648 1 0.0 656.2520848753854 712.3555821915188 240.88034086346917 # Ar
1649 1649 1 0.0 220.10406567819422 957.7886480267389 963.0664379635406 # Ar
1650 1650 1 0.0 72.97290185680937 831.877749257043 536.059377322871 # Ar
1651 1651 1 0.0 335.0365793054063 145.87820248448617 278.0203751054138 # Ar
1652 1652 1 0.0 313.3229927751723 496.15110302972045 586.5243003954413 # Ar
1653 1653 1 0.0 103.27390587297405 929.7035825959848 972.2736443509327 # Ar
1654 1654 1 0.0 472.96541524796004 190.6958611137143 502.0513792149699 # Ar
1655 1655 1 0.0 1119.7347659138677 167.27697742409416 43.50108495193995 # Ar
1656 1656 1 0.0 553.7899228689464 1138.8152585927937 1.7097642244576883 # Ar
1657 1657 1 0.0 1228.0750892849087 504.83414286168613 180.9305684772759 # Ar
1658 1658 1 0.0 1171.0811219589225 269.71728550061954 312.44890872410275 # Ar
1659 1659 1 0.0 305.8862087961277 793.6128883487241 860.7595514997645 # Ar
1660 1660 1 0.0 610.0714225950109 1107.21426278334 814.503075611867 # Ar
1661 1661 1 0.0 128.40873601796972 291.3205874517353 578.6877523532638 # Ar
1662 1662 1 0.0 236.59389654400678 1134.050102251056 61.10077898081927 # Ar
1663 1663 1 0.0 865.7906567613435 112.75127621268166 251.09975869947678 # Ar
1664 1664 1 0.0 28.108932910532282 984.7145969846914 1066.6323572708059 # Ar
1665 1665 1 0.0 378.44200897119003 1232.647961861467 135.0246150101546 # Ar
1666 1666 1 0.0 379.51454679234524 1156.4289511391787 1188.02069654172 # Ar
1667 1667 1 0.0 1189.516733087014 66.88779749930454 633.2929505065315 # Ar
1668 1668 1 0.0 293.4767804633564 737.071170081489 455.70999579622884 # Ar
1669 1669 1 0.0 27.811343836691435 494.2985506596302 422.88378127209404 # Ar
1670 1670 1 0.0 757.3350749204894 1096.6567701474305 1039.6200072497036 # Ar
1671 1671 1 0.0 627.0366455958838 197.09120226199818 819.7979522679647 # Ar
1672 1672 1 0.0 1146.452240591582 556.5536878343347 1112.4566258478342 # Ar
1673 1673 1 0.0 761.0939040021889 981.9843306561537 464.88427651316005 # Ar
1674 1674 1 0.0 248.10109868706033 374.0866428040459 41.39085081298469 # Ar
1675 1675 1 0.0 365.7342073515941 308.99860718742076 406.0989769214109 # Ar
1676 1676 1 0.0 556.6427780404758 902.9573004045823 768.2008602271262 # Ar
1677 1677 1 0.0 81.93792698944544 830.3565595542965 1063.6814374735707 # Ar
1678 1678 1 0.0 279.52695078295966 999.9960759998547 800.5364155741526 # Ar
1679 1679 1 0.0 248.1996576600764 305.49489085712764 1061.485472232322 # Ar
1680 1680 1 0.0 251.40550825711293 979.4550933798997 493.2014706216008 # Ar
1681 1681 1 0.0 440.98901564185746 740.0663688811921 985.8419089768288 # Ar
1682 1682 1 0.0 720.8589528884929 1037.0715838230383 778.7000549853346 # Ar
1683 1683 1 0.0 52.23853596662669 566.9598159713889 886.00777409634 # Ar
1684 1684 1 0.0 948.1995708491412 498.6033001790545 778.6791388669477 # Ar
1685 1685 1 0.0 1092.1647469035881 693.8898392072026 533.599888512359 # Ar
1686 1686 1 0.0 621.8729619845757 919.2567326799376 908.1461590802818 # Ar
1687 1687 1 0.0 882.8388988564928 166.15281039878488 311.13501294325675 # Ar
1688 1688 1 0.0 645.2372352067546 811.9508207392201 318.92444022933927 # Ar
1689 1689 1 0.0 838.7426227585264 653.7352638514958 895.3191426718553 # Ar
1690 1690 1 0.0 392.549008143974 401.05392584401216 258.56805624854525 # Ar
1691 1691 1 0.0 38.09614964671332 353.1675533685985 340.75318500738837 # Ar
1692 1692 1 0.0 4.471768200881449 958.6779769698761 175.52948512446716 # Ar
1693 1693 1 0.0 445.7460293981398 1178.5056901910111 172.10618729588433 # Ar
1694 1694 1 0.0 229.95942619543706 1216.8236520134246 125.90571589090511 # Ar
1695 1695 1 0.0 703.800976881379 484.088677300485 799.6555873934767 # Ar
1696 1696 1 0.0 749.7373943440392 897.517489841367 699.7425437591523 # Ar
1697 1697 1 0.0 1085.9064052078877 657.3267266297837 27.753941952676165 # Ar
1698 1698 1 0.0 812.1143471650423 95.37748345829516 869.5395532062778 # Ar
1699 1699 1 0.0 559.4368020018006 898.5865606151061 1001.606720636877 # Ar
1700 1700 1 0.0 885.3757074896222 323.21394440908716 1084.5445447478755 # Ar
1701 1701 1 0.0 238.07667358465295 106.78888563656781 1010.1674476911769 # Ar
1702 1702 1 0.0 603.3376295093451 56.51337535160083 893.9527598771348 # Ar
1703 1703 1 0.0 760.2946424819629 89.33075060943075 417.0678886161721 # Ar
1704 1704 1 0.0 245.36918038287774 440.99620662277727 364.61002810413726 # Ar
1705 1705 1 0.0 440.71725973167224 507.7739324776078 1109.6838107232377 # Ar
1706 1706 1 0.0 1200.7254210950748 982.6640247777391 182.6761897960058 # Ar
1707 1707 1 0.0 740.4284906374639 1045.1599036291982 177.67671656967522 # Ar
1708 1708 1 0.0 897.6996763275707 588.7774335332664 474.99718790746044 # Ar
1709 1709 1 0.0 518.8003943327666 1203.949606516488 36.61846302972351 # Ar
1710 1710 1 0.0 62.37729207021982 660.1282805947615 323.7361994933146 # Ar
1711 1711 1 0.0 82.38842542456229 918.4290324538357 566.9933496559369 # Ar
1712 1712 1 0.0 693.9501493084754 534.5855417600563 43.57111078891144 # Ar
1713 1713 1 0.0 54.069251859214184 259.29181277439835 823.9371652064361 # Ar
1714 1714 1 0.0 908.6589794843785 899.7257595954183 1015.8968038176639 # Ar
1715 1715 1 0.0 226.4682954669691 905.4752481636733 650.8774940523197 # Ar
1716 1716 1 0.0 988.8960871117202 157.19256646807625 927.3290937692069 # Ar
1717 1717 1 0.0 1177.1683415021366 287.31855595028924 143.7089009497532 # Ar
1718 1718 1 0.0 0.04141690839582737 1083.2225194453024 577.6895366504905 # Ar
1719 1719 1 0.0 1043.5458992023225 846.6288938322731 940.8743889233934 # Ar
1720 1720 1 0.0 551.4110485156554 1142.3184054992128 98.00532003396376 # Ar
1721 1721 1 0.0 859.52162802233 1141.7032713174233 299.25570713737153 # Ar
1722 1722 1 0.0 88.84490108960746 815.0277542755432 186.96838445448523 # Ar
1723 1723 1 0.0 785.8010909357317 1059.7824827427837 393.3382124313574 # Ar
1724 1724 1 0.0 192.24541868016095 1137.7832607988796 418.88243975948086 # Ar
1725 1725 1 0.0 229.64544242028052 576.4762760607601 999.667505584536 # Ar
1726 1726 1 0.0 804.5819630041177 1216.4797479123615 656.767033519314 # Ar
1727 1727 1 0.0 643.1024332721543 910.6330344220532 188.0916372454505 # Ar
1728 1728 1 0.0 1120.6979519808522 894.9983400593078 1102.6759201025063 # Ar
1729 1729 1 0.0 316.84019494226607 235.75156087457592 275.9702674074499 # Ar
1730 1730 1 0.0 1239.3942979153908 197.57253475941462 1043.4207162590792 # Ar
1731 1731 1 0.0 1085.3532685877294 476.8900601279192 912.3244620002689 # Ar
1732 1732 1 0.0 698.8383645133493 200.86470126567133 1089.5562537162227 # Ar
1733 1733 1 0.0 1181.985663267405 824.5089889060371 653.9640533653301 # Ar
1734 1734 1 0.0 738.1098297828894 760.3368877638251 718.2538173356216 # Ar
1735 1735 1 0.0 1167.0611310420472 617.5359074501454 1011.6690891697773 # Ar
1736 1736 1 0.0 794.882514359551 180.90567739215174 304.86700132930963 # Ar
1737 1737 1 0.0 1209.8735145060298 79.28034964728246 854.8948161543352 # Ar
1738 1738 1 0.0 47.786519946889776 388.7346205928253 413.88825727982265 # Ar
1739 1739 1 0.0 30.17000879059627 902.3184446601695 47.24026955385983 # Ar
1740 1740 1 0.0 906.3028152711627 1136.547157434017 764.581078302966 # Ar
1741 1741 1 0.0 465.73419315042804 853.296373472523 768.4215639394226 # Ar
1742 1742 1 0.0 313.94575553320686 91.30315732906159 808.3334869319074 # Ar
1743 1743 1 0.0 1072.4278821492092 258.31637419734255 777.9459670622382 # Ar
1744 1744 1 0.0 688.5174958875842 1045.847810038277 405.7210476369627 # Ar
1745 1745 1 0.0 977.4011573603793 90.77035709125327 655.0463618899948 # Ar
1746 1746 1 0.0 1130.2993822864332 879.2651343663852 55.2461549905641 # Ar
1747 1747 1 0.0 175.09591072776064 451.97711599617895 111.04718298633114 # Ar
1748 1748 1 0.0 653.3870525682165 289.63185830552635 1026.1912699331372 # Ar
1749 1749 1 0.0 1101.5825092386344 428.86744169268 97.50731366170733 # Ar
1750 1750 1 0.0 600.3333482669174 490.639808932669 1141.975161275488 # Ar
1751 1751 1 0.0 1105.038601938926 902.2876063902805 1050.6730811435723 # Ar
1752 1752 1 0.0 755.7171024974738 715.1445007435018 942.8581320188082 # Ar
1753 1753 1 0.0 969.5427591144144 197.049218343199 617.6587177105883 # Ar
1754 1754 1 0.0 1016.3130246512014 573.52731422506 166.74419653577667 # Ar
1755 1755 1 0.0 112.59327003100309 362.5457385067462 133.73055408385235 # Ar
1756 1756 1 0.0 1051.2197509871028 894.1878733901688 737.7275543764946 # Ar
1757 1757 1 0.0 1105.5389217659754 87.29843384534321 702.78586724821 # Ar
1758 1758 1 0.0 434.9094026246669 66.88290106117849 144.95583685404787 # Ar
1759 1759 1 0.0 1160.9876851233212 929.0440062173394 516.2658418593259 # Ar
1760 1760 1 0.0 1055.3425537621386 823.8469630965812 579.9690370946726 # Ar
1761 1761 1 0.0 822.7028047224154 1051.8239158308895 530.222916702537 # Ar
1762 1762 1 0.0 781.2382149654134 215.84860188055862 1236.3639082126685 # Ar
1763 1763 1 0.0 871.5702304631435 414.7931902861147 73.86831905114926 # Ar
1764 1764 1 0.0 855.4672389391349 1129.6492732341096 310.4113288272 # Ar
1765 1765 1 0.0 1151.4514162651797 911.0274813265089 706.4925924433578 # Ar
1766 1766 1 0.0 541.4502183587429 293.4422473837237 248.87288332139346 # Ar
1767 1767 1 0.0 413.71681262816924 567.4209650125664 542.1617186512649 # Ar
1768 1768 1 0.0 706.9858215595276 320.38114938922513 684.6728359951661 # Ar
1769 1769 1 0.0 679.2470084841333 611.9478576426077 273.8185502465483 # Ar
1770 1770 1 0.0 463.0333652379233 451.2169978813262 851.0038093178259 # Ar
1771 1771 1 0.0 41.04668594492343 1087.854521364122 621.3449732463823 # Ar
1772 1772 1 0.0 84.34064114439153 297.93770531286896 84.99500430936118 # Ar
1773 1773 1 0.0 1160.837412148986 841.0441429532619 1005.1685314804255 # Ar
1774 1774 1 0.0 748.5131674909854 740.5950698192379 114.78835463214351 # Ar
1775 1775 1 0.0 738.3375635728764 213.69148831087495 942.4834760094276 # Ar
1776 1776 1 0.0 92.14397712853633 225.94781725028898 670.682336094064 # Ar
1777 1777 1 0.0 302.99862118401626 288.93042634640943 151.62662682153456 # Ar
1778 1778 1 0.0 20.77274227684285 771.8761713196185 536.7655530112032 # Ar
1779 1779 1 0.0 699.2859422501455 88.09265978842915 1020.1808759202896 # Ar
1780 1780 1 0.0 579.2367204146973 750.6088549078146 1173.160330563839 # Ar
1781 1781 1 0.0 965.9169074413188 726.5044391349801 606.5367653880239 # Ar
1782 1782 1 0.0 537.1164947226118 776.0306215184803 1184.837270817834 # Ar
1783 1783 1 0.0 771.7430944649722 290.074161938772 358.4294751239881 # Ar
1784 1784 1 0.0 843.0301687389473 1076.3022332613502 981.5639861227959 # Ar
1785 1785 1 0.0 456.98394263522323 1083.5594226600388 25.145477333019603 # Ar
1786 1786 1 0.0 784.9380225555325 98.05293712812531 451.65060634619005 # Ar
1787 1787 1 0.0 1015.3204769646172 1077.136559975808 577.8477098888702 # Ar
1788 1788 1 0.0 231.1984971366092 666.3391629184796 1028.1079009696807 # Ar
1789 1789 1 0.0 616.7994620835948 13.228927034139813 779.7376210774553 # Ar
1790 1790 1 0.0 22.551024773222967 368.48295414109725 527.4458309479237 # Ar
1791 1791 1 0.0 105.62387100244 353.2511756959602 279.85896103322335 # Ar
1792 1792 1 0.0 291.9040945673445 244.016337844006 20.454738867944418 # Ar
1793 1793 1 0.0 988.9734538623417 438.1380257515213 1052.966045270772 # Ar
1794 1794 1 0.0 773.9088892086771 993.0577780514853 479.95456341858704 # Ar
1795 1795 1 0.0 535.2638534204567 833.1124263692275 120.0033616054775 # Ar
1796 1796 1 0.0 1177.8103227433764 1110.2972708238215 820.2757391363168 # Ar
1797 1797 1 0.0 23.45051458522168 960.7152697850175 562.2169445107828 # Ar
1798 1798 1 0.0 1190.985730808859 17.774462761162827 1212.6978807663638 # Ar
1799 1799 1 0.0 643.7238626860949 985.7342089811697 1211.7135765061541 # Ar
1800 1800 1 0.0 412.4556218784593 286.08991994574177 817.6856409874503 # Ar
1801 1801 1 0.0 336.70570003745945 771.2636719266329 949.6968202640378 # Ar
1802 1802 1 0.0 171.8693529563522 47.0624881359616 274.41031259200133 # Ar
1803 1803 1 0.0 930.382101227804 222.8132016067695 1026.86678448782 # Ar
1804 1804 1 0.0 385.2057808994963 201.60596578920953 508.7583048381084 # Ar
1805 1805 1 0.0 880.9294829557921 773.2621699003261 403.20026659865533 # Ar
1806 1806 1 0.0 398.22845281818377 43.06860423265911 1181.1585389451693 # Ar
1807 1807 1 0.0 737.4356817343645 808.9261507856347 762.8979491163169 # Ar
1808 1808 1 0.0 3.8561740093127064 225.65014690164634 112.58950210005128 # Ar
1809 1809 1 0.0 70.01110408800567 794.3175989341421 701.9303745553474 # Ar
1810 1810 1 0.0 431.7595510411609 1101.5188809670447 375.2669744466711 # Ar
1811 1811 1 0.0 338.4927438121473 185.2008288215954 653.9888749826844 # Ar
1812 1812 1 0.0 795.6781667857199 249.39721252354667 277.6911381661335 # Ar
1813 1813 1 0.0 424.1117017689723 625.3120883808401 18.364959703563756 # Ar
1814 1814 1 0.0 894.3798373374648 989.9998778456362 514.3305877204812 # Ar
1815 1815 1 0.0 185.56846041908108 1162.3868764861231 100.42184746050829 # Ar
1816 1816 1 0.0 812.6029762644306 1114.4211518891657 12.721122273309755 # Ar
1817 1817 1 0.0 399.4765166498707 402.7309727670311 959.6623051312346 # Ar
1818 1818 1 0.0 138.56649428071503 888.3177177953376 383.4838592605798 # Ar
1819 1819 1 0.0 32.94702139637902 21.656485859311577 687.5414127102658 # Ar
1820 1820 1 0.0 1089.6365499805738 851.0323842648319 243.97338859307882 # Ar
1821 1821 1 0.0 349.6907982972476 899.9863410891287 520.4773085757334 # Ar
1822 1822 1 0.0 565.6469412416973 965.9879529731824 511.9001830681162 # Ar
1823 1823 1 0.0 49.766857042275795 33.712930911410865 1103.238320513961 # Ar
1824 1824 1 0.0 488.34332082975584 285.37744942723134 115.22661728846431 # Ar
1825 1825 1 0.0 1096.4942425155627 357.1831220995855 707.9564794918397 # Ar
1826 1826 1 0.0 483.72687666212823 781.8989828457144 1149.4035478718035 # Ar
1827 1827 1 0.0 451.1025432635122 841.0640032768172 611.6284899606587 # Ar
1828 1828 1 0.0 104.14036961763112 742.111272365216 426.3114311839499 # Ar
1829 1829 1 0.0 115.8183541685721 801.2077622521398 828.804962537379 # Ar
1830 1830 1 0.0 587.7571542900513 1044.3199532514093 661.6317788019211 # Ar
1831 1831 1 0.0 245.07330697386203 797.5075931106836 739.2667193084761 # Ar
1832 1832 1 0.0 551.6072194485796 986.8251408521542 734.7489205450187 # Ar
1833 1833 1 0.0 758.7360330443771 514.8605827182172 144.5792623191874 # Ar
1834 1834 1 0.0 16.47584694706547 46.48418873125248 584.7539987660529 # Ar
1835 1835 1 0.0 107.41667706565502 292.44082085244605 344.62658915924163 # Ar
1836 1836 1 0.0 988.6245390148105 870.4165975741931 1232.0168776491432 # Ar
1837 1837 1 0.0 315.07603182426897 584.4024597471813 548.6874276879272 # Ar
1838 1838 1 0.0 64.0830833990241 878.6151417499498 917.3472520653936 # Ar
1839 1839 1 0.0 1176.4792555938288 274.28868998801033 868.2826154049081 # Ar
1840 1840 1 0.0 653.7208053801245 616.9510801227395 738.7217033061427 # Ar
1841 1841 1 0.0 680.3895915219583 497.2893659380597 421.90289590273704 # Ar
1842 1842 1 0.0 648.6167715783795 533.4385974052618 145.32708923194096 # Ar
1843 1843 1 0.0 629.1549019932759 332.6446050390968 111.54460787657953 # Ar
1844 1844 1 0.0 401.98671570377206 80.6125849937246 413.92642591974413 # Ar
1845 1845 1 0.0 845.14369362486 343.61921163895965 348.2459968503911 # Ar
1846 1846 1 0.0 381.3460625787894 202.59466212578823 37.91968843548644 # Ar
1847 1847 1 0.0 398.62861473835903 593.7330305437532 591.002498718281 # Ar
1848 1848 1 0.0 763.6516792024902 68.63793037700752 1063.2525704192512 # Ar
1849 1849 1 0.0 684.9899500220715 1004.9027848292865 1170.3577761708773 # Ar
1850 1850 1 0.0 353.2060070037828 656.724686218132 629.4955005713618 # Ar
1851 1851 1 0.0 606.5111762097914 559.8370421570738 1113.6003704665197 # Ar
1852 1852 1 0.0 849.1417308317168 866.4906270896945 535.6038586396832 # Ar
1853 1853 1 0.0 889.7344642575683 397.9105395904869 492.35395503920205 # Ar
1854 1854 1 0.0 550.4335463048544 617.9627501625241 639.944669196907 # Ar
1855 1855 1 0.0 241.1167084707661 836.0222793154363 547.3519573759954 # Ar
1856 1856 1 0.0 306.485627986638 957.904198465092 448.3727099421007 # Ar
1857 1857 1 0.0 937.2662953788233 541.3179791802507 67.53044141336872 # Ar
1858 1858 1 0.0 813.173575463445 1031.9458506893413 289.6990228968662 # Ar
1859 1859 1 0.0 975.6340850430698 563.628157543344 525.9271945447482 # Ar
1860 1860 1 0.0 782.4737282707453 470.478467618103 388.95947410349686 # Ar
1861 1861 1 0.0 157.47528817803726 22.271734740499255 161.50663245959845 # Ar
1862 1862 1 0.0 883.213939435054 743.3308244490183 660.4092485190546 # Ar
1863 1863 1 0.0 968.1504586720716 250.35704849054568 344.3867739937903 # Ar
1864 1864 1 0.0 165.48597567586458 367.8397155390225 69.19836144042445 # Ar
1865 1865 1 0.0 272.39005686022836 680.4028573643212 1058.0706195539385 # Ar
1866 1866 1 0.0 804.4187607732244 545.0561733432173 621.7642844982936 # Ar
1867 1867 1 0.0 400.8958506397958 309.2998817805734 852.7724248115667 # Ar
1868 1868 1 0.0 1196.1477146940035 743.492202771315 1156.098873161966 # Ar
1869 1869 1 0.0 709.0695161621397 619.1777033537932 972.0687341476711 # Ar
1870 1870 1 0.0 835.1843322661482 953.1603112246257 348.1173985332382 # Ar
1871 1871 1 0.0 549.983780455929 821.7432381642367 51.74884734656928 # Ar
1872 1872 1 0.0 350.99046296057213 706.74204158741 86.37515138245737 # Ar
1873 1873 1 0.0 842.6262710343785 92.66278658802221 221.88716841446208 # Ar
1874 1874 1 0.0 1234.8365483242765 458.46272540557305 114.4783143090125 # Ar
1875 1875 1 0.0 614.5536603005532 267.0663829710619 901.8119526108081 # Ar
1876 1876 1 0.0 796.9268151033414 908.5767104832736 982.0648886120006 # Ar
1877 1877 1 0.0 624.7341721040667 91.07518922702266 257.2931627766351 # Ar
1878 1878 1 0.0 400.22556434780057 930.5926650092194 306.3452745779301 # Ar
1879 1879 1 0.0 533.0217029916611 1211.0952127965518 682.419423353804 # Ar
1880 1880 1 0.0 486.7052864686923 189.63134403940452 455.4606155517826 # Ar
1881 1881 1 0.0 286.20752367938064 986.6863293796227 489.94520720865717 # Ar
1882 1882 1 0.0 116.23152997946531 181.85425212936124 819.1229558403146 # Ar
1883 1883 1 0.0 989.9652871063415 593.7890659216646 796.1591631830327 # Ar
1884 1884 1 0.0 578.0692115102913 762.1030524111001 301.319538461308 # Ar
1885 1885 1 0.0 414.2677217533662 98.21102115343848 786.4472795807494 # Ar
1886 1886 1 0.0 516.0395269533715 38.102900244732595 1169.5101323666374 # Ar
1887 1887 1 0.0 1108.262105015658 264.5457042869728 377.76814200710976 # Ar
1888 1888 1 0.0 186.83102117638322 900.0805621916832 59.7856641068014 # Ar
1889 1889 1 0.0 278.7200897065666 147.75419566954275 590.3149394349797 # Ar
1890 1890 1 0.0 85.43628793936777 272.45667832403046 465.2727463776825 # Ar
1891 1891 1 0.0 304.5642471567508 53.86712007848699 480.20046598123173 # Ar
1892 1892 1 0.0 288.4229056665073 458.71709940656353 970.1170570569514 # Ar
1893 1893 1 0.0 601.928003734709 638.9702615883119 248.3753632797433 # Ar
1894 1894 1 0.0 1109.421243664822 381.89127232555404 707.1517736623252 # Ar
1895 1895 1 0.0 678.6396904497162 733.7324146979101 414.85104084426 # Ar
1896 1896 1 0.0 629.4493413133773 1208.809409465497 665.3291639288371 # Ar
1897 1897 1 0.0 1179.3623558568283 128.31590841813173 692.6541473631322 # Ar
1898 1898 1 0.0 217.75307226585505 665.3828329759637 307.13723965256384 # Ar
1899 1899 1 0.0 945.1193528532284 458.5349212718275 13.354145496681165 # Ar
1900 1900 1 0.0 167.46347011953597 695.231802073209 44.22521118656726 # Ar
1901 1901 1 0.0 532.5347328131869 719.2885452123921 218.34359324910105 # Ar
1902 1902 1 0.0 1069.0105288738212 357.9707505085669 574.8616228118633 # Ar
1903 1903 1 0.0 279.41956504119094 396.02736963166586 28.78226325573923 # Ar
1904 1904 1 0.0 428.69601842302245 678.8669527275971 146.2227954442756 # Ar
1905 1905 1 0.0 465.11457766095685 400.41278288523034 1229.4109551583858 # Ar
1906 1906 1 0.0 695.4412060153941 597.0989907727245 214.12523257749888 # Ar
1907 1907 1 0.0 354.65031667721564 1035.2081349025768 265.5386983070825 # Ar
1908 1908 1 0.0 1237.077806260127 1098.6640557651642 218.16967962343242 # Ar
1909 1909 1 0.0 601.4505326948674 522.4105581350127 1069.6278550556376 # Ar
1910 1910 1 0.0 699.6608055031942 24.570474167456005 1096.3839326465716 # Ar
1911 1911 1 0.0 255.77376811980594 555.5626310474562 293.70837374004185 # Ar
1912 1912 1 0.0 28.706951551364 261.495269528124 754.278061891457 # Ar
1913 1913 1 0.0 461.1837875188025 503.07572601554403 448.79342373574707 # Ar
1914 1914 1 0.0 507.51458688589383 1166.1704871648612 1162.2305369869061 # Ar
1915 1915 1 0.0 147.55682098355499 606.594874429125 884.3092689369835 # Ar
1916 1916 1 0.0 1031.7282435393904 710.8873650917511 1084.7793501828392 # Ar
1917 1917 1 0.0 748.1094077586139 503.8780250385118 189.06478728675998 # Ar
1918 1918 1 0.0 113.32215268984744 602.5403060836725 195.64654882154414 # Ar
1919 1919 1 0.0 256.4754937242067 1016.5710515284115 963.9658110442116 # Ar
1920 1920 1 0.0 864.5262950803192 873.6875724019701 417.4105468252233 # Ar
1921 1921 1 0.0 225.94820278695076 861.5366073149778 21.673184952495948 # Ar
1922 1922 1 0.0 451.2414066675112 1084.0488186536109 487.2840719848411 # Ar
1923 1923 1 0.0 662.4429110175337 527.8206286939961 618.3656542153366 # Ar
1924 1924 1 0.0 4.934254351044254 565.3397119041678 1091.5444990334677 # Ar
1925 1925 1 0.0 298.2717397266432 698.0401705035307 836.5743337376323 # Ar
1926 1926 1 0.0 248.58462088194113 87.6164834483048 555.5236793140231 # Ar
1927 1927 1 0.0 329.8962309546447 37.39397787836601 955.2137823063216 # Ar
1928 1928 1 0.0 927.0503008755877 414.12213869913717 494.68411227539764 # Ar
1929 1929 1 0.0 437.96992491275637 644.041675779085 673.4640251709524 # Ar
1930 1930 1 0.0 894.2335202742338 909.8916708492252 996.2180129909374 # Ar
1931 1931 1 0.0 1077.1209271055639 166.32007742026508 1074.2482464031023 # Ar
1932 1932 1 0.0 1116.242917845013 111.23510841473986 360.76282733932396 # Ar
1933 1933 1 0.0 788.9762893195307 896.7765535077211 961.7974367550455 # Ar
1934 1934 1 0.0 400.6100092727696 1189.2532824011882 325.5594093379496 # Ar
1935 1935 1 0.0 994.708252913034 642.1714646915359 1232.9609564951913 # Ar
1936 1936 1 0.0 459.3298729773806 1216.8778843086602 816.3017028186251 # Ar
1937 1937 1 0.0 1123.5678170000083 254.9759848817645 439.8747959640321 # Ar
1938 1938 1 0.0 561.4156158910771 955.7727188798162 837.8878088871697 # Ar
1939 1939 1 0.0 1029.4243164351233 47.063549117882516 215.97233264068896 # Ar
1940 1940 1 0.0 466.9071087343079 920.4578787280177 879.7255954628256 # Ar
1941 1941 1 0.0 888.1689252819548 1057.336670336191 1217.671831413301 # Ar
1942 1942 1 0.0 934.4146610131542 1187.3243364329014 496.52138670915815 # Ar
1943 1943 1 0.0 368.8253131288551 317.982819301642 184.62973030433702 # Ar
1944 1944 1 0.0 320.8979739581844 599.2252110327591 872.2759882113212 # Ar
1945 1945 1 0.0 798.4683366843919 695.6434685604121 520.4236367782884 # Ar
1946 1946 1 0.0 416.9623300574659 180.17141676708832 1120.3245481721128 # Ar
1947 1947 1 0.0 1077.9762001762558 320.17577134960874 875.53144570718 # Ar
1948 1948 1 0.0 255.92274179932747 1036.5169459373985 314.9500450775232 # Ar
1949 1949 1 0.0 443.405108713304 707.2826945917011 107.57187889826363 # Ar
1950 1950 1 0.0 712.4961033484038 571.4279854663334 302.17810281499646 # Ar
1951 1951 1 0.0 16.95130899232161 339.25863516444167 489.06168565082 # Ar
1952 1952 1 0.0 259.5724500822877 1103.4914656701155 815.1080202189886 # Ar
1953 1953 1 0.0 20.66490768943178 554.0618715992177 214.3021759485905 # Ar
1954 1954 1 0.0 1188.8242810729962 64.56928287856313 218.56709774453853 # Ar
1955 1955 1 0.0 944.2416784735675 664.8316134718926 506.9183137089787 # Ar
1956 1956 1 0.0 1025.722552039871 503.80710684990726 699.8843379974572 # Ar
1957 1957 1 0.0 739.4741476616286 1126.9492894936222 509.7773691350857 # Ar
1958 1958 1 0.0 502.41904160877925 90.74382853499372 1097.2487762027736 # Ar
1959 1959 1 0.0 183.26257393833444 257.29775866780034 733.808237647195 # Ar
1960 1960 1 0.0 25.94546137738759 1213.557412578534 882.4088300266333 # Ar
1961 1961 1 0.0 1126.034042345375 607.1399443500751 85.25356383343703 # Ar
1962 1962 1 0.0 485.7569871909319 302.8809924425471 245.25821647012793 # Ar
1963 1963 1 0.0 1109.94207650563 523.2000656697209 904.730978271167 # Ar
1964 1964 1 0.0 618.7296473692566 1074.684417214417 394.39012803214354 # Ar
1965 1965 1 0.0 768.3056925545205 1145.0828898292482 759.9623380097617 # Ar
1966 1966 1 0.0 145.0535334339843 1020.069454461434 721.129865332521 # Ar
1967 1967 1 0.0 663.25958353818 1044.7813532641235 3.530503192000879 # Ar
1968 1968 1 0.0 292.9664820542679 350.8344723087509 334.59264043747993 # Ar
1969 1969 1 0.0 208.7702161784268 439.05942359921266 146.21797130553622 # Ar
1970 1970 1 0.0 817.0319427047606 152.54231570555467 799.3365795978467 # Ar
1971 1971 1 0.0 227.99617747373753 965.9510470065868 1072.1562610334236 # Ar
1972 1972 1 0.0 552.39807934991 766.6242700335742 774.2921636817542 # Ar
1973 1973 1 0.0 931.3192760117447 233.3621255207765 165.06798685246258 # Ar
1974 1974 1 0.0 500.6765332348141 376.6591611793403 564.8703882123356 # Ar
1975 1975 1 0.0 1066.3730299829892 813.1659318283847 468.4129221731008 # Ar
1976 1976 1 0.0 1044.4637310369162 13.814884370895937 918.7499187966779 # Ar
1977 1977 1 0.0 632.4998695921458 1008.0792455079785 287.3342759849537 # Ar
1978 1978 1 0.0 682.5134276392492 830.3112298013936 1138.0909930289051 # Ar
1979 1979 1 0.0 673.243761522056 1159.7928808408942 201.5856671682127 # Ar
1980 1980 1 0.0 183.14394521979173 605.2613399216223 35.06064968185054 # Ar
1981 1981 1 0.0 497.1593183760181 1221.0661058958472 862.7267458091546 # Ar
1982 1982 1 0.0 783.9512518778472 842.147352695092 446.75087582178253 # Ar
1983 1983 1 0.0 197.70204001888047 1030.1917202800862 1068.2169350594381 # Ar
1984 1984 1 0.0 987.69520884735 280.5330310325733 46.3931225693176 # Ar
1985 1985 1 0.0 192.43505070823917 604.6041559981952 334.47053638125294 # Ar
1986 1986 1 0.0 475.25239827604287 933.6416380292876 986.3353061225292 # Ar
1987 1987 1 0.0 1026.7063886288781 626.1202019020318 166.8960273631575 # Ar
1988 1988 1 0.0 516.038347505467 602.0117597193705 1036.8567885236994 # Ar
1989 1989 1 0.0 1013.5962168896301 116.73830599817208 97.00513492349562 # Ar
1990 1990 1 0.0 464.97020444441796 905.7014498090351 309.88930937310903 # Ar
1991 1991 1 0.0 660.2362355101603 219.0590308580883 177.6781573773218 # Ar
1992 1992 1 0.0 382.78172414794216 304.66271438043196 679.4796285128555 # Ar
1993 1993 1 0.0 818.7956371919753 1177.3815019955948 438.02644787090344 # Ar
1994 1994 1 0.0 62.09243825828806 825.6698296385417 903.1448742450654 # Ar
1995 1995 1 0.0 116.93959661672548 1157.6821666291712 12.904070645072206 # Ar
1996 1996 1 0.0 884.4572802152114 764.5429873644837 9.31262515683699 # Ar
1997 1997 1 0.0 1138.6385750827067 1215.872445558588 364.0520552400793 # Ar
1998 1998 1 0.0 1104.4840832024968 20.219152200094644 1216.9046961323234 # Ar
1999 1999 1 0.0 473.15194227670935 827.5849238912391 502.6014239974279 # Ar
2000 2000 1 0.0 131.28708095784864 298.49148598778436 644.4571760511052 # Ar
