LAMMPS data file -- atom_style full -- generated by chemfiles
150 atoms
0 bonds
0 angles
0 dihedrals
0 impropers
2 atom types
0 bond types
0 angle types
0 dihedral types
0 improper types
0.00000000 1566.48599 xlo xhi
0.00000000 1566.48599 ylo yhi
0.00000000 1566.48599 zlo zhi

# Pair Coeffs
# 1 Ar
# 2 Ar+

Masses

1 39.948 # Ar
2 39.948 # Ar+

Atoms # full

1 1 1 0.0 266.9300063418325 418.53242037804335 1498.1991973578176 # Ar
2 2 1 0.0 1360.1645137005935 283.3293576275771 666.9513195733383 # Ar
3 3 1 0.0 944.573958985459 282.3666584602547 1263.3307711440154 # Ar
4 4 1 0.0 313.454094670524 95.42803498987297 1194.691197383669 # Ar
5 5 1 0.0 1505.613691419624 60.836353630421776 1205.9727459973515 # Ar
6 6 1 0.0 166.82617334088798 1291.7088950023674 667.2756780896682 # Ar
7 7 1 0.0 915.815850433624 1498.890597830297 1363.590841046299 # Ar
8 8 1 0.0 1325.282996254841 633.8776155087786 782.2983411753391 # Ar
9 9 1 0.0 1120.8049175095457 1384.7077872860177 562.56249511447 # Ar
10 10 1 0.0 838.3549243025028 503.0247310763915 795.3795617016782 # Ar
11 11 1 0.0 462.1510712389375 1046.7139216625822 1095.2005463194002 # Ar
12 12 1 0.0 1092.001845347746 1531.1571410421661 1496.8356778507207 # Ar
13 13 1 0.0 482.6994262712605 718.8093921766758 628.670879190428 # Ar
14 14 1 0.0 1490.9864336512435 77.14748788679408 1477.832489788616 # Ar
15 15 1 0.0 1133.5642145797124 495.2356037289653 357.65930893638176 # Ar
16 16 1 0.0 865.7459383308126 1160.0008672416761 249.88988860436743 # Ar
17 17 1 0.0 318.60146458640156 1317.0069570590902 918.1761334297684 # Ar
18 18 1 0.0 422.32501952187533 699.6955672375251 623.590646977278 # Ar
19 19 1 0.0 653.172760442962 1468.9697901172592 375.362019202363 # Ar
20 20 1 0.0 588.5258911245651 703.49470943545 684.0885892334694 # Ar
21 21 1 0.0 953.1838328157587 762.9816858166431 267.01581480305657 # Ar
22 22 1 0.0 1467.3800294014288 353.2115234459944 1353.6362619169172 # Ar
23 23 1 0.0 55.78321871511006 1098.0084213233454 288.44703959834237 # Ar
24 24 1 0.0 355.353024165347 1133.74963636592 358.2708310895345 # Ar
25 25 1 0.0 743.528543548545 1263.6895886446432 171.6043545632157 # Ar
26 26 1 0.0 1049.128734558844 181.103435960218 1085.189346894404 # Ar
27 27 1 0.0 1011.3413357345373 479.4054093020117 237.5771140411105 # Ar
28 28 1 0.0 934.8008912280386 1033.9223792230987 1157.0977260165334 # Ar
29 29 1 0.0 1197.886581898496 381.4934250779277 1312.9891302476065 # Ar
30 30 1 0.0 1212.7905289921162 449.1229630852521 1372.5688771277205 # Ar
31 31 1 0.0 546.6422690614422 551.3836884126248 231.4547753688198 # Ar
32 32 1 0.0 1355.0206341986934 11.813076396775179 182.75441839975107 # Ar
33 33 1 0.0 382.42596349106987 140.22509886282614 906.0220142223351 # Ar
34 34 1 0.0 887.2416142624337 435.0309768862563 1485.5627099066699 # Ar
35 35 1 0.0 1443.3633627753775 1255.525010102033 1231.0499434873618 # Ar
36 36 1 0.0 453.14948604796837 689.8798824029385 974.7520869424422 # Ar
37 37 1 0.0 854.3771623546497 820.4912048826117 1201.6192439330036 # Ar
38 38 1 0.0 46.859601670637666 723.6708981350042 714.9587965910265 # Ar
39 39 1 0.0 124.94672690324492 330.88341262568736 1511.3617138701002 # Ar
40 40 1 0.0 432.8059684341636 590.5758565136963 528.2986876614704 # Ar
41 41 1 0.0 813.1370607962532 1004.0058210701998 1484.4601889505511 # Ar
42 42 1 0.0 1174.3462056926217 193.51433141812737 856.4939173091394 # Ar
43 43 1 0.0 261.46439039730353 531.9042339362474 1143.4074986077621 # Ar
44 44 1 0.0 632.9579651471398 789.0201109847736 295.4266782870572 # Ar
45 45 1 0.0 1320.1392553822614 1199.1546315722946 648.928017985261 # Ar
46 46 1 0.0 1323.3786543593478 35.52614523685672 1244.8118394363182 # Ar
47 47 1 0.0 685.6778245814415 891.6616557521311 40.55237743815021 # Ar
48 48 1 0.0 796.8114461374739 1006.9654435511973 242.17104026650225 # Ar
49 49 1 0.0 557.2467962865334 1202.1626740256988 1405.3158101730894 # Ar
50 50 1 0.0 615.7712057475447 220.2771602289318 1092.9118602958226 # Ar
51 51 1 0.0 1376.457667419829 28.684950112909952 1204.8989914234076 # Ar
52 52 1 0.0 531.9387298285089 520.7756666036767 465.19651941720537 # Ar
53 53 1 0.0 143.32334909580575 340.270725094135 1465.9896892303495 # Ar
54 54 1 0.0 1525.2240666013934 1247.5861543293347 1286.4245517931656 # Ar
55 55 1 0.0 927.5266144118657 1388.1733486554585 1540.1580164019915 # Ar
56 56 1 0.0 1336.542101934562 1111.791556332167 1181.1457306615234 # Ar
57 57 1 0.0 1553.988901279179 513.276900887552 1416.102934048612 # Ar
58 58 1 0.0 353.8287544170091 793.8882865564491 1311.5588803586577 # Ar
59 59 1 0.0 280.1914456076982 267.9468057181155 10.507735512692449 # Ar
60 60 1 0.0 107.65191686751854 33.856700400556015 1434.854510221775 # Ar
61 61 2 0.0 1162.7416322887334 1175.7875469382457 1388.9589742305986 # Ar+
62 62 2 0.0 904.1057563204189 619.0169256800637 826.4535167597911 # Ar+
63 63 2 0.0 473.6691170903391 803.3803834059049 645.5141638136664 # Ar+
64 64 2 0.0 1337.8319880833778 531.5497273983497 1201.8078615720976 # Ar+
65 65 2 0.0 559.9820231896798 1233.5908442438651 553.2949315223336 # Ar+
66 66 2 0.0 1003.7860079912731 148.81926327690235 1252.3338922806813 # Ar+
67 67 2 0.0 1360.666604307589 1238.839523547049 716.2384230500744 # Ar+
68 68 2 0.0 444.77245463323135 386.7570063560337 250.49168420780455 # Ar+
69 69 2 0.0 768.8601158487791 108.51610192472963 1015.9730145054056 # Ar+
70 70 2 0.0 743.6446599892895 1281.5880610449512 460.47566674792506 # Ar+
71 71 2 0.0 262.99613420292343 13.22587043421147 174.92901997363143 # Ar+
72 72 2 0.0 416.83006745673043 570.7186149877865 1535.8737480721277 # Ar+
73 73 2 0.0 151.7152784987112 1025.473488994164 945.8772682875612 # Ar+
74 74 2 0.0 429.6454588189595 938.9053178462245 577.1826265449789 # Ar+
75 75 2 0.0 340.7403115521248 1079.3884095846747 242.28758668501504 # Ar+
76 76 2 0.0 653.1619015700534 1220.462759859945 664.250342767657 # Ar+
77 77 2 0.0 385.26717541286297 768.6064074481171 25.09626901496083 # Ar+
78 78 2 0.0 1047.8618017671754 312.3911820599707 1174.8976798874157 # Ar+
79 79 2 0.0 912.8125711755963 150.91651509179832 373.21763252416525 # Ar+
80 80 2 0.0 133.18965177578997 738.8766976208005 967.5472623338593 # Ar+
81 81 2 0.0 1529.9278657916507 803.3663165954853 375.7926737977155 # Ar+
82 82 2 0.0 630.5070038996012 213.97511578590263 856.076128031746 # Ar+
83 83 2 0.0 76.31003404740969 1058.16618896398 1050.1705128575857 # Ar+
84 84 2 0.0 1078.7578592383788 644.8961846700214 1104.205834731847 # Ar+
85 85 2 0.0 862.7809300300881 118.44972295314746 1289.995738630265 # Ar+
86 86 2 0.0 463.6116967970722 1072.9360924759822 42.64167697922468 # Ar+
87 87 2 0.0 39.05394035830797 1058.1255475181865 321.74453921124825 # Ar+
88 88 2 0.0 582.8575425683782 1319.9999615692113 1510.7762291820654 # Ar+
89 89 2 0.0 239.96188778074645 1016.0559671461582 867.1914754241617 # Ar+
90 90 2 0.0 1150.3307297351582 657.5550582582861 763.4543617235146 # Ar+
91 91 2 0.0 1370.5601094400392 257.29735077725076 87.18410506482317 # Ar+
92 92 2 0.0 701.5940353445247 1469.8195661320303 58.616860745624486 # Ar+
93 93 2 0.0 542.954226682003 557.3780202566554 120.52940136175604 # Ar+
94 94 2 0.0 436.59921724993995 399.5363740509468 526.0385336577713 # Ar+
95 95 2 0.0 101.91767680705055 1520.031006765782 1475.8701479650515 # Ar+
96 96 2 0.0 1057.6714769005955 755.5345648325065 53.51014067021374 # Ar+
97 97 2 0.0 829.9877687115002 1357.7443920205787 270.6330481396507 # Ar+
98 98 2 0.0 843.8107499207057 1189.204221723109 1451.356063628448 # Ar+
99 99 2 0.0 635.2749075949085 460.44478338208273 1495.7249946212476 # Ar+
100 100 2 0.0 32.49977159455753 264.9823124430409 874.5842856434832 # Ar+
101 101 2 0.0 635.1978260644445 182.8769622893344 359.69176341065844 # Ar+
102 102 2 0.0 365.94692871222645 321.00522840097017 575.6531676106024 # Ar+
103 103 2 0.0 144.3597971640366 1367.4099848476767 826.954660623703 # Ar+
104 104 2 0.0 1219.4847355899687 1484.7056102793556 890.1186436684 # Ar+
105 105 2 0.0 1301.6185145658526 1100.8800893137668 528.7403056550811 # Ar+
106 106 2 0.0 1563.8532005287645 1309.3794624590073 1356.8344862984625 # Ar+
107 107 2 0.0 1203.5594317599264 1536.9990406044276 1023.9810574881634 # Ar+
108 108 2 0.0 217.7597422226401 330.0413378016162 1375.054958676018 # Ar+
109 109 2 0.0 1437.2194405744985 16.257877290933187 972.33779351425 # Ar+
110 110 2 0.0 639.1283720143902 403.9395627401904 1454.4435691442686 # Ar+
111 111 2 0.0 190.41712325214823 1215.1061733278516 1198.8551170380395 # Ar+
112 112 2 0.0 819.8217670760093 1104.378707345621 989.6338438332562 # Ar+
113 113 2 0.0 192.52204659585837 79.94299144617564 276.76177190310574 # Ar+
114 114 2 0.0 907.3336774336307 1305.9932166407189 1290.6652053052676 # Ar+
115 115 2 0.0 491.0230575129206 384.2553375061875 1458.0402372583633 # Ar+
116 116 2 0.0 1157.2766213461489 211.67801215812244 1149.0968113897245 # Ar+
117 117 2 0.0 50.37877482981102 1554.818351127941 270.53753105463494 # Ar+
118 118 2 0.0 1107.3502518714995 276.16849965939036 1426.685973913694 # Ar+
119 119 2 0.0 1006.8899804884564 1232.9091809586562 1511.2958403587652 # Ar+
120 120 2 0.0 474.879956396901 656.5500818301341 331.2355770543084 # Ar+
121 121 2 0.0 1501.6943605679967 954.1901142200663 566.3779868047438 # Ar+
122 122 2 0.0 434.3583296726564 781.1285160575967 819.1402546553137 # Ar+
123 123 2 0.0 44.76157714468367 1295.2479481307032 983.9261231507137 # Ar+
124 124 2 0.0 225.5583962840039 537.6200747199621 1271.3847592780642 # Ar+
125 125 2 0.0 1083.422926575296 18.980481080898528 240.72566400754638 # Ar+
126 126 2 0.0 357.8696267894577 32.12183191731392 1541.0741282694344 # Ar+
127 127 2 0.0 719.75742017603 1450.0475672290593 381.07709978427346 # Ar+
128 128 2 0.0 889.3848037847727 15.587527252689336 1389.8860486409326 # Ar+
129 129 2 0.0 99.05193161067884 730.2773882741831 236.2104076893719 # Ar+
130 130 2 0.0 166.5816881201213 556.3465874667053 500.6008449377781 # Ar+
131 131 2 0.0 866.0349887376524 332.2189302728774 294.4131220102621 # Ar+
132 132 2 0.0 350.43973756120124 609.4302582844242 587.1216299309095 # Ar+
133 133 2 0.0 214.48025884554696 304.4010302081601 224.12689166920023 # Ar+
134 134 2 0.0 209.15104991946853 1169.465282313895 1028.273524405742 # Ar+
135 135 2 0.0 276.7841534075941 650.9021019428782 1342.459110472416 # Ar+
136 136 2 0.0 270.7792301944415 218.2780108936851 322.89313559041796 # Ar+
137 137 2 0.0 1354.216730869843 256.80308249309394 485.7658931749591 # Ar+
138 138 2 0.0 1179.7990513673415 800.5192414365093 1458.0373468281587 # Ar+
139 139 2 0.0 315.9981690030201 1215.0043676789692 666.0793778468274 # Ar+
140 140 2 0.0 848.2638128296161 1021.0153215941309 1499.5649119081856 # Ar+
141 141 2 0.0 350.00435023464064 612.076241927314 665.2466166350325 # Ar+
142 142 2 0.0 1489.96922196842 1505.5682167064035 1221.2226988139525 # Ar+
143 143 2 0.0 1375.6705612717321 73.7929178330575 13.263977794015208 # Ar+
144 144 2 0.0 1507.447833685143 1460.1393327796377 1346.379635965566 # Ar+
145 145 2 0.0 979.1940382395009 1295.0915277661725 408.7891954077683 # Ar+
146 146 2 0.0 1553.124649701577 25.21025771467663 1160.9041116942283 # Ar+
147 147 2 0.0 86.54915207015074 663.0050602657857 240.0387281624532 # Ar+
148 148 2 0.0 217.49761607901723 475.34856950758365 391.91509358690433 # Ar+
149 149 2 0.0 369.4746952318551 928.0803616152654 1544.5378306017572 # Ar+
150 150 2 0.0 86.61414289850131 934.6835633705481 1223.7993567454457 # Ar+
