LAMMPS data file -- atom_style full -- generated by chemfiles
2000 atoms
0 bonds
0 angles
0 dihedrals
0 impropers
1 atom types
0 bond types
0 angle types
0 dihedral types
0 improper types
0.00000000 1296.66827 xlo xhi
0.00000000 1296.66827 ylo yhi
0.00000000 1296.66827 zlo zhi

# Pair Coeffs
# 1 Ar

Masses

1 39.948 # Ar

Atoms # full

1 1 1 0.0 196.5320820813176 541.7677615371648 286.83287424220856 # Ar
2 2 1 0.0 1013.311513871256 1149.380458929879 682.5917500319902 # Ar
3 3 1 0.0 844.1741214066024 782.9508901497343 1094.873931451767 # Ar
4 4 1 0.0 719.0139437600959 631.3272909977421 764.5768406077484 # Ar
5 5 1 0.0 744.50636825452 163.10279024025888 804.639027464557 # Ar
6 6 1 0.0 958.2378119217126 60.305853562645716 830.0111937653661 # Ar
7 7 1 0.0 250.58930883559978 162.79641204612724 1008.9123705884768 # Ar
8 8 1 0.0 250.89100489674706 602.4733617517312 1214.820066209128 # Ar
9 9 1 0.0 1094.9761076270768 610.8179994505023 85.14766391440101 # Ar
10 10 1 0.0 1276.154186225131 698.1814036747569 390.2316393836313 # Ar
11 11 1 0.0 1175.1524946979073 950.5313591720395 681.0367645825223 # Ar
12 12 1 0.0 449.6488765891471 993.8860823333818 1195.1856948381242 # Ar
13 13 1 0.0 660.8649709543577 642.9057138851974 1155.7956344523348 # Ar
14 14 1 0.0 167.15869556979453 194.4281465711705 66.32550383847298 # Ar
15 15 1 0.0 907.2300453813061 1255.1711721232593 1088.8694813285056 # Ar
16 16 1 0.0 354.0866329830812 97.60554721174506 390.09787719442846 # Ar
17 17 1 0.0 1017.315106112629 784.9710463935559 627.6016015693102 # Ar
18 18 1 0.0 569.9800176429763 665.5397707360208 1184.3836160486633 # Ar
19 19 1 0.0 240.5724091397347 964.0392163643778 253.4902458221783 # Ar
20 20 1 0.0 181.10927843704343 1237.1898428996333 611.2726560521635 # Ar
21 21 1 0.0 442.8676961252378 456.15381282994474 1168.3493337819505 # Ar
22 22 1 0.0 54.879873194820455 1295.1910347435503 1166.4774554587789 # Ar
23 23 1 0.0 1292.813576329421 798.1394253603531 1027.963587887098 # Ar
24 24 1 0.0 229.16770630250392 977.5417261553437 1043.1922701577275 # Ar
25 25 1 0.0 181.77141870125675 998.7517164884944 412.8430533958271 # Ar
26 26 1 0.0 733.4331918317524 656.860031760153 1213.5757856856449 # Ar
27 27 1 0.0 670.9202530484553 296.31842469435287 79.57103178306453 # Ar
28 28 1 0.0 934.3210438973964 644.1104677431981 555.0136749273855 # Ar
29 29 1 0.0 356.9686945331357 940.7380254354077 182.45487379057354 # Ar
30 30 1 0.0 301.26323491230136 674.0053590589378 342.757270514044 # Ar
31 31 1 0.0 780.0400558328283 1038.3270371007397 905.6688188706177 # Ar
32 32 1 0.0 1151.5886013631125 1154.2595298534407 584.9482487500568 # Ar
33 33 1 0.0 907.2911843264908 1129.917555579482 1113.0791887943906 # Ar
34 34 1 0.0 1047.0893064488162 58.073744222963604 846.2542121633521 # Ar
35 35 1 0.0 893.7258985666151 445.3095236636764 1245.0569196888684 # Ar
36 36 1 0.0 606.677854621532 975.6236083507605 910.0005485444988 # Ar
37 37 1 0.0 1147.5718525991326 262.3978561673042 689.1331725598322 # Ar
38 38 1 0.0 650.1233475833334 907.334670884112 857.088093040074 # Ar
39 39 1 0.0 1246.6918995025844 887.6534282510574 1281.993589017169 # Ar
40 40 1 0.0 879.1768175138657 669.4614169655472 578.5700062772587 # Ar
41 41 1 0.0 882.1850172585489 56.25923994729334 1048.6390463255284 # Ar
42 42 1 0.0 1269.4704647150404 90.5705451946277 1264.5018729278115 # Ar
43 43 1 0.0 845.1150499594443 284.928391054297 742.5355272043016 # Ar
44 44 1 0.0 572.8557026503621 954.2250906646155 654.0971709215426 # Ar
45 45 1 0.0 746.3601574483724 716.8842531053951 1172.2625863155108 # Ar
46 46 1 0.0 137.38430444614048 1279.9152058163095 445.95028107133885 # Ar
47 47 1 0.0 1180.8851746466353 1121.4304778581215 116.58567552121109 # Ar
48 48 1 0.0 1144.7820533330641 206.40315217953702 667.9418729234826 # Ar
49 49 1 0.0 603.4554836365785 997.6340777066545 734.908170361897 # Ar
50 50 1 0.0 959.8883978171814 99.58077017968458 833.8377880657123 # Ar
51 51 1 0.0 722.4299058244776 1007.0770998270037 96.56550852551615 # Ar
52 52 1 0.0 799.868397868518 29.551088165713285 7.110932769976696 # Ar
53 53 1 0.0 552.6188107467924 652.0981134839012 615.5136676447487 # Ar
54 54 1 0.0 326.13138190496534 819.742814897297 802.8912422375953 # Ar
55 55 1 0.0 780.7992259514454 601.9676199793229 132.8673620276784 # Ar
56 56 1 0.0 68.54803647516013 187.93786495468768 55.53285998383653 # Ar
57 57 1 0.0 853.3387578263544 712.996225443266 387.21107319169073 # Ar
58 58 1 0.0 491.37728294163077 346.4905011731956 1246.4010613937612 # Ar
59 59 1 0.0 115.85152115006515 976.4962550907961 329.4783160140957 # Ar
60 60 1 0.0 16.795697322894693 317.43466347639543 146.47348811879644 # Ar
61 61 1 0.0 135.9610793772899 301.70416790751517 528.8580204379776 # Ar
62 62 1 0.0 731.1879826372373 956.0539436355862 1277.504544766094 # Ar
63 63 1 0.0 306.6086365000189 305.9036623336814 998.587649920593 # Ar
64 64 1 0.0 290.0518399565201 155.78725715499618 672.3071037778809 # Ar
65 65 1 0.0 429.7608287258347 526.7768223790681 218.97487894414314 # Ar
66 66 1 0.0 807.9026699221508 27.14159418811563 1084.2841263884093 # Ar
67 67 1 0.0 16.486452145446172 1283.7519135167026 529.16664157539 # Ar
68 68 1 0.0 122.30258980265116 185.05419197081625 1250.2343904206816 # Ar
69 69 1 0.0 263.3618264332015 555.2856787021279 866.3191541849892 # Ar
70 70 1 0.0 1009.0085788210392 157.1614255882568 351.02288917968843 # Ar
71 71 1 0.0 676.249226266341 658.1295627906334 77.06608674721244 # Ar
72 72 1 0.0 318.50557435898645 648.5828534603477 210.28437950248 # Ar
73 73 1 0.0 1208.9256863654068 1186.2403134193396 866.9557544747221 # Ar
74 74 1 0.0 276.41942179890344 812.7602763506201 738.547928994288 # Ar
75 75 1 0.0 731.5666663084846 1269.6383370508483 1065.314961011349 # Ar
76 76 1 0.0 660.0908868871442 301.1315699022643 70.00439756596242 # Ar
77 77 1 0.0 553.0264199973477 772.9468174380881 353.24958846262547 # Ar
78 78 1 0.0 227.22097556102588 1135.4695593648007 732.5449685435246 # Ar
79 79 1 0.0 639.9119482811371 615.4922931015849 193.72846574093157 # Ar
80 80 1 0.0 1051.4539533973405 1218.3881581121855 1055.2765998267976 # Ar
81 81 1 0.0 1157.791479213228 514.7343954508226 771.5785279047794 # Ar
82 82 1 0.0 233.8606529764929 694.1166355867357 799.5300716236856 # Ar
83 83 1 0.0 595.3801056963196 993.902315589933 169.82127462442054 # Ar
84 84 1 0.0 142.10533143782442 1168.026580101931 798.9680083077063 # Ar
85 85 1 0.0 325.05990108922396 117.61705111761472 778.1045505077409 # Ar
86 86 1 0.0 185.0521162566578 881.136022354843 1203.260778532405 # Ar
87 87 1 0.0 710.7896854073133 248.87641849792197 602.9459171048255 # Ar
88 88 1 0.0 132.52532187502558 987.7190275633584 31.33442958026998 # Ar
89 89 1 0.0 1253.5273379454736 1210.4475558874049 896.4853102733844 # Ar
90 90 1 0.0 275.16411979788535 1030.0403086693152 835.8940098157325 # Ar
91 91 1 0.0 59.6201089754608 1069.5310743501766 8.495489560772231 # Ar
92 92 1 0.0 1070.966307157678 720.6131591599246 219.4508214811493 # Ar
93 93 1 0.0 61.46677024127536 219.53058156643314 1050.1531952596033 # Ar
94 94 1 0.0 281.54377520224887 1084.2630393493625 1113.484780037999 # Ar
95 95 1 0.0 634.1067094693024 42.65244432770704 293.6154940817132 # Ar
96 96 1 0.0 377.2419344934354 328.51426695628527 296.7790115375043 # Ar
97 97 1 0.0 974.0077754824152 1063.3074977519457 458.6863279169425 # Ar
98 98 1 0.0 881.7695011523807 503.9038001826879 423.1709930206432 # Ar
99 99 1 0.0 834.1722536786712 29.527720592192427 144.85134654297968 # Ar
100 100 1 0.0 192.09979100493672 869.6557109409234 782.1037027909039 # Ar
101 101 1 0.0 253.145907136601 1231.6262766684072 373.31445933730674 # Ar
102 102 1 0.0 1150.3201539224867 1256.7688361495104 1252.0153712440945 # Ar
103 103 1 0.0 1237.4874409531353 1140.966461376975 68.86219330987211 # Ar
104 104 1 0.0 667.3250999541508 981.1556566300096 938.1198541492406 # Ar
105 105 1 0.0 460.7860253785568 651.4320322484069 586.2712216217271 # Ar
106 106 1 0.0 414.9752129292442 285.77657610499546 858.9605371799765 # Ar
107 107 1 0.0 353.686488475389 162.30310300457825 988.7745737455921 # Ar
108 108 1 0.0 1063.9040999473536 605.9787817485302 277.6094272203049 # Ar
109 109 1 0.0 129.55331474737125 562.3720416957563 1135.9426208875786 # Ar
110 110 1 0.0 346.89966883297814 325.2263477425037 1136.8446213390284 # Ar
111 111 1 0.0 1130.2812233120267 0.37124927388385237 1165.9931727921194 # Ar
112 112 1 0.0 646.5272891247884 548.2115753161553 1161.446062975972 # Ar
113 113 1 0.0 260.6940273117273 345.26885191251563 1258.5682638599512 # Ar
114 114 1 0.0 653.174768288169 94.70382437050738 1113.9204118551063 # Ar
115 115 1 0.0 673.4093950366885 132.805023510029 120.86539411907198 # Ar
116 116 1 0.0 315.8935878788276 41.76328204438388 452.6969721517618 # Ar
117 117 1 0.0 763.9338151827683 379.75394998285526 883.1554615389568 # Ar
118 118 1 0.0 1092.3924951338993 1065.398934772424 189.4069379345144 # Ar
119 119 1 0.0 525.6700845062174 1135.9110420080394 183.57580176854444 # Ar
120 120 1 0.0 84.08086153778166 808.8055087544951 582.1810198067859 # Ar
121 121 1 0.0 414.34762739505635 872.4523547321744 198.8338173224678 # Ar
122 122 1 0.0 112.12762839186658 476.6681999854289 204.09754810183554 # Ar
123 123 1 0.0 413.8363358705344 123.63630564135133 1138.5151512266325 # Ar
124 124 1 0.0 744.4368264608034 1168.507801979894 308.43980319014366 # Ar
125 125 1 0.0 915.3029581381938 1183.8952122009375 1151.1493104358176 # Ar
126 126 1 0.0 97.8858948562871 252.1164698655708 935.8925138925156 # Ar
127 127 1 0.0 105.6849889897448 600.9919965431899 100.40115176495713 # Ar
128 128 1 0.0 406.4992180292591 992.7395856637945 1233.8929056068744 # Ar
129 129 1 0.0 295.81875870776105 919.9837954311348 246.70238627590996 # Ar
130 130 1 0.0 67.3071267054652 522.4557198314224 77.07514381522451 # Ar
131 131 1 0.0 96.0835374505238 1010.4780534238145 1172.0562678402698 # Ar
132 132 1 0.0 307.28166733083975 693.0273061787661 1271.9622580294372 # Ar
133 133 1 0.0 781.515135650399 295.9095010849133 663.6898366561555 # Ar
134 134 1 0.0 723.5233584388138 40.94154143298795 1261.8953357859318 # Ar
135 135 1 0.0 118.46117518319389 298.5747569946042 735.4567153426643 # Ar
136 136 1 0.0 17.131283077050583 193.36857402166038 106.17628475650189 # Ar
137 137 1 0.0 743.5197381020347 667.0460509198334 133.76155146916474 # Ar
138 138 1 0.0 1061.2229985136967 1177.1075272230373 98.20591732467203 # Ar
139 139 1 0.0 381.5130796088303 763.2976706651913 633.9469720926727 # Ar
140 140 1 0.0 279.22135466395406 1031.68024952391 248.86980763924703 # Ar
141 141 1 0.0 1217.4955721864928 953.3231644759704 240.83971281106764 # Ar
142 142 1 0.0 697.3959159883805 1089.1848316680455 848.8202406938135 # Ar
143 143 1 0.0 300.6565784090514 965.1107419562481 882.6653883237935 # Ar
144 144 1 0.0 878.325415009641 521.886977869581 756.6639879452449 # Ar
145 145 1 0.0 326.4242007596826 536.1137978639608 626.230961317955 # Ar
146 146 1 0.0 1096.9674198596163 209.335429085501 966.4315790072613 # Ar
147 147 1 0.0 593.4731025535604 910.6228644605358 1016.715200281767 # Ar
148 148 1 0.0 484.6221757928539 950.5933446048126 395.90142593258975 # Ar
149 149 1 0.0 154.22131187554658 989.7489253965078 1014.5563246117827 # Ar
150 150 1 0.0 224.97183149687356 606.5091067207342 363.30083988656617 # Ar
151 151 1 0.0 119.85074997875986 871.8148423954011 202.3510601812487 # Ar
152 152 1 0.0 1099.1119034545277 544.5538188769633 408.4313577653241 # Ar
153 153 1 0.0 298.46411363249234 848.7094224349502 900.0688092448023 # Ar
154 154 1 0.0 584.3230830605462 1166.1698195961717 1206.6696842077959 # Ar
155 155 1 0.0 1060.2264079561899 74.38132622671164 770.6798048499369 # Ar
156 156 1 0.0 407.528131855839 279.59335449981984 719.1134461973345 # Ar
157 157 1 0.0 923.2609120014032 879.0919260194495 560.1071839584188 # Ar
158 158 1 0.0 497.88940779694934 56.401436258603624 1012.4179490043228 # Ar
159 159 1 0.0 333.4573249172414 640.0889744868421 1271.2863715329772 # Ar
160 160 1 0.0 197.00458048278858 891.2814907907468 964.2028597827414 # Ar
161 161 1 0.0 956.8135137690273 804.0370170181254 739.5989483186718 # Ar
162 162 1 0.0 33.65233474068722 476.17317581247937 1141.5337747701587 # Ar
163 163 1 0.0 207.11386330560615 1061.1035650516426 828.7636090581017 # Ar
164 164 1 0.0 1225.8581003289223 52.82096648237187 253.30930477469678 # Ar
165 165 1 0.0 199.3076500415957 913.1937982161659 885.1484240004721 # Ar
166 166 1 0.0 547.2259635439195 558.1795359458604 1088.4091657785516 # Ar
167 167 1 0.0 343.2355333637385 1117.268306077288 495.2600555635487 # Ar
168 168 1 0.0 687.6441457965162 1016.2391897858913 312.3189929523481 # Ar
169 169 1 0.0 246.81119019422394 288.7329827807176 1008.6894184769849 # Ar
170 170 1 0.0 152.90820702603966 810.3376749743462 318.41361935695636 # Ar
171 171 1 0.0 675.798358857924 1233.3779341728791 627.6465665306074 # Ar
172 172 1 0.0 409.105519153723 912.4490379880646 1022.1508683149004 # Ar
173 173 1 0.0 138.804280027907 674.2549044593701 44.767864528718604 # Ar
174 174 1 0.0 1072.1471628376003 118.90676948662592 1208.8971640812272 # Ar
175 175 1 0.0 682.8152363813929 1198.0293299836515 196.46455208576623 # Ar
176 176 1 0.0 128.55111827096533 1288.7865643910857 1197.606310758597 # Ar
177 177 1 0.0 349.4369322128396 114.88131680796522 260.3503862122443 # Ar
178 178 1 0.0 928.2512814263205 1243.4576325784194 181.05200116490062 # Ar
179 179 1 0.0 90.26070249874739 742.4517866405928 1221.4661959701507 # Ar
180 180 1 0.0 1185.3242446310483 1163.8849402515364 902.2175712777009 # Ar
181 181 1 0.0 1007.458722778211 1194.9039259488247 510.5138267647953 # Ar
182 182 1 0.0 84.8168110988899 1248.8898247142329 722.9139525639619 # Ar
183 183 1 0.0 468.33584650185986 28.582005038504278 573.2520498865758 # Ar
184 184 1 0.0 846.4029940266743 264.10893521314443 867.4503423796359 # Ar
185 185 1 0.0 302.28866757388676 923.2149869157894 1022.9271111663595 # Ar
186 186 1 0.0 258.5310806761054 44.65966434911004 1094.221845428168 # Ar
187 187 1 0.0 668.2893492133178 837.0806729493033 897.3164789897467 # Ar
188 188 1 0.0 354.9096443104162 206.45069520085124 487.72926817596766 # Ar
189 189 1 0.0 752.9789835594147 749.6010609164629 205.27335829536074 # Ar
190 190 1 0.0 661.7491465089025 634.4772946529172 423.44809580674763 # Ar
191 191 1 0.0 852.6441354091066 903.7254743237061 675.5905867680565 # Ar
192 192 1 0.0 573.2041249020834 1204.0331099764326 996.1452717177987 # Ar
193 193 1 0.0 308.9397708878919 1161.4093592259574 1199.805129571961 # Ar
194 194 1 0.0 924.3366365401499 785.9012076852104 952.8202807061657 # Ar
195 195 1 0.0 315.39862078542643 355.1856156097718 749.5553426589474 # Ar
196 196 1 0.0 549.2315454956575 82.63061442007493 469.7475311242444 # Ar
197 197 1 0.0 881.7567831505813 789.7441162783415 1177.741643116347 # Ar
198 198 1 0.0 883.2965557283516 856.4626754752094 12.218867333286877 # Ar
199 199 1 0.0 528.5098875863824 1168.830605058015 15.121735160486926 # Ar
200 200 1 0.0 1024.2185127957068 368.22034328326424 459.4576557927596 # Ar
201 201 1 0.0 107.00799246643905 711.0378012443591 783.7166633838149 # Ar
202 202 1 0.0 1290.9838965145545 1077.5306721024435 1143.990162719411 # Ar
203 203 1 0.0 629.6733899812427 1210.5556032208056 1051.6502179559939 # Ar
204 204 1 0.0 825.93801500387 484.95241393600156 982.0070502045419 # Ar
205 205 1 0.0 79.35828016482846 1099.1560068277786 914.5484091307968 # Ar
206 206 1 0.0 626.689837794692 303.1596634474324 119.80966114789346 # Ar
207 207 1 0.0 241.76061050906634 1133.4577103996487 150.50995836292842 # Ar
208 208 1 0.0 964.2010336775445 780.8374460321669 1207.7609747093795 # Ar
209 209 1 0.0 940.6021787640016 332.9007849646376 675.7630791922797 # Ar
210 210 1 0.0 387.1383828343363 1069.9114437554633 295.88310444593924 # Ar
211 211 1 0.0 934.4746236903354 362.1065755913163 207.5264121405979 # Ar
212 212 1 0.0 1201.8481163210172 964.53564582894 289.271226040901 # Ar
213 213 1 0.0 189.41163183609314 909.6040326825984 400.27729908932025 # Ar
214 214 1 0.0 590.5597748059224 978.1534483710838 1135.1809984142826 # Ar
215 215 1 0.0 824.365972327936 433.5321520547634 1058.404629977823 # Ar
216 216 1 0.0 31.91863773844577 430.5157075473398 584.785223898578 # Ar
217 217 1 0.0 848.1201442187515 1068.0259887193358 153.79356070719243 # Ar
218 218 1 0.0 1292.6260555061313 1294.3517224119532 645.858613169453 # Ar
219 219 1 0.0 81.92528066886412 434.6801404428755 1076.3310023835265 # Ar
220 220 1 0.0 941.8914457163914 586.1667846962711 731.2289527383617 # Ar
221 221 1 0.0 1249.7762355193954 876.1482280211113 476.2111350149519 # Ar
222 222 1 0.0 12.480290468047881 1008.3614302883484 955.4672994851065 # Ar
223 223 1 0.0 269.4621430858314 1284.5045788073085 244.3659579875185 # Ar
224 224 1 0.0 1116.5050690212313 865.7663420244448 932.4489295408034 # Ar
225 225 1 0.0 746.5651316273651 139.1157346421932 827.010622361356 # Ar
226 226 1 0.0 89.77568135107762 682.096015672317 1228.7195078407115 # Ar
227 227 1 0.0 182.2506237443619 129.03900357471494 957.3261019489856 # Ar
228 228 1 0.0 30.70683980709608 887.8598650169595 73.48258501773518 # Ar
229 229 1 0.0 550.559852752844 222.1010923949395 1296.210082535598 # Ar
230 230 1 0.0 599.7304242523054 1139.5941450559833 627.414174318236 # Ar
231 231 1 0.0 1272.2466852551665 834.8400688921911 405.49294339902343 # Ar
232 232 1 0.0 1062.920457683915 433.33149897409044 1180.9781899875304 # Ar
233 233 1 0.0 1106.23929676698 605.5069564431756 1133.0964682835963 # Ar
234 234 1 0.0 253.03923073687255 855.5759550456141 1296.2240943061017 # Ar
235 235 1 0.0 421.596807521454 1033.1805190766765 801.8466875695581 # Ar
236 236 1 0.0 601.393190753948 673.6110503995903 631.259798678211 # Ar
237 237 1 0.0 637.616524662382 600.8227542552303 224.90804146186505 # Ar
238 238 1 0.0 182.7225250867826 583.6135491018142 1127.0498698237654 # Ar
239 239 1 0.0 1230.7938235341398 895.4795149197797 385.121267796446 # Ar
240 240 1 0.0 1153.6633604390822 1227.5425755025528 1099.0363655090287 # Ar
241 241 1 0.0 569.9509442327033 575.4912755444141 771.8025264310079 # Ar
242 242 1 0.0 301.98591019188717 390.77158762080177 510.09988052293113 # Ar
243 243 1 0.0 1023.112302035163 533.9450593532092 785.1304570694409 # Ar
244 244 1 0.0 937.1132808642102 120.546682692716 624.8595795326063 # Ar
245 245 1 0.0 964.2444530014876 1043.344449692982 724.943573517398 # Ar
246 246 1 0.0 1215.0759462907356 1179.7439016648293 158.60000698811874 # Ar
247 247 1 0.0 469.3571238408344 1135.3532850619147 570.1741665712204 # Ar
248 248 1 0.0 1065.091424284043 1062.6604736377465 945.7519156348407 # Ar
249 249 1 0.0 274.0584509449034 948.1765875485353 316.608823054335 # Ar
250 250 1 0.0 972.1259654725192 655.4715971153811 253.86201003583048 # Ar
251 251 1 0.0 1002.3167569288496 267.4199657687761 614.6829563732501 # Ar
252 252 1 0.0 834.4214393802177 874.803105365349 1256.1596229915883 # Ar
253 253 1 0.0 1106.0499636242962 253.06391961615077 1250.491564708847 # Ar
254 254 1 0.0 510.9579036078134 64.588762409811 1247.5476397803961 # Ar
255 255 1 0.0 273.49299793726124 711.5192404011045 642.6331078455889 # Ar
256 256 1 0.0 807.2975704127912 1251.5561113473898 389.63414351621327 # Ar
257 257 1 0.0 933.4633397182827 391.11638372835193 659.9451993395448 # Ar
258 258 1 0.0 1255.456466161678 396.4270651660938 1112.1748549700512 # Ar
259 259 1 0.0 1130.6832117518527 1161.253369804711 630.7108325453744 # Ar
260 260 1 0.0 34.20734291313406 686.8470168535475 195.65349151352046 # Ar
261 261 1 0.0 84.26789144435912 871.8520862294598 1254.4778973705088 # Ar
262 262 1 0.0 1221.7920852602567 623.758243109841 702.8649270981952 # Ar
263 263 1 0.0 492.4356479216167 790.4806303506327 168.94260149307317 # Ar
264 264 1 0.0 485.31729793405043 634.7579863174997 907.8312890411308 # Ar
265 265 1 0.0 795.3595938598111 806.9074379408509 1247.8592233563786 # Ar
266 266 1 0.0 380.7075449256846 1133.1498570222027 1136.518743317476 # Ar
267 267 1 0.0 843.9938153383299 1005.524676449657 1026.1206938613225 # Ar
268 268 1 0.0 1241.9203962038782 896.056037970329 115.89498633907246 # Ar
269 269 1 0.0 434.2857386701759 409.0449675333936 916.0498723514614 # Ar
270 270 1 0.0 399.9453084042963 573.9932846613584 1200.2897396342883 # Ar
271 271 1 0.0 1046.488269847528 993.7744089297099 585.8712329530724 # Ar
272 272 1 0.0 1263.1479931241693 1157.5587843518736 1026.6381975224754 # Ar
273 273 1 0.0 567.2720960335472 782.5331247098287 807.3335216089466 # Ar
274 274 1 0.0 48.019569731921735 246.32052168400944 849.1418304917273 # Ar
275 275 1 0.0 1028.4517154984303 879.1577026378508 427.37085724095 # Ar
276 276 1 0.0 148.30240457651695 53.94173745609009 1093.7715254635577 # Ar
277 277 1 0.0 1105.973833734828 422.7885266054945 270.3327589897215 # Ar
278 278 1 0.0 214.71962199708256 889.1410977837164 341.35468097905897 # Ar
279 279 1 0.0 551.2429515320795 887.2419299109313 994.8509923251654 # Ar
280 280 1 0.0 219.59115392075608 1017.6015368836853 1005.5249919534444 # Ar
281 281 1 0.0 59.37372285153011 831.7184709858271 176.3515110352308 # Ar
282 282 1 0.0 1285.5510417733785 1132.4999062873435 1073.813948834404 # Ar
283 283 1 0.0 960.9595201455811 29.271994355468387 1229.845366400402 # Ar
284 284 1 0.0 181.8035448414822 52.9614061524579 1233.1944514861505 # Ar
285 285 1 0.0 350.7226795779786 794.9497533943578 154.3947531431176 # Ar
286 286 1 0.0 789.2841947094798 856.0297310449114 902.0853814348864 # Ar
287 287 1 0.0 973.3460224355396 1068.0998613268284 199.96729465394014 # Ar
288 288 1 0.0 466.39026628398756 26.837046284462375 487.8884222846836 # Ar
289 289 1 0.0 1269.4117857096558 396.63035815860485 128.3591380610576 # Ar
290 290 1 0.0 27.78350316150943 1076.237820000581 322.36457771414064 # Ar
291 291 1 0.0 729.0008758251242 365.76808972841116 212.71919494959317 # Ar
292 292 1 0.0 293.6530344803249 204.6491646803341 855.4753329028216 # Ar
293 293 1 0.0 1203.0989273966443 659.7474551690933 302.2975413343313 # Ar
294 294 1 0.0 1164.0108440024817 866.6839953757734 660.5792384273021 # Ar
295 295 1 0.0 586.5237615046123 923.8787998284295 781.1030708010239 # Ar
296 296 1 0.0 979.2548432301803 1232.5098554871038 920.0520060770341 # Ar
297 297 1 0.0 976.8835229668812 277.46400097418666 904.1800660485484 # Ar
298 298 1 0.0 566.7606175328979 798.9165752210566 1070.5677813678062 # Ar
299 299 1 0.0 561.4477731582175 366.7841861947526 1167.891074650377 # Ar
300 300 1 0.0 1246.3611381495396 612.4926229819724 666.9651315935248 # Ar
301 301 1 0.0 820.3170603296736 512.3504585409953 946.4920914391137 # Ar
302 302 1 0.0 151.0407220274809 996.3143690026559 562.7068153217248 # Ar
303 303 1 0.0 302.5458818870206 955.168018204221 131.52641088710166 # Ar
304 304 1 0.0 20.632253226266137 1203.9614765968627 1158.1531210586304 # Ar
305 305 1 0.0 691.8815516418033 1103.19900998343 1225.6735728890817 # Ar
306 306 1 0.0 305.7668087720054 711.3501371996092 151.72078213407445 # Ar
307 307 1 0.0 194.3118665362016 742.8479853553686 743.6207993418057 # Ar
308 308 1 0.0 853.0969785145127 794.1280031362718 750.3896939319249 # Ar
309 309 1 0.0 1015.1177298144077 1249.250665376767 801.2646962845736 # Ar
310 310 1 0.0 682.680342285425 1220.9361534734642 189.5056789962675 # Ar
311 311 1 0.0 1292.5059578436494 22.15288175663351 702.4640630371758 # Ar
312 312 1 0.0 1229.5475618566827 100.95631239332242 195.33170175094455 # Ar
313 313 1 0.0 504.3996812749194 114.75842093600272 364.66489030912703 # Ar
314 314 1 0.0 262.308263906955 793.9393395983076 1246.4799288195852 # Ar
315 315 1 0.0 868.0527093052492 765.8855588381258 279.2846870091008 # Ar
316 316 1 0.0 775.9431627024286 137.45164488225672 990.3294627554369 # Ar
317 317 1 0.0 355.24992030535293 551.3708161114881 763.1582150431366 # Ar
318 318 1 0.0 1085.1221601828488 1239.147292996049 938.0986675069776 # Ar
319 319 1 0.0 720.5635687483045 894.286968838408 1257.1567958351043 # Ar
320 320 1 0.0 464.9773400122794 305.30406766129727 876.2999874775397 # Ar
321 321 1 0.0 1295.9246334902923 870.7323344043988 824.8971165180527 # Ar
322 322 1 0.0 580.5031395586693 1253.5493750912337 1047.4797264452948 # Ar
323 323 1 0.0 1224.1104558252084 952.4573359534531 1148.456145698747 # Ar
324 324 1 0.0 430.83326752384914 78.94919385460331 61.59388743910105 # Ar
325 325 1 0.0 255.2574783369397 536.8620576860385 642.0538727443178 # Ar
326 326 1 0.0 0.8668762199948582 1028.1580615626133 931.3266287815464 # Ar
327 327 1 0.0 69.11398285094009 1154.607935313792 1113.3457945125388 # Ar
328 328 1 0.0 506.6197064601379 1209.6119208919263 340.28841062668516 # Ar
329 329 1 0.0 490.1930104739823 351.78996703306666 589.0731000105948 # Ar
330 330 1 0.0 1046.2446630828615 834.8591062903031 3.008333246202065 # Ar
331 331 1 0.0 927.1299816890569 596.8414296371604 1273.9616358913274 # Ar
332 332 1 0.0 361.0602224237736 619.5362381353161 855.2953815649504 # Ar
333 333 1 0.0 174.6710002491219 163.1005532636138 965.7466656488531 # Ar
334 334 1 0.0 1160.8157199766265 707.3471446854973 288.0447568683214 # Ar
335 335 1 0.0 98.75688165863465 626.4227068719687 609.4978831971175 # Ar
336 336 1 0.0 659.5254033913476 933.321616492389 887.6794724922834 # Ar
337 337 1 0.0 1214.8876236326187 233.0159709854777 861.1723627857463 # Ar
338 338 1 0.0 443.9541848918458 373.5923883031364 687.5032219248635 # Ar
339 339 1 0.0 897.3370686581275 930.7282094255465 258.65688830951945 # Ar
340 340 1 0.0 570.6193482327554 31.075318794003294 139.93931756749168 # Ar
341 341 1 0.0 665.6500757785666 1064.8410552608698 581.1419299665114 # Ar
342 342 1 0.0 878.1069109948402 1.6815172641336567 507.15223542450497 # Ar
343 343 1 0.0 240.65852968405773 84.37966343947106 599.2745761006145 # Ar
344 344 1 0.0 785.7651226177768 311.84682271698955 1279.8868973144865 # Ar
345 345 1 0.0 1002.4552281428885 123.1261691785526 262.14876682622145 # Ar
346 346 1 0.0 1279.5047296036487 1290.7662542215871 250.34300069373901 # Ar
347 347 1 0.0 42.504912696798065 163.8721720566393 587.1110093012077 # Ar
348 348 1 0.0 1100.9234352282956 216.6788897295885 1200.4517968735256 # Ar
349 349 1 0.0 1287.1722565544849 118.48472556046906 78.4372946209966 # Ar
350 350 1 0.0 639.4546358344471 1235.0858969511153 189.55250513812035 # Ar
351 351 1 0.0 829.1240062277232 1113.1383070493866 307.48084120839655 # Ar
352 352 1 0.0 826.4826845363391 953.1697101419711 643.655924358348 # Ar
353 353 1 0.0 661.147912605823 690.0134398572937 949.1555411914411 # Ar
354 354 1 0.0 955.3433250109214 1156.5241902513344 931.1690299449086 # Ar
355 355 1 0.0 823.7165950375975 52.24076109180795 1268.746029149549 # Ar
356 356 1 0.0 197.17729185129522 34.942197669250795 992.1552712102516 # Ar
357 357 1 0.0 729.7991264668308 1122.0742668286855 388.43816670132514 # Ar
358 358 1 0.0 901.9196126238608 91.98378004616457 407.38186195077026 # Ar
359 359 1 0.0 1098.6808236879567 25.04955549813042 840.2350886598668 # Ar
360 360 1 0.0 778.2374793668289 599.5554676739102 129.54742619531717 # Ar
361 361 1 0.0 1268.4572578021236 457.9204205534865 458.47480577670717 # Ar
362 362 1 0.0 870.3002957742331 877.4234247362673 818.7376817454901 # Ar
363 363 1 0.0 524.6505535524999 1111.266272581761 1224.7889456397795 # Ar
364 364 1 0.0 1245.228095576776 1103.5891717772445 983.2099118747475 # Ar
365 365 1 0.0 56.9380220041687 544.7958375072434 370.9594051327181 # Ar
366 366 1 0.0 585.4760328629435 974.2872983160297 260.7009984326825 # Ar
367 367 1 0.0 677.7784428255213 535.9166720443261 235.10162117291782 # Ar
368 368 1 0.0 1280.8345516447612 963.3436068609868 742.7484799423793 # Ar
369 369 1 0.0 437.5489130122826 1178.433586093642 817.5623533016768 # Ar
370 370 1 0.0 188.73982343450223 438.6682445080311 863.0174764708688 # Ar
371 371 1 0.0 931.6410900892611 20.752036844672322 578.9983384121142 # Ar
372 372 1 0.0 1045.3266420131179 145.13227870145957 964.2106164830125 # Ar
373 373 1 0.0 572.9265546207057 997.5918639009609 1281.261349226761 # Ar
374 374 1 0.0 840.7537970373256 6.723138406255271 213.14819886751167 # Ar
375 375 1 0.0 861.1457077290947 217.68903098409777 754.4355021840488 # Ar
376 376 1 0.0 327.8015639393126 445.84871528335333 739.5366668272558 # Ar
377 377 1 0.0 937.263432516496 645.5362068241479 383.45784064530835 # Ar
378 378 1 0.0 666.3983607715395 625.02034625848 183.8476339931509 # Ar
379 379 1 0.0 753.2993881980436 220.5078632178285 524.1942508144059 # Ar
380 380 1 0.0 1157.99248503373 953.4556590273161 1080.178476230607 # Ar
381 381 1 0.0 349.82962115507144 337.992742609411 59.83359731608979 # Ar
382 382 1 0.0 213.95478506530557 407.6188372759716 496.34327864377923 # Ar
383 383 1 0.0 1042.4105366704844 900.1801570390564 321.27806484156685 # Ar
384 384 1 0.0 556.5026703180546 418.3851914525076 983.8017097976306 # Ar
385 385 1 0.0 787.5235377021061 1172.303456645242 477.46926674994984 # Ar
386 386 1 0.0 396.46467647141316 165.23618434015242 969.9854286047972 # Ar
387 387 1 0.0 1125.753216531128 371.3447562217108 960.1669876725263 # Ar
388 388 1 0.0 969.4562700286002 1208.9920882143617 598.7951165735974 # Ar
389 389 1 0.0 165.1441966478432 171.1124392039158 726.1381196947285 # Ar
390 390 1 0.0 426.0727944225816 875.1050958060133 877.6152881904954 # Ar
391 391 1 0.0 825.9828173940398 305.8264602803155 680.9732630647284 # Ar
392 392 1 0.0 499.5700425530397 922.9817030345223 767.8299761541872 # Ar
393 393 1 0.0 1011.7032771394545 216.99715896268552 380.32878193166636 # Ar
394 394 1 0.0 1250.5993435029275 836.5695578354458 675.9392551087503 # Ar
395 395 1 0.0 196.63343335615514 845.2370554894577 1238.8555860866131 # Ar
396 396 1 0.0 209.55734099328555 1204.129958404931 1273.0248567624278 # Ar
397 397 1 0.0 1020.8607880061425 169.70731552592883 501.43096207428664 # Ar
398 398 1 0.0 675.1850375574545 1005.3194562113598 427.7871733153031 # Ar
399 399 1 0.0 739.7041918298848 789.1906526408634 702.4347209584372 # Ar
400 400 1 0.0 228.17102331120475 804.1301136962426 710.0512749652273 # Ar
401 401 1 0.0 773.0821064365334 1192.6651304299658 940.9793446584146 # Ar
402 402 1 0.0 194.5442727530363 430.58390115800614 832.6007860646431 # Ar
403 403 1 0.0 174.44558641147816 1275.8518899843061 776.9456170451064 # Ar
404 404 1 0.0 313.9014029037211 655.4884523746076 671.4751123313487 # Ar
405 405 1 0.0 967.0785830949566 928.0873161846284 845.4459460937367 # Ar
406 406 1 0.0 356.7368478274119 246.03835160000656 994.3834610128412 # Ar
407 407 1 0.0 48.56458597293304 702.7846532340997 949.6827258236118 # Ar
408 408 1 0.0 823.3184970468783 1033.6686216103642 452.93430071616325 # Ar
409 409 1 0.0 1019.9923488816154 766.599565725381 279.1715147846263 # Ar
410 410 1 0.0 951.8443430233299 973.6417162690668 685.2401959201399 # Ar
411 411 1 0.0 518.7814062980077 610.1964260891392 920.2505518117978 # Ar
412 412 1 0.0 1029.5585026640667 760.3780698743167 391.85711927691943 # Ar
413 413 1 0.0 165.16684581943545 1026.2395247518457 1289.188056771347 # Ar
414 414 1 0.0 668.8807656196195 850.7734267105182 1097.2802650508029 # Ar
415 415 1 0.0 824.384502502624 1136.326259261118 388.2803646031505 # Ar
416 416 1 0.0 612.7683981603122 1234.8655285548125 907.0129630263777 # Ar
417 417 1 0.0 133.6448246168689 839.4778634628883 1209.816767886593 # Ar
418 418 1 0.0 697.2310580475503 579.1576422822013 980.3742368496255 # Ar
419 419 1 0.0 936.3621214390072 66.2682964967288 614.685108432884 # Ar
420 420 1 0.0 809.283685376794 1279.9746630774432 1206.8546766456209 # Ar
421 421 1 0.0 747.9778930565576 1251.7680195764674 909.5377640179438 # Ar
422 422 1 0.0 861.4309408592463 616.1190605808104 266.7243718184548 # Ar
423 423 1 0.0 922.4662909865214 539.8815491655982 744.178269464638 # Ar
424 424 1 0.0 87.15185813672396 783.0459801564098 651.6754738338442 # Ar
425 425 1 0.0 337.72573830084536 190.75292673859815 363.35951217563377 # Ar
426 426 1 0.0 984.6044054223935 511.28364471541954 50.83305965152666 # Ar
427 427 1 0.0 824.0625839875937 506.7291745243525 909.8025795138673 # Ar
428 428 1 0.0 1168.281948711724 329.98166882955223 915.4301846269736 # Ar
429 429 1 0.0 838.1426104595461 1272.6676003209127 1007.333173049449 # Ar
430 430 1 0.0 1113.9553354692137 713.507791240478 265.8592564275525 # Ar
431 431 1 0.0 793.6384660394395 691.4896284788929 741.0155694106271 # Ar
432 432 1 0.0 845.0572719555582 57.83892445766224 169.55119149267497 # Ar
433 433 1 0.0 12.00999256872782 346.68492644909236 499.2806472037996 # Ar
434 434 1 0.0 1217.1741765778597 54.50401934205701 174.1866831368201 # Ar
435 435 1 0.0 636.4083308661013 687.3982302966416 681.7415138613898 # Ar
436 436 1 0.0 1247.451792454037 513.0332797045392 574.4258510258343 # Ar
437 437 1 0.0 649.1751969822745 1070.1576834944728 216.74951830424888 # Ar
438 438 1 0.0 1156.6971350382616 726.9016120190354 333.303001613156 # Ar
439 439 1 0.0 192.7733930103266 957.9104249541577 174.0260453059149 # Ar
440 440 1 0.0 355.088587503388 635.3780148560703 568.6779300385646 # Ar
441 441 1 0.0 1261.0356058353752 795.2155528063 399.2297729092079 # Ar
442 442 1 0.0 758.5118229718345 702.6803374381956 540.876037583097 # Ar
443 443 1 0.0 360.76697480215273 1113.2735363512952 1230.6161728787738 # Ar
444 444 1 0.0 1204.0382234887595 277.06721851437237 304.04097350574636 # Ar
445 445 1 0.0 551.3879510993022 879.476583743408 1101.9231843037705 # Ar
446 446 1 0.0 301.1102422146326 313.5477278392509 900.2331102148426 # Ar
447 447 1 0.0 39.48333968874805 273.52719786675425 407.9460220520003 # Ar
448 448 1 0.0 76.3723816045166 1082.2653253319083 1238.6699287851352 # Ar
449 449 1 0.0 677.6638656392752 85.66457247635215 1135.3029158823056 # Ar
450 450 1 0.0 1192.4010813808336 38.33457192163488 1043.057075548567 # Ar
451 451 1 0.0 462.4305342828896 1057.8907906676745 415.586151497894 # Ar
452 452 1 0.0 624.4868433364403 706.8286553933754 1056.1423644264476 # Ar
453 453 1 0.0 1202.2627817794257 909.8842138525406 667.3763311669159 # Ar
454 454 1 0.0 877.9227051080604 463.9228266076773 20.11762635133207 # Ar
455 455 1 0.0 305.0972339087949 540.0648226422758 1272.0875536071128 # Ar
456 456 1 0.0 901.7536454498811 1018.1987891284922 524.2589252683148 # Ar
457 457 1 0.0 333.9114582640563 771.1649867735059 697.8483575844407 # Ar
458 458 1 0.0 564.2189041274289 1277.6413493655157 94.15071910165042 # Ar
459 459 1 0.0 199.01486566639625 459.3753391221026 486.64594335568665 # Ar
460 460 1 0.0 763.1028333371365 417.88438497755794 100.9588985421752 # Ar
461 461 1 0.0 1004.3181679726681 379.8279818947967 290.5304940200727 # Ar
462 462 1 0.0 1271.4442760111099 442.67045020729313 1163.8348173728587 # Ar
463 463 1 0.0 227.062205909373 888.4119327265118 1062.2307959747004 # Ar
464 464 1 0.0 1186.6667794178868 331.6374256092096 1068.8316979393153 # Ar
465 465 1 0.0 606.7132829215183 801.3308137831323 74.55443736755748 # Ar
466 466 1 0.0 625.6513552785858 762.8884027653611 216.84855280617708 # Ar
467 467 1 0.0 1050.9769824917676 97.6636306196221 2.5498373447277713 # Ar
468 468 1 0.0 1010.4605667326281 344.61259780613676 758.2383731511209 # Ar
469 469 1 0.0 1025.3203276655258 1147.1244479996826 1082.5620050802231 # Ar
470 470 1 0.0 137.0358771434089 41.98127563288377 134.20719490351598 # Ar
471 471 1 0.0 549.7022955435064 280.03103208088623 66.96022023792018 # Ar
472 472 1 0.0 611.8494598909057 428.55847176323266 277.21545140040615 # Ar
473 473 1 0.0 197.75014499954213 1055.0931896280404 1165.8692634566028 # Ar
474 474 1 0.0 152.14309287156334 209.39612244523713 1072.4846309724628 # Ar
475 475 1 0.0 210.42637661858183 222.9785261930944 364.3390523544874 # Ar
476 476 1 0.0 379.67288361135274 495.4865381058955 796.5098886530459 # Ar
477 477 1 0.0 465.72165928622195 1097.2025535608088 52.90256858596289 # Ar
478 478 1 0.0 309.14449947365506 951.6625115960366 1193.4752980306505 # Ar
479 479 1 0.0 476.3501761694268 886.8002751275799 207.11725547450013 # Ar
480 480 1 0.0 429.6567262433164 652.5095602238247 899.9543901909863 # Ar
481 481 1 0.0 328.58342024454896 946.9675092376318 244.57617859111662 # Ar
482 482 1 0.0 851.4530341692042 211.30058823236854 91.96706658850921 # Ar
483 483 1 0.0 258.4631625059861 534.1922421060336 815.1332102974117 # Ar
484 484 1 0.0 811.3149222430134 769.6507590559437 408.2266711439534 # Ar
485 485 1 0.0 341.7816526189063 730.8526892302906 1112.2849737139366 # Ar
486 486 1 0.0 912.462563377094 807.1328340246537 279.70550815858775 # Ar
487 487 1 0.0 745.089951783724 1003.0010179631021 111.602116268189 # Ar
488 488 1 0.0 1118.878990581157 810.6078963223159 1124.0889465410214 # Ar
489 489 1 0.0 603.9326390110888 575.6719691756128 1152.1425610559163 # Ar
490 490 1 0.0 503.7894112623476 1205.1237421128444 563.7732351292468 # Ar
491 491 1 0.0 246.65631492459607 276.9941296954179 743.0470499740916 # Ar
492 492 1 0.0 1261.0664088014814 1077.2798613261648 586.1955152189994 # Ar
493 493 1 0.0 826.8058412617636 1221.445202924867 853.7620266609597 # Ar
494 494 1 0.0 857.166275168568 1118.9728565292257 73.7890805060084 # Ar
495 495 1 0.0 705.0409534492278 452.20704138150865 1253.9392519504986 # Ar
496 496 1 0.0 716.5965747641378 334.96376692367807 1042.190569093324 # Ar
497 497 1 0.0 1016.0073311585508 1177.1101237285634 956.580941421165 # Ar
498 498 1 0.0 583.6256902048265 520.2286775694672 394.07576014737197 # Ar
499 499 1 0.0 117.14848756116474 292.53071636187605 261.66252322111495 # Ar
500 500 1 0.0 454.66122462669404 387.1024980639018 1118.3081232572267 # Ar
501 501 1 0.0 875.4702031566525 389.20128599013225 106.80864382346289 # Ar
502 502 1 0.0 1066.5012651590769 799.0886296564456 919.446879659768 # Ar
503 503 1 0.0 187.18626759920562 716.9817203420084 553.2821965964052 # Ar
504 504 1 0.0 436.82909856289274 403.2031370544914 713.5588150913296 # Ar
505 505 1 0.0 912.5621075654951 754.4950098686136 123.27797309911811 # Ar
506 506 1 0.0 403.141229915077 388.366917822801 217.1012063663863 # Ar
507 507 1 0.0 413.35876394903084 82.02927625441937 211.8748152727068 # Ar
508 508 1 0.0 925.8182733848059 628.3723955824507 977.7478052029571 # Ar
509 509 1 0.0 879.8933395875258 1280.1901573682733 860.3478065032754 # Ar
510 510 1 0.0 1237.1223903436924 750.7516023779299 375.9497206165291 # Ar
511 511 1 0.0 854.73601378719 76.86491667671761 467.884746909618 # Ar
512 512 1 0.0 301.4564514756463 910.3341420224453 221.42629062550137 # Ar
513 513 1 0.0 455.81045195177035 503.53420880523953 425.49253387124065 # Ar
514 514 1 0.0 1001.9521802866319 933.5649889607269 177.73278593643536 # Ar
515 515 1 0.0 648.4913898095647 434.03136897532386 380.44337097878343 # Ar
516 516 1 0.0 1074.505147517661 1217.752300968571 514.3517170770086 # Ar
517 517 1 0.0 290.1318844046731 44.013150930524695 125.23011373993707 # Ar
518 518 1 0.0 255.64887667667097 832.8698155920152 1111.640698595314 # Ar
519 519 1 0.0 370.3894543878467 768.4315254178885 533.2818083952745 # Ar
520 520 1 0.0 995.1493447029075 1157.5004283216072 417.6282106299749 # Ar
521 521 1 0.0 654.5681069307263 175.72997885836895 1135.602022878347 # Ar
522 522 1 0.0 834.1728334878351 1223.4789796553225 1040.2725081169199 # Ar
523 523 1 0.0 593.5349405190448 388.7752761059962 979.7384241382784 # Ar
524 524 1 0.0 726.1090507930187 270.42532148711933 1007.3410031037183 # Ar
525 525 1 0.0 445.9320515920516 726.6468363649868 483.74450572 # Ar
526 526 1 0.0 451.9791435748753 829.7102639827481 650.5914758715712 # Ar
527 527 1 0.0 1190.8461626840865 401.6411849582375 199.23118853609776 # Ar
528 528 1 0.0 778.093482484701 133.89326605150708 757.6467245251081 # Ar
529 529 1 0.0 45.118325843033396 360.2398742484505 966.8203167042175 # Ar
530 530 1 0.0 705.4998185381684 728.1351460887181 596.1496721114077 # Ar
531 531 1 0.0 515.2298420855996 1173.2357198359232 797.4944345046282 # Ar
532 532 1 0.0 1093.3019449198293 904.3546133465952 1294.7704390965828 # Ar
533 533 1 0.0 190.73463994580905 742.8782865839681 295.0929225696276 # Ar
534 534 1 0.0 86.96408705145956 744.6217841104019 455.58535266561677 # Ar
535 535 1 0.0 221.76004628913634 288.92069678676086 826.8511175101745 # Ar
536 536 1 0.0 942.4229889711103 1032.3555738896275 973.6899665618296 # Ar
537 537 1 0.0 744.1618192005737 816.4996385804961 882.0018699763003 # Ar
538 538 1 0.0 37.80815701204315 1215.6273179538894 787.033589335707 # Ar
539 539 1 0.0 703.1204156820149 472.01417599519635 685.6427286498764 # Ar
540 540 1 0.0 254.747251450527 784.6016919071818 1273.4522742567751 # Ar
541 541 1 0.0 498.627946432205 1045.5512138972265 529.8560193624018 # Ar
542 542 1 0.0 959.2226773843998 497.7200560701812 677.0692672096768 # Ar
543 543 1 0.0 655.1899322394148 149.08605641595767 86.05796045424546 # Ar
544 544 1 0.0 942.8893254843117 840.3772562956103 640.5240523365596 # Ar
545 545 1 0.0 75.9256090030862 392.98831055886956 265.1813459728127 # Ar
546 546 1 0.0 785.9026189623779 1025.6270819898568 228.5274419636817 # Ar
547 547 1 0.0 153.89023453813257 70.33545487273578 661.2889780189519 # Ar
548 548 1 0.0 558.1090839866189 843.7558377665732 465.35172760313316 # Ar
549 549 1 0.0 826.4002924081625 1155.835456354309 1014.91034487555 # Ar
550 550 1 0.0 161.88888628341698 786.319752509467 351.6458923881715 # Ar
551 551 1 0.0 1247.716999905644 1267.0916093488242 356.1210720556582 # Ar
552 552 1 0.0 1195.1076143028845 158.86482572757654 1067.0591338281622 # Ar
553 553 1 0.0 433.8446531965608 956.7857900943196 743.5364031938842 # Ar
554 554 1 0.0 842.7598667794348 1167.0782154090573 685.583943945771 # Ar
555 555 1 0.0 3.540290204926605 763.7831546972931 660.9323125855303 # Ar
556 556 1 0.0 290.590736067536 207.87706648609205 805.3145522788425 # Ar
557 557 1 0.0 689.8438743649903 921.5282251144181 1127.120712408968 # Ar
558 558 1 0.0 446.6343775641207 416.4255874197336 1264.552591262593 # Ar
559 559 1 0.0 36.29189288022924 623.2679668282528 174.02627178370136 # Ar
560 560 1 0.0 714.6254299992517 957.8648814821905 1201.262270485856 # Ar
561 561 1 0.0 161.42046086534347 22.686022320377887 303.9178688260713 # Ar
562 562 1 0.0 1020.8037331860238 639.9548287317758 81.96207801808546 # Ar
563 563 1 0.0 455.5973729015371 317.340995163125 474.61637259483916 # Ar
564 564 1 0.0 880.6439060009069 1174.1928129781884 66.495844028164 # Ar
565 565 1 0.0 1135.2534743442636 475.4991591740884 819.4474310267627 # Ar
566 566 1 0.0 1097.872315581627 932.201101413071 471.3051515484466 # Ar
567 567 1 0.0 901.2415871571694 1136.764775719876 291.16051820699295 # Ar
568 568 1 0.0 498.65967809473796 25.688105707479856 136.46473961584243 # Ar
569 569 1 0.0 972.5358302111529 230.1179035540482 826.8541706890011 # Ar
570 570 1 0.0 1058.763651265658 1153.4994810995495 703.6875572849985 # Ar
571 571 1 0.0 1144.5580944682602 259.8069631825594 621.2167463622069 # Ar
572 572 1 0.0 1173.8646734902784 346.30376395256843 455.8394542039355 # Ar
573 573 1 0.0 956.5230557597348 406.4921761477251 800.6767687477554 # Ar
574 574 1 0.0 1104.4110524739451 241.1091340612767 443.4472340280282 # Ar
575 575 1 0.0 1176.186591172617 1078.5964804889222 684.6439484893058 # Ar
576 576 1 0.0 469.00262281369044 1042.8810318195563 900.6130963449065 # Ar
577 577 1 0.0 647.2655841327351 933.764888706173 1120.2786930078648 # Ar
578 578 1 0.0 817.3168598570165 795.9397955501167 1242.4394768973732 # Ar
579 579 1 0.0 200.6818496427945 1292.3624696080299 1063.592088152188 # Ar
580 580 1 0.0 483.41898053435006 808.9323925866585 427.2903987820682 # Ar
581 581 1 0.0 310.38039822182736 65.99381710932944 1018.1219224501315 # Ar
582 582 1 0.0 133.7253156731488 275.3076294019941 922.5371732326814 # Ar
583 583 1 0.0 1168.7892572768799 329.88421901174127 795.7410482284248 # Ar
584 584 1 0.0 602.5822952050474 1247.5033410379642 400.92582159241834 # Ar
585 585 1 0.0 1106.267706299225 241.18729315902402 1012.2567736662767 # Ar
586 586 1 0.0 453.06190794451135 638.3871212990084 642.3441974550636 # Ar
587 587 1 0.0 864.7673299463737 787.136873019895 155.0973495265305 # Ar
588 588 1 0.0 152.9197022022525 1235.4367397287747 317.56116269018247 # Ar
589 589 1 0.0 1263.4433465395846 771.743660893034 350.23087749619145 # Ar
590 590 1 0.0 851.5599894423998 951.3376757832978 1068.322793527499 # Ar
591 591 1 0.0 1233.4963139065242 964.3251108132933 1161.147985709635 # Ar
592 592 1 0.0 1109.1672322896982 505.5525208958256 1278.4716920384594 # Ar
593 593 1 0.0 807.5040247473596 393.11635927458605 717.3881957599382 # Ar
594 594 1 0.0 50.70007913093054 474.90878507934826 868.9525212061111 # Ar
595 595 1 0.0 109.3255985000638 819.4509351009478 189.51780451380088 # Ar
596 596 1 0.0 867.0602378386124 359.89310363444827 351.43846154544224 # Ar
597 597 1 0.0 1230.9621586769254 1142.7350060451276 465.4239849733536 # Ar
598 598 1 0.0 1223.5684550483656 1225.7640662774668 85.467079194654 # Ar
599 599 1 0.0 347.26668909656007 615.3775602501057 758.3001258547407 # Ar
600 600 1 0.0 852.3530814663687 146.08197505405502 953.097561021868 # Ar
601 601 1 0.0 884.0944398965536 858.0369384106368 812.0419137277697 # Ar
602 602 1 0.0 1247.7510584516776 603.7460152852598 1244.095313585855 # Ar
603 603 1 0.0 232.15500579931805 172.90159408008617 5.480104994809833 # Ar
604 604 1 0.0 250.99713348159625 132.02374787278964 16.36298103043841 # Ar
605 605 1 0.0 1261.8082253473447 865.2262623975332 607.0799780461153 # Ar
606 606 1 0.0 462.3849685656007 603.9067652054289 788.5602589935055 # Ar
607 607 1 0.0 529.0323886038384 300.68110536083907 163.54408989196418 # Ar
608 608 1 0.0 1161.9914255752512 712.3667401046376 184.3712013202262 # Ar
609 609 1 0.0 836.7155910670255 785.6074182419881 182.03190935333052 # Ar
610 610 1 0.0 1190.2208972857009 1137.0666823222593 1112.334048248385 # Ar
611 611 1 0.0 245.73137982682138 325.2243872626853 142.83020035933143 # Ar
612 612 1 0.0 110.18905654278419 928.7927584477579 907.0531807554302 # Ar
613 613 1 0.0 883.7476782054573 1193.8374330133415 703.6066055345524 # Ar
614 614 1 0.0 1131.0795490726248 1267.1356843820074 347.71468024846223 # Ar
615 615 1 0.0 112.33130916640145 979.7549463270674 628.8140951319048 # Ar
616 616 1 0.0 68.03675267501852 346.27064590980024 661.6146201481954 # Ar
617 617 1 0.0 452.7523649628629 604.5595661913059 30.03301968053168 # Ar
618 618 1 0.0 259.0286585390479 176.10514079817074 164.88292388465027 # Ar
619 619 1 0.0 849.9484888442992 833.323460532882 506.88312769644546 # Ar
620 620 1 0.0 1026.1918517108916 66.94981776790914 1108.1639197882505 # Ar
621 621 1 0.0 98.41532351832242 426.90338918077117 934.5177190753548 # Ar
622 622 1 0.0 652.6077147128118 1159.49959673633 315.7536865336956 # Ar
623 623 1 0.0 74.66016961809646 303.6869732214472 816.1185763277601 # Ar
624 624 1 0.0 238.66042662900395 435.2864321689982 1036.8021046209071 # Ar
625 625 1 0.0 758.8168502878103 456.0995478159774 680.2289627133072 # Ar
626 626 1 0.0 1155.8984150214353 130.22781934665485 1079.0194788212923 # Ar
627 627 1 0.0 738.0320900810608 834.353129321385 514.2214350408295 # Ar
628 628 1 0.0 474.42023417751864 589.8464756417219 54.1788472788882 # Ar
629 629 1 0.0 162.01859846025727 427.92735413760704 1000.0660697823056 # Ar
630 630 1 0.0 198.50051073374016 826.5289685009052 152.9210347008335 # Ar
631 631 1 0.0 739.9142048779524 571.4730712129428 827.7393215325662 # Ar
632 632 1 0.0 1168.629387816902 1017.2344026029951 1263.0958425329836 # Ar
633 633 1 0.0 244.88817226027467 223.7018185078796 302.82951440102903 # Ar
634 634 1 0.0 235.32796774840807 554.7764500686311 497.3496510163242 # Ar
635 635 1 0.0 226.5798061701198 1258.5458408089398 1011.6759588647043 # Ar
636 636 1 0.0 749.2947134304706 1108.520268766022 981.7177694148139 # Ar
637 637 1 0.0 753.6636596511441 136.436859318165 249.44469860941444 # Ar
638 638 1 0.0 535.5810862750311 823.0445429995987 200.96311365876107 # Ar
639 639 1 0.0 47.74657741177102 1153.7128083845237 267.6559909762648 # Ar
640 640 1 0.0 236.90603465862512 877.3862955358984 513.5543249478695 # Ar
641 641 1 0.0 879.5420182003797 71.00408204319037 486.5438754556014 # Ar
642 642 1 0.0 147.59809303447534 89.9278026017846 1108.7047748045816 # Ar
643 643 1 0.0 982.0073029436664 1205.3822683660585 1105.8449086717565 # Ar
644 644 1 0.0 1157.0418228739334 327.329320256922 1044.429746661459 # Ar
645 645 1 0.0 654.5422321331376 985.4475230827327 646.466581857103 # Ar
646 646 1 0.0 1138.913549855275 935.9692023008314 1127.5470555407394 # Ar
647 647 1 0.0 1108.30622174379 207.4079500199417 236.63701911277496 # Ar
648 648 1 0.0 460.758227243362 358.6757403353122 1254.1538696610212 # Ar
649 649 1 0.0 1180.5275352681574 1233.5244744322 745.1314809753109 # Ar
650 650 1 0.0 783.5357159980587 974.1666343184169 377.2691527874377 # Ar
651 651 1 0.0 411.398808181573 240.76371877556596 443.573913662239 # Ar
652 652 1 0.0 126.47980945292926 293.8246293811214 639.301055702816 # Ar
653 653 1 0.0 1174.9468295551744 517.7150005960835 151.28466385145265 # Ar
654 654 1 0.0 1220.6919621663678 1215.2632603348632 84.14187436725867 # Ar
655 655 1 0.0 76.49367453030942 871.4058089384254 310.7658480060035 # Ar
656 656 1 0.0 332.43624635077737 498.3925895197748 682.4989270633475 # Ar
657 657 1 0.0 85.2071926403202 918.3285235541437 41.72249050250927 # Ar
658 658 1 0.0 811.025221527474 861.0083620402125 332.41586775506477 # Ar
659 659 1 0.0 1205.8474459611925 71.33750170010795 243.00575246628597 # Ar
660 660 1 0.0 869.1770352504742 36.6330410525736 1151.0495949997592 # Ar
661 661 1 0.0 60.82267606719693 616.8991847477932 937.3132328385674 # Ar
662 662 1 0.0 875.8393216432285 125.19171731573744 1289.3415250361718 # Ar
663 663 1 0.0 309.98742206958883 765.2067556972773 174.09342805622708 # Ar
664 664 1 0.0 855.8563894669115 522.140460697643 1091.5928754982392 # Ar
665 665 1 0.0 166.03916775807014 215.64087326359305 1170.4726216536103 # Ar
666 666 1 0.0 698.4232243049948 1223.3297580522826 121.72375561666261 # Ar
667 667 1 0.0 402.9788571673927 329.90579541278703 761.3127514620974 # Ar
668 668 1 0.0 431.36302744827566 130.0906764009471 66.78863100904199 # Ar
669 669 1 0.0 743.6014183998801 957.0973566539751 1101.5633105717304 # Ar
670 670 1 0.0 535.7548741462509 832.634569433215 1195.361079027375 # Ar
671 671 1 0.0 1268.284340379523 229.078844395589 1188.309115040736 # Ar
672 672 1 0.0 297.93826189012304 95.85067913775406 67.8572877045291 # Ar
673 673 1 0.0 1032.1120200365376 547.3118230185037 504.8238494677542 # Ar
674 674 1 0.0 671.4118519717274 854.02349433717 1192.118746713869 # Ar
675 675 1 0.0 584.6660622765406 111.9316777746418 54.528655392112974 # Ar
676 676 1 0.0 1191.957544818927 132.51938759414418 631.4327847037869 # Ar
677 677 1 0.0 514.2572978345796 869.986054721198 640.238621592306 # Ar
678 678 1 0.0 89.82693919088021 1061.5122954875683 925.5518151522471 # Ar
679 679 1 0.0 531.2892685647108 933.5159077928593 689.5693157514227 # Ar
680 680 1 0.0 910.1038099095338 933.0105554080368 836.9450107887074 # Ar
681 681 1 0.0 734.0181800330652 33.006209670454346 47.53943407771092 # Ar
682 682 1 0.0 427.4530779993995 933.3110039808976 607.1565526500563 # Ar
683 683 1 0.0 355.582133758411 925.726263905879 1283.1395653271377 # Ar
684 684 1 0.0 265.5199036278452 1024.2671642672897 1003.9841314661882 # Ar
685 685 1 0.0 941.3223977067393 844.4224707761831 886.5579323564051 # Ar
686 686 1 0.0 733.3728454215584 476.7748041072106 182.5887707973034 # Ar
687 687 1 0.0 346.3319055561346 725.1936192805224 352.3293573760156 # Ar
688 688 1 0.0 677.2306297296649 578.2843398770189 176.1465133502701 # Ar
689 689 1 0.0 333.63557877344505 1044.66523168932 135.34256314638435 # Ar
690 690 1 0.0 10.834641086254098 519.9440116053413 764.7742960540583 # Ar
691 691 1 0.0 190.5150037343536 12.054316334425392 863.5036538017926 # Ar
692 692 1 0.0 348.14447614000244 844.3995419778362 912.8889555949385 # Ar
693 693 1 0.0 1017.5001328886747 622.1339352516254 919.2544714576035 # Ar
694 694 1 0.0 1011.7980495658393 899.3961530488197 53.50678133674499 # Ar
695 695 1 0.0 992.3173524102775 57.89236747139133 387.8893868061733 # Ar
696 696 1 0.0 804.2201036520909 532.4892292669109 957.4456027901446 # Ar
697 697 1 0.0 935.9372903394686 298.11509010289836 286.05250693105376 # Ar
698 698 1 0.0 403.3156688297216 773.1144461345008 20.02581268757708 # Ar
699 699 1 0.0 145.7066887778389 981.025921489655 773.7552901843829 # Ar
700 700 1 0.0 658.9031724493127 102.34327690325323 726.4501900506308 # Ar
701 701 1 0.0 666.7293346268766 1228.2283019695283 1211.7551175817166 # Ar
702 702 1 0.0 394.28470984959785 329.93501824531086 62.23234328964779 # Ar
703 703 1 0.0 670.9568679654791 1048.6773991407022 175.9995924122559 # Ar
704 704 1 0.0 584.1754778341231 453.67388091938443 997.8460177468455 # Ar
705 705 1 0.0 170.5600416690028 963.5014241301726 494.6689805312133 # Ar
706 706 1 0.0 588.0905587866987 1294.7457349733359 652.4955974270217 # Ar
707 707 1 0.0 1101.3926508916043 512.6428717138247 424.114734647489 # Ar
708 708 1 0.0 13.5432122520664 839.77793202195 450.58495754844927 # Ar
709 709 1 0.0 880.8311943967473 1229.4266037777281 1207.9286277826545 # Ar
710 710 1 0.0 111.13500387215441 265.30528605502 398.41595770997947 # Ar
711 711 1 0.0 476.6773641933152 153.80628250046723 421.3107352169206 # Ar
712 712 1 0.0 1110.927041605158 566.8935475194013 530.7457939197999 # Ar
713 713 1 0.0 49.51689040618581 1092.1592495309487 1014.1241782388134 # Ar
714 714 1 0.0 1061.5517726460241 931.087010312483 181.06519339392315 # Ar
715 715 1 0.0 638.8085940516311 1153.065726852166 959.1146634524929 # Ar
716 716 1 0.0 243.54796118674395 234.79010714737723 1008.1089447321681 # Ar
717 717 1 0.0 552.7151298718566 198.62723587386293 151.26054917413776 # Ar
718 718 1 0.0 817.5331608142195 432.1376079113499 533.942415600224 # Ar
719 719 1 0.0 271.7548535503187 800.6152150642382 590.4988358124696 # Ar
720 720 1 0.0 1116.1858914200923 1037.7666223047052 408.7739610548833 # Ar
721 721 1 0.0 1089.4877533961817 909.7162012183741 905.1303166743483 # Ar
722 722 1 0.0 1161.2922686550532 935.4214284253403 13.817086557748214 # Ar
723 723 1 0.0 543.8295412773026 1287.6648238893501 1119.2199233587423 # Ar
724 724 1 0.0 1279.5148011196231 87.60600615613362 526.83269307516 # Ar
725 725 1 0.0 309.42916492988616 1094.0937604611383 1017.1304548950412 # Ar
726 726 1 0.0 849.1382949827846 772.3850029385254 1166.669731171991 # Ar
727 727 1 0.0 464.29870494819164 431.8068071533322 458.8112352892908 # Ar
728 728 1 0.0 854.0207344928748 73.17287185506925 467.3357033625942 # Ar
729 729 1 0.0 1210.5419662074805 1279.1796577179325 478.13461151966146 # Ar
730 730 1 0.0 1104.7206544172761 88.99528271724044 690.3492192897803 # Ar
731 731 1 0.0 1136.275265394294 883.6813781091757 384.87585851962075 # Ar
732 732 1 0.0 1201.2116440215884 287.05451275402913 1109.3411822248504 # Ar
733 733 1 0.0 412.1866706033838 388.56342290701394 173.24094711717927 # Ar
734 734 1 0.0 787.2435074323045 783.5197938382242 915.9745253127645 # Ar
735 735 1 0.0 100.27603782810166 1021.3899561760355 66.35988490832979 # Ar
736 736 1 0.0 819.883047421303 874.9044106115455 295.8252186461746 # Ar
737 737 1 0.0 240.15006521211524 882.3116776118891 251.10259318209796 # Ar
738 738 1 0.0 942.6815113699228 1079.684996529994 1182.708453781771 # Ar
739 739 1 0.0 490.9215849439199 94.02506122151624 829.417282830417 # Ar
740 740 1 0.0 55.460601206537454 1291.0059291081318 1087.6998294610728 # Ar
741 741 1 0.0 520.6010192301155 1102.7276036577296 526.5317521542192 # Ar
742 742 1 0.0 48.46506856525249 488.02080452481357 832.6445541795957 # Ar
743 743 1 0.0 724.4269431766651 609.751146801409 412.7190945450101 # Ar
744 744 1 0.0 1145.1343201752043 723.8988307154495 871.0201413199406 # Ar
745 745 1 0.0 152.1373049755562 753.9047336731367 199.39857116781516 # Ar
746 746 1 0.0 543.2346252110675 422.37316836237835 1168.6280764276416 # Ar
747 747 1 0.0 1128.242898170242 335.5747502692806 988.1663835121152 # Ar
748 748 1 0.0 872.8815810064247 1045.8310924045031 1179.3922557357594 # Ar
749 749 1 0.0 33.50054667742803 847.7374798342785 708.5036535993557 # Ar
750 750 1 0.0 500.10490473896215 881.2010399038475 778.505004794098 # Ar
751 751 1 0.0 292.5728976823038 723.0537056509005 1039.1228477602228 # Ar
752 752 1 0.0 9.166577112113531 759.83563718972 936.2971979876677 # Ar
753 753 1 0.0 189.1468620400029 400.53427655223044 498.17079727489113 # Ar
754 754 1 0.0 153.92977274435975 143.05452941134274 490.40029971207963 # Ar
755 755 1 0.0 1005.1351082944483 111.92338742286424 979.8216657657781 # Ar
756 756 1 0.0 797.1262112334247 388.3953656815825 717.3564709635597 # Ar
757 757 1 0.0 782.5759482759831 225.58027795207116 435.67118586693715 # Ar
758 758 1 0.0 707.2513355361679 682.9462221263518 800.748856099658 # Ar
759 759 1 0.0 490.0317078760152 975.9377250333464 1021.4615270060127 # Ar
760 760 1 0.0 483.5630013167379 1178.305246270728 319.69210195837024 # Ar
761 761 1 0.0 466.972671877847 985.0379166861596 335.46490460129246 # Ar
762 762 1 0.0 104.68122119514764 1099.0861088093554 726.5480199765548 # Ar
763 763 1 0.0 639.7709254816219 553.3632407630621 716.4779775630424 # Ar
764 764 1 0.0 879.0418804129359 128.86935208049115 1149.0157846986892 # Ar
765 765 1 0.0 426.4999876249571 465.12568203107264 538.5617006115623 # Ar
766 766 1 0.0 876.1281914649696 1086.015953339237 778.3061444159405 # Ar
767 767 1 0.0 1081.1946246391328 607.1365344581868 69.31576439832457 # Ar
768 768 1 0.0 1181.8349489842365 405.4943665071784 1162.4132869460484 # Ar
769 769 1 0.0 369.03831564557555 753.0930598787223 319.43508592172293 # Ar
770 770 1 0.0 403.7609616553347 936.3940603479534 223.28134207142844 # Ar
771 771 1 0.0 906.1826498552741 394.35704875273893 768.9326299091211 # Ar
772 772 1 0.0 370.8136285913046 877.5637814079752 1151.2858941346528 # Ar
773 773 1 0.0 542.3954971019858 932.8246772615413 260.1415427347284 # Ar
774 774 1 0.0 654.7039350396701 783.3852806264346 581.3265016539178 # Ar
775 775 1 0.0 941.5764434962351 540.616834205929 370.16987650146046 # Ar
776 776 1 0.0 919.2024682794795 842.4729920229569 1172.064194124758 # Ar
777 777 1 0.0 1293.9548340654972 274.03664684297394 330.7852091366697 # Ar
778 778 1 0.0 1249.644976388208 368.6036570694434 1154.4430793753372 # Ar
779 779 1 0.0 1182.462475104704 453.1405546975682 1246.085370924947 # Ar
780 780 1 0.0 686.492968434052 1075.2649582561123 233.70645569672214 # Ar
781 781 1 0.0 490.7458368567841 1114.8034165794963 104.34488024791466 # Ar
782 782 1 0.0 1240.6558765581578 56.66165872619557 699.070900003638 # Ar
783 783 1 0.0 837.9903427111698 699.0325919443537 1102.8203252094654 # Ar
784 784 1 0.0 805.8221123707438 1194.1242174268725 936.1300636090115 # Ar
785 785 1 0.0 529.2854625426758 312.74476330395635 884.8657339968595 # Ar
786 786 1 0.0 724.9083737654945 1113.6229518882537 1018.1209731061497 # Ar
787 787 1 0.0 362.6137964376503 332.6032064450961 1028.8338882919768 # Ar
788 788 1 0.0 416.3662723974911 1047.4672497442687 188.78909415871084 # Ar
789 789 1 0.0 371.92684251754434 513.1030248343628 46.903281012214116 # Ar
790 790 1 0.0 800.7356936795331 138.57198391200626 211.62546138006647 # Ar
791 791 1 0.0 559.0084382290015 1263.11163963161 1289.0666458011212 # Ar
792 792 1 0.0 931.2444526779126 1091.003891999917 596.031621354632 # Ar
793 793 1 0.0 243.81633985338883 550.1863127529227 150.66650100199655 # Ar
794 794 1 0.0 70.7292489615737 389.8836907481791 613.6455512794533 # Ar
795 795 1 0.0 775.42348368455 426.4900817031235 386.12783090940195 # Ar
796 796 1 0.0 1021.7995113022631 88.3212897571522 744.1065101636959 # Ar
797 797 1 0.0 481.2997655322369 437.82738039825506 782.0500884559466 # Ar
798 798 1 0.0 895.4743834290482 244.73077284390953 885.4015095752965 # Ar
799 799 1 0.0 718.1188937727101 150.35060684002522 143.46367576122927 # Ar
800 800 1 0.0 212.88071164670177 93.30006127942498 249.47000324110417 # Ar
801 801 1 0.0 1239.6291521400244 659.6048066006697 1060.5984215136314 # Ar
802 802 1 0.0 1223.5104686460768 1087.2814280158727 879.6527529505776 # Ar
803 803 1 0.0 309.21697741409525 643.9323695480808 355.6461098388276 # Ar
804 804 1 0.0 479.13607738523973 471.9125051040728 845.215934275189 # Ar
805 805 1 0.0 346.40312936262734 629.0006197736358 1172.3958593303141 # Ar
806 806 1 0.0 1065.8863832361612 965.6630352847986 1104.9344525170045 # Ar
807 807 1 0.0 476.17167599660223 826.3413648818158 381.7541743902743 # Ar
808 808 1 0.0 724.3684584193538 176.75139950170365 182.22164502252383 # Ar
809 809 1 0.0 1119.587010713966 475.9497603439029 1292.0690803252573 # Ar
810 810 1 0.0 763.5160076211222 1009.3411657195105 55.87683580013795 # Ar
811 811 1 0.0 459.3908767196981 1212.2565016465562 193.19936074988803 # Ar
812 812 1 0.0 1269.991243889526 232.46165915993302 1029.2569187058396 # Ar
813 813 1 0.0 154.6151992558478 781.6591914648446 65.12936116729348 # Ar
814 814 1 0.0 1065.3396302085048 32.022438550197215 187.27641977600894 # Ar
815 815 1 0.0 748.3741193552522 862.4180022779163 191.74325490286077 # Ar
816 816 1 0.0 598.2761261385518 808.405504510695 1020.2744144190801 # Ar
817 817 1 0.0 512.4884680154821 1259.8042913084707 1055.3635852787686 # Ar
818 818 1 0.0 937.6200217870327 837.3197359398783 1197.2042238976742 # Ar
819 819 1 0.0 912.0870378210521 311.181346711778 1079.2687869436222 # Ar
820 820 1 0.0 56.11094240252144 973.6622557069463 1296.3845560255752 # Ar
821 821 1 0.0 241.58658086514566 1093.8491437751552 279.5890954050771 # Ar
822 822 1 0.0 802.3873182265814 719.4937182796431 32.361031826758754 # Ar
823 823 1 0.0 544.2652433249315 269.21984250651747 1295.227206099746 # Ar
824 824 1 0.0 954.5643973083128 851.907744621045 1192.2349647152848 # Ar
825 825 1 0.0 253.40853272223137 658.4079090097699 348.500023445673 # Ar
826 826 1 0.0 611.1640263904255 1135.718952604482 680.6879983169734 # Ar
827 827 1 0.0 636.7819092983477 1065.213701269977 458.3702724519003 # Ar
828 828 1 0.0 711.4604760530717 357.9550469145225 1079.297987379893 # Ar
829 829 1 0.0 167.7906473210764 575.6755859060308 474.2259636872151 # Ar
830 830 1 0.0 578.3902954847331 400.02595698134024 398.3336580632052 # Ar
831 831 1 0.0 1284.4907210979245 855.8730877000854 604.197674749074 # Ar
832 832 1 0.0 1258.739465460692 171.30557834244053 1000.9653232371031 # Ar
833 833 1 0.0 1038.5370326666725 967.9837464705544 629.1357164119498 # Ar
834 834 1 0.0 934.1001966417457 972.7818427157856 73.55970448682406 # Ar
835 835 1 0.0 957.9809830929988 207.3678030857448 908.0815088319521 # Ar
836 836 1 0.0 1078.4687701136347 520.5648175338351 1083.5181272078578 # Ar
837 837 1 0.0 547.2943334996796 723.7958884092599 140.20967645307243 # Ar
838 838 1 0.0 1198.6424667713297 1196.462068361512 344.8205591447071 # Ar
839 839 1 0.0 1145.9771363155426 30.725076104024122 1093.5021550361707 # Ar
840 840 1 0.0 1169.5624117253708 1230.2647998684988 518.1604458433093 # Ar
841 841 1 0.0 758.9441390360987 825.9736666803735 1039.8581555302048 # Ar
842 842 1 0.0 416.42338688088347 1223.895273223861 346.5024646797408 # Ar
843 843 1 0.0 734.7322862704415 241.9408692836691 414.1683971695405 # Ar
844 844 1 0.0 81.14278975666758 647.8468078683482 78.37187181498923 # Ar
845 845 1 0.0 198.98700841492064 1168.5353616182947 427.82542306556337 # Ar
846 846 1 0.0 629.4321986104893 915.9966883031116 855.9969849489014 # Ar
847 847 1 0.0 679.3435338801055 179.62478259457248 640.8353857946928 # Ar
848 848 1 0.0 1166.2529268222643 135.07660995061784 1073.5148369556268 # Ar
849 849 1 0.0 825.3758763291661 67.0428908161073 254.07953186252715 # Ar
850 850 1 0.0 482.042942619858 112.10824709175651 172.62692841581347 # Ar
851 851 1 0.0 1184.8637436754725 802.1304273205222 855.7167507144911 # Ar
852 852 1 0.0 479.45372884908824 1152.9965971491781 133.92526298355074 # Ar
853 853 1 0.0 851.7098202090466 124.85918134560731 1056.1440826171142 # Ar
854 854 1 0.0 202.20415246655014 1187.13414450882 308.69645484388275 # Ar
855 855 1 0.0 186.59233244061753 403.5093384848395 221.3381181122907 # Ar
856 856 1 0.0 0.6913289254332939 364.1960507414616 574.2297450128198 # Ar
857 857 1 0.0 485.11673760651126 923.6899736544566 442.9527380519687 # Ar
858 858 1 0.0 1167.9922512708392 668.335557442084 10.695608437795332 # Ar
859 859 1 0.0 610.3143593520387 1221.514198364654 558.2648864873004 # Ar
860 860 1 0.0 563.2821735458595 1126.5400866124696 746.8614459346348 # Ar
861 861 1 0.0 601.9015889913194 80.12672387107301 605.8101881680744 # Ar
862 862 1 0.0 567.7444586996799 1135.1983974620352 1098.1558475803417 # Ar
863 863 1 0.0 363.8900899479899 656.2883305349732 85.43531895609529 # Ar
864 864 1 0.0 788.6937948516074 331.85938398222345 526.9639911310173 # Ar
865 865 1 0.0 815.89975661692 254.37627417098938 445.6849252685286 # Ar
866 866 1 0.0 619.9865337879803 1211.861349632769 334.66582362266007 # Ar
867 867 1 0.0 672.5291120316731 602.5913571274335 548.1410579471838 # Ar
868 868 1 0.0 1103.2814807865068 257.6741273268291 1067.5321756319313 # Ar
869 869 1 0.0 60.17586013138831 907.6877285709938 1007.156943666556 # Ar
870 870 1 0.0 549.2525480485931 704.5551559851255 471.3056993655756 # Ar
871 871 1 0.0 267.6090650902608 756.299094771155 1090.2256484371646 # Ar
872 872 1 0.0 79.33189785973973 1284.604623237157 717.0518264643648 # Ar
873 873 1 0.0 302.39081712040144 1109.6529771510725 1288.7547994877812 # Ar
874 874 1 0.0 519.3122358547843 1235.2015420932826 647.7187144202185 # Ar
875 875 1 0.0 1223.1965099338129 1080.4235831068174 359.30664326929576 # Ar
876 876 1 0.0 309.42244583836765 1132.5211282815123 1231.8459835894296 # Ar
877 877 1 0.0 796.4787160005922 665.5048912363332 37.67374954249625 # Ar
878 878 1 0.0 393.39047624796575 46.75003496524872 590.1629849315054 # Ar
879 879 1 0.0 564.6188396396346 173.51653883364352 437.27608786216706 # Ar
880 880 1 0.0 96.64350308108155 1032.2087627313374 520.6863312229638 # Ar
881 881 1 0.0 337.7766344085712 404.374175893325 213.89075108826373 # Ar
882 882 1 0.0 771.624189411156 380.4951202696794 1042.144340613363 # Ar
883 883 1 0.0 783.133779355623 28.71341388275924 842.7822087749864 # Ar
884 884 1 0.0 680.6541940582113 388.4731101673875 200.718886385687 # Ar
885 885 1 0.0 764.6275207618096 191.04550691605414 394.0241225276262 # Ar
886 886 1 0.0 519.9941168977053 37.35743162767124 196.17319694804797 # Ar
887 887 1 0.0 563.7740400529053 299.27929803557385 1208.8638410489377 # Ar
888 888 1 0.0 360.2970951691972 937.9841847875931 1095.9945869181238 # Ar
889 889 1 0.0 269.97102590254343 296.7568008443665 496.7272383065563 # Ar
890 890 1 0.0 758.5798289477094 137.24150482149497 905.4599612527354 # Ar
891 891 1 0.0 1276.2906863780925 940.7344683220232 358.640610523883 # Ar
892 892 1 0.0 239.84056273921254 989.4143923696712 729.9869614270508 # Ar
893 893 1 0.0 567.8339220732855 1077.0390501210004 220.78632616025396 # Ar
894 894 1 0.0 653.0667663068601 978.5383148888807 147.73285600801324 # Ar
895 895 1 0.0 493.1460874232511 986.2150996020591 293.67085079378353 # Ar
896 896 1 0.0 287.3798605872763 948.6752703226484 546.7649705006121 # Ar
897 897 1 0.0 265.2374709954094 233.93883099782968 501.31004677224956 # Ar
898 898 1 0.0 1295.3605864407632 666.9310572356035 1152.1421444234147 # Ar
899 899 1 0.0 809.7787586469566 693.3902254018983 534.2698725395433 # Ar
900 900 1 0.0 952.302414809081 732.8024059728102 502.30417104433167 # Ar
901 901 1 0.0 692.4269626290603 807.2720322766967 1291.8246867448909 # Ar
902 902 1 0.0 582.5062461362215 1036.317935896134 799.500262363598 # Ar
903 903 1 0.0 1232.100901743769 1069.4790213624317 915.8182960249858 # Ar
904 904 1 0.0 905.307196113053 223.43488334507973 448.90651482849256 # Ar
905 905 1 0.0 155.92410699676375 980.2970048259486 465.4440636906982 # Ar
906 906 1 0.0 274.859435116688 129.3652743338389 158.12082057968158 # Ar
907 907 1 0.0 1207.989347103371 226.51588309924065 540.0751899065705 # Ar
908 908 1 0.0 335.90483732044066 467.5547323657977 485.7779895700034 # Ar
909 909 1 0.0 801.7045001514159 689.1383011528233 694.7730138723668 # Ar
910 910 1 0.0 1154.4009424300052 536.9076445687848 57.771589254032634 # Ar
911 911 1 0.0 1269.3177745646722 843.7762670500106 599.3090609403375 # Ar
912 912 1 0.0 1174.7651427196477 1208.4108333317674 978.9552259828382 # Ar
913 913 1 0.0 21.062863500859336 812.9512879475329 943.2750320826793 # Ar
914 914 1 0.0 965.2007276064937 988.7200911235224 85.89766046011462 # Ar
915 915 1 0.0 803.3135877582508 897.9962983677534 310.7759744919835 # Ar
916 916 1 0.0 132.99941195622964 499.07326426052373 770.3623006737628 # Ar
917 917 1 0.0 724.7792168979913 325.10863166379954 235.13454690455941 # Ar
918 918 1 0.0 1163.6434666196349 1265.5469507921812 1192.6107034494994 # Ar
919 919 1 0.0 8.593592263241938 818.7820811940963 31.06495986321163 # Ar
920 920 1 0.0 205.51541086779318 196.72585202281164 641.3022240366796 # Ar
921 921 1 0.0 1124.5305142810334 203.8796543930898 929.2001764963626 # Ar
922 922 1 0.0 922.0886196848274 168.29684268742446 569.2575371886777 # Ar
923 923 1 0.0 356.64206213011727 350.28321698421155 788.5111316809837 # Ar
924 924 1 0.0 826.9508658906911 1215.1666294779711 1157.0232448648942 # Ar
925 925 1 0.0 435.31480214038635 1144.9020464513503 166.5696564857857 # Ar
926 926 1 0.0 482.8260354659344 498.4806650029585 583.3958076822538 # Ar
927 927 1 0.0 462.5500602152227 133.00724029297712 3.7525621843317105 # Ar
928 928 1 0.0 762.5839287392614 504.074052288047 954.4426795432249 # Ar
929 929 1 0.0 718.5985826719536 577.4057572257416 506.43622296708276 # Ar
930 930 1 0.0 985.5156740111393 1232.2151591002926 906.9340848879973 # Ar
931 931 1 0.0 1202.712613481047 521.272382506719 336.19639045612814 # Ar
932 932 1 0.0 204.98410794501288 600.3418073487338 865.9175977646685 # Ar
933 933 1 0.0 286.84048677726014 166.46665524068857 756.0247476121742 # Ar
934 934 1 0.0 976.098393801971 12.670485720971548 1187.1335254404464 # Ar
935 935 1 0.0 1021.7086254739315 1155.1274455000341 1063.995258091244 # Ar
936 936 1 0.0 147.7840115696018 1108.054370531205 1003.6356237213712 # Ar
937 937 1 0.0 877.5842388427408 660.9744417867394 749.5149361391759 # Ar
938 938 1 0.0 662.2234439410802 418.82160220369235 781.6122389684862 # Ar
939 939 1 0.0 724.2211990371667 1157.8602464947849 727.6749754697996 # Ar
940 940 1 0.0 1051.8143308645424 325.34870002595096 282.2874768238958 # Ar
941 941 1 0.0 110.08778127807857 259.2617081494302 1195.5312516979488 # Ar
942 942 1 0.0 1174.403535491996 779.1241742750087 470.82568098547006 # Ar
943 943 1 0.0 415.1992666346295 658.4717365751198 263.0902054805676 # Ar
944 944 1 0.0 543.7746709139305 667.9547671595313 965.3373593793011 # Ar
945 945 1 0.0 571.2385668397129 944.9852354523117 351.75484249342327 # Ar
946 946 1 0.0 101.45897070567386 488.17838752848394 1217.6501590645157 # Ar
947 947 1 0.0 638.2641595943212 1063.0763135831305 690.1954683533653 # Ar
948 948 1 0.0 947.397488804834 1061.3555680189088 334.85947897057775 # Ar
949 949 1 0.0 394.2769754829029 83.51174620772468 1134.4007146012536 # Ar
950 950 1 0.0 1296.4275051561326 348.2545674392269 1090.2637813506112 # Ar
951 951 1 0.0 104.35943583126382 1012.9839591166457 1202.5678176437013 # Ar
952 952 1 0.0 1111.0973519273166 287.28304357124523 1238.6367500982656 # Ar
953 953 1 0.0 275.0011347100223 904.3946725733966 1083.3800558006626 # Ar
954 954 1 0.0 436.4237110517933 157.68171922784984 1141.7298888148557 # Ar
955 955 1 0.0 1077.6233845994534 387.5373460646372 499.1284956021963 # Ar
956 956 1 0.0 574.8109303679272 1245.7795790312055 720.9458262853042 # Ar
957 957 1 0.0 1206.38999084495 27.293284586697443 205.37748748598852 # Ar
958 958 1 0.0 337.98462194173 230.87935236928232 1015.7445887685708 # Ar
959 959 1 0.0 250.2719617007444 3.887204398179086 957.9199728325822 # Ar
960 960 1 0.0 1175.4438599469306 654.6524338249517 772.2779800932533 # Ar
961 961 1 0.0 854.7673315344161 916.4343289018922 1084.2043551269178 # Ar
962 962 1 0.0 130.32791805385736 689.4873941451561 981.3015665160736 # Ar
963 963 1 0.0 1218.3666690781276 374.8210457761368 156.95097969041305 # Ar
964 964 1 0.0 508.37276478604963 565.6860349688167 1154.8812958192048 # Ar
965 965 1 0.0 576.096800611528 354.9475181557748 858.8705485778518 # Ar
966 966 1 0.0 8.916654468491725 83.18160992222087 628.2900906442725 # Ar
967 967 1 0.0 853.932126859643 963.3312013170099 922.5582579436679 # Ar
968 968 1 0.0 719.02086140428 93.88217691216053 4.14865393735192 # Ar
969 969 1 0.0 345.20451199135255 302.38794006417754 1060.810792339804 # Ar
970 970 1 0.0 741.2096949943817 836.9910922219466 818.1530676613659 # Ar
971 971 1 0.0 79.74980513032537 1212.4533053398864 1162.3443172617046 # Ar
972 972 1 0.0 983.8357171758023 736.8350235188387 554.062582034255 # Ar
973 973 1 0.0 668.5516274534344 245.2330775593449 395.1501879845237 # Ar
974 974 1 0.0 916.9516813996701 59.52220437766909 92.55528671059618 # Ar
975 975 1 0.0 1004.9257401271396 1259.8081458828126 139.26968931130665 # Ar
976 976 1 0.0 995.9895697318576 93.4231002685572 408.0303801386239 # Ar
977 977 1 0.0 655.6337510627305 325.5847604168868 948.4066448695598 # Ar
978 978 1 0.0 823.5932783312658 1041.1943717895163 1272.1041872559947 # Ar
979 979 1 0.0 1165.2102204194844 800.7401173941724 535.2396667418913 # Ar
980 980 1 0.0 383.77991058153526 750.2977513746471 40.942937144577 # Ar
981 981 1 0.0 92.38487651066148 1049.6568408959747 178.8033205541479 # Ar
982 982 1 0.0 433.0122206670765 702.1680805404164 97.31990051100543 # Ar
983 983 1 0.0 537.5983631072585 729.0469179157207 1289.5212907693672 # Ar
984 984 1 0.0 912.4021780741795 561.5859320592814 320.36015004144343 # Ar
985 985 1 0.0 604.2643080151444 574.7168045940442 1160.430879526095 # Ar
986 986 1 0.0 270.7656391494042 1167.586934674554 978.6698229577419 # Ar
987 987 1 0.0 660.9022243732559 48.6619533111751 1105.3350103652187 # Ar
988 988 1 0.0 625.4182435121511 681.8432480269315 69.88983948622304 # Ar
989 989 1 0.0 60.51259650782408 871.8259465672681 882.5856803260166 # Ar
990 990 1 0.0 759.4801123941234 294.626738968621 726.8789453967348 # Ar
991 991 1 0.0 63.7944663477405 982.6698254679412 15.134426876656784 # Ar
992 992 1 0.0 601.4296576901322 616.2964153918933 128.77957151822318 # Ar
993 993 1 0.0 1114.5472804645374 617.6389654291161 839.3882087492246 # Ar
994 994 1 0.0 413.59902539061443 1116.7445646012752 243.44877664208119 # Ar
995 995 1 0.0 878.1164194953682 1276.332903867489 726.5803247826401 # Ar
996 996 1 0.0 522.8305042691338 794.173911210169 228.18921809187734 # Ar
997 997 1 0.0 400.03379639376254 434.7067756396637 1008.6329863541032 # Ar
998 998 1 0.0 146.9856002969836 299.77614461024933 123.74977512760255 # Ar
999 999 1 0.0 1272.8561725331308 726.8327119682889 433.6525801785648 # Ar
1000 1000 1 0.0 559.8111069666573 647.701286990887 1286.4508613167957 # Ar
1001 1001 1 0.0 1262.7603903037843 1082.0736132581646 444.0647290885799 # Ar
1002 1002 1 0.0 819.3579790684709 1166.7407470199278 784.9052708481747 # Ar
1003 1003 1 0.0 574.5750460407531 895.078088319071 700.1252639758914 # Ar
1004 1004 1 0.0 127.65642349234922 603.8961314964333 132.80606015440168 # Ar
1005 1005 1 0.0 951.9084832673028 838.1397424663102 937.4836634839604 # Ar
1006 1006 1 0.0 1010.9322708363484 879.0390215836036 708.2226062218181 # Ar
1007 1007 1 0.0 834.5285788006018 155.78343763453438 1232.5123332473995 # Ar
1008 1008 1 0.0 575.5396533256937 814.2152201797821 1183.9217692470884 # Ar
1009 1009 1 0.0 174.4691793294082 200.8517350291643 534.892829425922 # Ar
1010 1010 1 0.0 814.4395183291319 606.532156031528 1120.1066586298944 # Ar
1011 1011 1 0.0 21.938275415441378 496.7166072317677 888.9395030609875 # Ar
1012 1012 1 0.0 487.96686775221735 73.58891115812563 369.2128759244676 # Ar
1013 1013 1 0.0 93.83364991491872 367.7280029781133 979.3835772330211 # Ar
1014 1014 1 0.0 1260.4186457178284 453.1125009552474 68.70798982008075 # Ar
1015 1015 1 0.0 1241.201487617888 1100.6121932989759 1128.3722886876456 # Ar
1016 1016 1 0.0 1093.5844768151585 859.0856403667183 82.67832826377175 # Ar
1017 1017 1 0.0 217.59347388952222 936.7977620088693 896.4255031176974 # Ar
1018 1018 1 0.0 867.3993364104765 555.7914802574056 969.4165406175528 # Ar
1019 1019 1 0.0 1002.6524983263207 323.38521252457747 290.7687981175956 # Ar
1020 1020 1 0.0 153.56600278111256 892.8257120767855 483.547009096382 # Ar
1021 1021 1 0.0 513.1241782958912 1111.8176877099115 321.47922416014063 # Ar
1022 1022 1 0.0 453.6528371109103 175.29982014546363 1032.7903739860708 # Ar
1023 1023 1 0.0 434.11545446083034 10.800366020699895 1219.7175156663407 # Ar
1024 1024 1 0.0 256.47901642855254 731.8330881908613 801.5786826141276 # Ar
1025 1025 1 0.0 410.42038029475765 618.9031484998912 689.5486488829185 # Ar
1026 1026 1 0.0 320.54687690807594 1203.366303404261 279.5238002559091 # Ar
1027 1027 1 0.0 1258.619129951822 774.4659739063535 282.580238575979 # Ar
1028 1028 1 0.0 443.9278581647851 1179.5674656659364 1124.7393521590595 # Ar
1029 1029 1 0.0 1005.7319666543917 1022.0476209066003 987.8548346792751 # Ar
1030 1030 1 0.0 168.1948115159897 813.1045918204868 487.44587412980525 # Ar
1031 1031 1 0.0 505.90108318697713 69.30555372646408 119.25273042778339 # Ar
1032 1032 1 0.0 1226.5604196421075 687.37119239617 773.5484118600353 # Ar
1033 1033 1 0.0 635.4018592973197 84.1946965907157 1276.1744465268544 # Ar
1034 1034 1 0.0 522.720514528116 1226.3526594369032 1122.8143830860627 # Ar
1035 1035 1 0.0 510.57301803595414 472.67375452265975 431.3709050369617 # Ar
1036 1036 1 0.0 1133.585420568102 31.20405939692398 415.56088808768465 # Ar
1037 1037 1 0.0 1042.832832964411 1177.4340872953744 278.560554847059 # Ar
1038 1038 1 0.0 937.4408813488603 73.61780890317499 1120.1564022387354 # Ar
1039 1039 1 0.0 62.04591834677048 286.89162303181064 887.5763947095614 # Ar
1040 1040 1 0.0 1085.9008591827744 1087.7696520586246 74.35998689867245 # Ar
1041 1041 1 0.0 996.0835500767525 132.36936318591637 1165.4561014412543 # Ar
1042 1042 1 0.0 1186.2314760534114 1287.4259871292338 467.43284710839475 # Ar
1043 1043 1 0.0 351.85732158980727 1286.543953685631 984.7307220041898 # Ar
1044 1044 1 0.0 43.81508109677014 1080.7519506564306 947.4363062846351 # Ar
1045 1045 1 0.0 1033.0874524593614 1053.772952562016 617.0395932990953 # Ar
1046 1046 1 0.0 510.4470232333127 1029.8056206725826 158.36131379072503 # Ar
1047 1047 1 0.0 91.93969617911009 1000.7183384986647 1049.5856714731194 # Ar
1048 1048 1 0.0 351.6679727012162 72.08320216860855 1140.0558359200438 # Ar
1049 1049 1 0.0 1289.7174122798453 783.4083901712544 666.186823640423 # Ar
1050 1050 1 0.0 285.52915253158744 463.9580372809069 999.8196949808753 # Ar
1051 1051 1 0.0 1266.985992360258 741.427988503732 1218.267110943274 # Ar
1052 1052 1 0.0 640.4894306331631 536.0873395818533 373.52336065475475 # Ar
1053 1053 1 0.0 280.8532541959351 814.3933899911542 156.28137664302645 # Ar
1054 1054 1 0.0 263.584470432405 1259.7597260394382 789.8564625710238 # Ar
1055 1055 1 0.0 221.1779536733 1063.9286774712052 222.1278732689887 # Ar
1056 1056 1 0.0 978.9549725835242 543.6554357321713 884.487903475161 # Ar
1057 1057 1 0.0 1227.0978034887871 79.31956142629562 650.7884544881081 # Ar
1058 1058 1 0.0 554.797323551046 1010.0933479368086 861.4857689767307 # Ar
1059 1059 1 0.0 1101.7676505138297 1033.3432808928287 966.1598285061951 # Ar
1060 1060 1 0.0 178.94433686246308 592.6672179894999 1005.3687314053439 # Ar
1061 1061 1 0.0 317.45119304030067 1062.2699012593118 11.684317054136496 # Ar
1062 1062 1 0.0 43.100578647687506 191.4280602413459 734.4960152040956 # Ar
1063 1063 1 0.0 296.07908733448676 659.5583487068982 1264.1971693765631 # Ar
1064 1064 1 0.0 1118.821195971625 771.6973765129709 1101.4225605678298 # Ar
1065 1065 1 0.0 162.54722538404366 419.9118094258719 954.0872055837539 # Ar
1066 1066 1 0.0 595.1258360104366 650.079011623156 61.500327098992095 # Ar
1067 1067 1 0.0 302.31385098380497 579.6308493991341 363.545595482192 # Ar
1068 1068 1 0.0 1034.2161471064712 1225.6095051450902 73.30006711999648 # Ar
1069 1069 1 0.0 833.5194084746433 543.2330355158992 1048.7618040161838 # Ar
1070 1070 1 0.0 1272.813026223668 134.31284220577078 797.649361003636 # Ar
1071 1071 1 0.0 524.9620706921075 342.1237361762161 241.26615606927857 # Ar
1072 1072 1 0.0 981.1896904588316 54.38012482942356 920.2724731258772 # Ar
1073 1073 1 0.0 1019.2737358488881 800.7477731987135 883.0169552503505 # Ar
1074 1074 1 0.0 311.8725937285153 436.1026256452564 185.33622502714928 # Ar
1075 1075 1 0.0 7.346383504506461 1079.5955744016385 533.3008132099072 # Ar
1076 1076 1 0.0 395.4408085821004 38.10043184104929 84.61981926556352 # Ar
1077 1077 1 0.0 452.7602058517554 33.223733181566324 1168.6067096785646 # Ar
1078 1078 1 0.0 196.02021639726289 928.339744484803 533.6688045901128 # Ar
1079 1079 1 0.0 721.1561191992 748.652134433138 991.1285010196168 # Ar
1080 1080 1 0.0 743.3720245279911 815.7046552267323 186.91990019162617 # Ar
1081 1081 1 0.0 683.0266798847551 207.89308977373753 545.4522011722089 # Ar
1082 1082 1 0.0 670.5726808616137 273.3241050280127 936.0888431686896 # Ar
1083 1083 1 0.0 1009.6252377358442 582.326346457599 999.4851060722624 # Ar
1084 1084 1 0.0 1063.4718679130983 170.30605974043633 706.0162319130458 # Ar
1085 1085 1 0.0 1119.3695354694462 1265.4963048276907 23.006674081973784 # Ar
1086 1086 1 0.0 1234.577180811717 81.83493164125977 946.4786560080756 # Ar
1087 1087 1 0.0 169.27645516531965 1031.447983370408 1132.6984420465453 # Ar
1088 1088 1 0.0 915.9759629779929 394.84004660310336 920.856666236456 # Ar
1089 1089 1 0.0 8.532989525817893 63.77771821680314 595.4127943583202 # Ar
1090 1090 1 0.0 83.7590197841898 388.6091421138803 1079.0419000453062 # Ar
1091 1091 1 0.0 888.5647280590206 357.85430521544845 705.2252077110405 # Ar
1092 1092 1 0.0 1196.9934986510514 1004.1707615715045 1122.4027731696442 # Ar
1093 1093 1 0.0 729.807998833945 652.6192625893709 475.695420454297 # Ar
1094 1094 1 0.0 391.67407304106655 47.965953508901 348.3357452331781 # Ar
1095 1095 1 0.0 1000.1617134434401 578.2774944673072 1216.4618022241625 # Ar
1096 1096 1 0.0 997.6303377171271 1288.2363522907535 708.6305807664714 # Ar
1097 1097 1 0.0 461.9740474205039 631.4677951406376 1268.701919054974 # Ar
1098 1098 1 0.0 705.6242551233213 406.6659655948886 608.19394096571 # Ar
1099 1099 1 0.0 431.4947728344596 243.33282067147115 336.1677834023018 # Ar
1100 1100 1 0.0 787.046693524158 372.3948716605621 503.33819649736625 # Ar
1101 1101 1 0.0 548.9261137142654 1036.8037765762765 344.3684755164467 # Ar
1102 1102 1 0.0 951.3764200686761 310.7036695433664 226.21695350064599 # Ar
1103 1103 1 0.0 207.0823163047299 715.0056015998906 905.1289612823566 # Ar
1104 1104 1 0.0 200.9927554273501 973.1745827550649 1090.873180595597 # Ar
1105 1105 1 0.0 285.2473155098949 58.99382717787725 1268.062506459094 # Ar
1106 1106 1 0.0 61.81609030701642 27.33688781566386 1007.961747513325 # Ar
1107 1107 1 0.0 408.71159711098505 1145.680010121341 1062.3576405119536 # Ar
1108 1108 1 0.0 460.60777207505186 202.9108843562859 37.6439897629747 # Ar
1109 1109 1 0.0 298.2895614841794 991.8211831946195 943.9315228634499 # Ar
1110 1110 1 0.0 1012.129057311894 355.7483528745147 1259.4970980047444 # Ar
1111 1111 1 0.0 686.6236623988016 73.67213971584961 15.362218937296625 # Ar
1112 1112 1 0.0 788.9220879125672 953.9209757242669 763.3881568978729 # Ar
1113 1113 1 0.0 239.87782185264504 722.6148111180448 843.0599562790911 # Ar
1114 1114 1 0.0 1000.101546950453 871.9987197240258 79.88753830243105 # Ar
1115 1115 1 0.0 448.15639078251405 462.4641145907218 940.621637036596 # Ar
1116 1116 1 0.0 297.4723939094005 1226.2935283447032 890.5945431391118 # Ar
1117 1117 1 0.0 927.4655855560623 737.9383429086649 762.8279191110918 # Ar
1118 1118 1 0.0 140.44506101444964 714.8564273377715 1203.5183795484502 # Ar
1119 1119 1 0.0 743.5487849375181 459.7161770709199 416.9190776854584 # Ar
1120 1120 1 0.0 227.75330811292133 1029.0615432091054 899.7113501712308 # Ar
1121 1121 1 0.0 1217.9815502106867 667.1111594903413 263.2652671543362 # Ar
1122 1122 1 0.0 383.47514578759603 593.1130511909062 241.64069314789262 # Ar
1123 1123 1 0.0 1065.1945550036826 1177.6770553213262 56.96543261680476 # Ar
1124 1124 1 0.0 519.1285520672833 166.20634334275118 805.4380786284918 # Ar
1125 1125 1 0.0 691.691159222804 812.0559079747826 208.47635022166727 # Ar
1126 1126 1 0.0 804.1742921410906 844.999574546129 1089.6273285662137 # Ar
1127 1127 1 0.0 878.885764393183 801.5536249192446 410.25599571106284 # Ar
1128 1128 1 0.0 487.21284014088195 579.1968346103349 503.1707861143996 # Ar
1129 1129 1 0.0 488.6653368949557 1073.0823143884566 511.52836446023656 # Ar
1130 1130 1 0.0 253.8781964332384 292.1535956811559 143.88005396419203 # Ar
1131 1131 1 0.0 690.4633483449807 1173.3451089640814 799.705474395553 # Ar
1132 1132 1 0.0 1003.2382551439132 140.03457230657034 354.676989926019 # Ar
1133 1133 1 0.0 763.147064999263 909.8826787123336 1187.9347369187635 # Ar
1134 1134 1 0.0 706.6302460753939 365.40217512335715 1076.9055202857428 # Ar
1135 1135 1 0.0 751.5217955902249 374.6143431081062 837.5005871039622 # Ar
1136 1136 1 0.0 808.0478701520772 1035.620905436339 933.3483149809765 # Ar
1137 1137 1 0.0 1089.8023060116054 235.8065414109977 389.05082997352037 # Ar
1138 1138 1 0.0 154.01449686589575 910.9889525082814 550.9327777669699 # Ar
1139 1139 1 0.0 91.39877266616502 956.6657080136241 1173.974926318949 # Ar
1140 1140 1 0.0 679.2014641064029 952.4825717307916 807.6975128783329 # Ar
1141 1141 1 0.0 210.35809529287948 1246.3318364676545 244.2525814695843 # Ar
1142 1142 1 0.0 1106.2903218697497 849.3135636140933 1086.8137989508723 # Ar
1143 1143 1 0.0 185.91715737334152 922.7248085732714 91.54450137625925 # Ar
1144 1144 1 0.0 338.6238136500818 616.6723733066821 265.6076930111395 # Ar
1145 1145 1 0.0 62.37118440830756 936.5947243911207 420.3797831572782 # Ar
1146 1146 1 0.0 1085.5172283708912 918.2285851931832 86.3258871029332 # Ar
1147 1147 1 0.0 226.0476591894384 1111.8795741148854 48.75615326283959 # Ar
1148 1148 1 0.0 789.2743404405877 1063.9807999989212 693.651134941934 # Ar
1149 1149 1 0.0 1221.0515879874088 266.49084896676493 427.1390086059522 # Ar
1150 1150 1 0.0 304.0331327913581 554.2675863177043 1211.2744415206985 # Ar
1151 1151 1 0.0 532.8771296923227 230.3459378944565 304.1309849327216 # Ar
1152 1152 1 0.0 1006.3480950367682 868.4659021660825 1192.7931805723874 # Ar
1153 1153 1 0.0 135.584398456771 532.5515546627341 201.0811411438684 # Ar
1154 1154 1 0.0 763.3762684447313 1090.0028186585967 1166.3460821166407 # Ar
1155 1155 1 0.0 132.03427109567062 507.9332345988536 724.6061099990402 # Ar
1156 1156 1 0.0 991.005753074983 963.6371486357406 959.3676443416621 # Ar
1157 1157 1 0.0 64.17948663834433 129.11115906247912 946.1586405240218 # Ar
1158 1158 1 0.0 632.0574796425907 808.61413253678 934.6303163864594 # Ar
1159 1159 1 0.0 1071.2495683557465 1005.6415606398044 964.4821056632032 # Ar
1160 1160 1 0.0 717.8125849401418 110.9695418132911 1273.3042759982413 # Ar
1161 1161 1 0.0 764.6971975501401 931.569159533179 1047.4729440376557 # Ar
1162 1162 1 0.0 648.39568316331 813.5698632175134 814.4683544993061 # Ar
1163 1163 1 0.0 1029.166763993395 347.77943716867406 1098.3193396602485 # Ar
1164 1164 1 0.0 415.8657078371886 533.4507612300033 282.93015381554244 # Ar
1165 1165 1 0.0 929.6319066182652 551.0553156626959 81.96267619323561 # Ar
1166 1166 1 0.0 269.0547256395663 324.23163895771523 33.626577898333565 # Ar
1167 1167 1 0.0 108.9267559462012 750.751982343551 273.46626983682376 # Ar
1168 1168 1 0.0 1253.2961674830392 742.7873842432966 772.2446831021932 # Ar
1169 1169 1 0.0 607.1849537097271 858.7146492395834 223.29391527023148 # Ar
1170 1170 1 0.0 632.2363146058284 200.18340421488426 229.67433034085408 # Ar
1171 1171 1 0.0 39.402045737772184 891.6573329007119 1121.8990867114312 # Ar
1172 1172 1 0.0 121.69849740852365 1263.5044483870852 305.26186156748537 # Ar
1173 1173 1 0.0 714.3595608226017 1062.172671940836 991.291786280469 # Ar
1174 1174 1 0.0 1195.2731354910916 169.66344422257848 485.352642924376 # Ar
1175 1175 1 0.0 69.91424894885571 1044.0273475469285 1203.2038944032822 # Ar
1176 1176 1 0.0 972.9070821658022 274.6006258037736 1264.9975155532757 # Ar
1177 1177 1 0.0 990.7578272065008 814.7744113071965 504.24531017296033 # Ar
1178 1178 1 0.0 1144.4508459232597 21.770893312478556 548.4945990038323 # Ar
1179 1179 1 0.0 1011.9146049008104 1113.674077051351 699.5056538396328 # Ar
1180 1180 1 0.0 572.6199779205051 371.5946320441079 317.1938928977915 # Ar
1181 1181 1 0.0 131.03206827520867 780.3851871986051 1007.1600849992776 # Ar
1182 1182 1 0.0 812.3486446188396 605.9170878040294 522.1756528569177 # Ar
1183 1183 1 0.0 999.9152306626747 673.6579163633095 993.169330264228 # Ar
1184 1184 1 0.0 319.85962531820735 339.5246718949346 1282.1458461878556 # Ar
1185 1185 1 0.0 513.4142622265636 427.31369221728045 1061.3274262064124 # Ar
1186 1186 1 0.0 1211.8671137878487 241.5754279900267 1201.3380623972648 # Ar
1187 1187 1 0.0 721.1912721584935 691.6236293909529 521.6194923094156 # Ar
1188 1188 1 0.0 1029.2005497856242 789.1060003603098 244.40235313060123 # Ar
1189 1189 1 0.0 577.833567132889 1045.7288172986514 94.09590191993324 # Ar
1190 1190 1 0.0 1270.1871924017682 1078.1651825560011 231.41028594033278 # Ar
1191 1191 1 0.0 280.45782687261794 530.5941281788383 1256.1769866846405 # Ar
1192 1192 1 0.0 6.340237946587112 1275.4161227718937 992.8203575203996 # Ar
1193 1193 1 0.0 889.9381136843721 28.611925134900304 1281.0233580703352 # Ar
1194 1194 1 0.0 1080.1661330193622 1070.6453143212948 476.0245248736672 # Ar
1195 1195 1 0.0 40.21352674891367 657.8385588275128 129.44599234553235 # Ar
1196 1196 1 0.0 682.9343122859095 168.67062746796503 254.4798482109019 # Ar
1197 1197 1 0.0 1086.7074935968942 362.86800735337425 1086.7735538461327 # Ar
1198 1198 1 0.0 467.15747792432444 936.2323805025869 857.0650751303276 # Ar
1199 1199 1 0.0 424.05449139302885 706.3934625324684 519.8992162146717 # Ar
1200 1200 1 0.0 82.52949582546604 142.60969533701387 1108.9399847069953 # Ar
1201 1201 1 0.0 402.3697283767185 64.33336717747851 1139.4767066347029 # Ar
1202 1202 1 0.0 947.3000852114614 1183.9076546206877 652.8006579120567 # Ar
1203 1203 1 0.0 948.4610102340167 1264.3831896649722 1291.9684718558447 # Ar
1204 1204 1 0.0 543.9743620359375 501.6585716042672 1085.7126282716874 # Ar
1205 1205 1 0.0 602.6255476037904 1286.7831839533396 74.31668545512116 # Ar
1206 1206 1 0.0 906.1365158127676 375.6344033369406 394.6859543168427 # Ar
1207 1207 1 0.0 365.91836636865827 106.10522504866631 952.239880235294 # Ar
1208 1208 1 0.0 1118.0282864994083 951.0551313320623 312.2396991192512 # Ar
1209 1209 1 0.0 1074.542470144928 1064.2586556915837 729.1781630006019 # Ar
1210 1210 1 0.0 585.6940591211379 1243.87922455593 127.11717387377034 # Ar
1211 1211 1 0.0 380.52329270298566 38.42052313972206 369.19886981935696 # Ar
1212 1212 1 0.0 372.9506392879101 813.3789184484156 802.2881590753528 # Ar
1213 1213 1 0.0 488.8348892226984 190.72035967004663 676.7269543353358 # Ar
1214 1214 1 0.0 1154.9495923167824 76.62585205937073 1094.3012780343836 # Ar
1215 1215 1 0.0 335.1972458124483 432.39888128058647 1207.2620726194555 # Ar
1216 1216 1 0.0 520.4975220642134 625.1861967752354 445.25499064663427 # Ar
1217 1217 1 0.0 1268.3303371126096 484.7999455379521 257.797172706428 # Ar
1218 1218 1 0.0 1062.0964165766754 240.60756188360327 943.5961737631648 # Ar
1219 1219 1 0.0 1098.0321004286814 1237.3624174426284 139.25304382754058 # Ar
1220 1220 1 0.0 591.5861981292971 1010.2324774563064 351.6773350474151 # Ar
1221 1221 1 0.0 420.28017068437674 67.31952986780459 86.27209382828515 # Ar
1222 1222 1 0.0 884.3448640328709 390.561040591357 477.2827199961064 # Ar
1223 1223 1 0.0 327.18909374759437 1071.0631112500687 382.31593135906894 # Ar
1224 1224 1 0.0 258.07511118167673 25.38791187620094 607.3459867174917 # Ar
1225 1225 1 0.0 1208.3527085330923 876.2588474164585 199.58923888466495 # Ar
1226 1226 1 0.0 434.61653173599217 1082.890614261519 864.8536181463996 # Ar
1227 1227 1 0.0 338.06773836183936 807.6545727236561 632.3806381789725 # Ar
1228 1228 1 0.0 204.11263853012755 1008.6084684008357 399.336335538366 # Ar
1229 1229 1 0.0 1127.8931047949777 1017.3729090340973 512.8247804900642 # Ar
1230 1230 1 0.0 1066.4892424229452 507.3712636310401 793.1418448240152 # Ar
1231 1231 1 0.0 871.1238212745465 980.2778866275867 461.10367887350304 # Ar
1232 1232 1 0.0 359.6681620637451 688.0679745928289 728.7882099160123 # Ar
1233 1233 1 0.0 384.43680503012956 1223.15522238306 1013.4321480877669 # Ar
1234 1234 1 0.0 868.4400260565504 649.8292047553502 454.3356962449563 # Ar
1235 1235 1 0.0 953.5031259537841 607.3985346871713 487.54762328187405 # Ar
1236 1236 1 0.0 750.0439690004577 515.8162201002989 55.36986171122403 # Ar
1237 1237 1 0.0 1024.2936887916298 693.373914548802 316.1600995864475 # Ar
1238 1238 1 0.0 960.4360619237872 699.7851158401968 978.3325227129766 # Ar
1239 1239 1 0.0 25.582813835810054 778.0148857078525 487.1897006946869 # Ar
1240 1240 1 0.0 1038.7658739382107 524.5988672594192 1259.957855473169 # Ar
1241 1241 1 0.0 261.48347357056434 1119.5323622477472 588.4349995963678 # Ar
1242 1242 1 0.0 1293.1791482709054 130.17633337464682 927.5020153489206 # Ar
1243 1243 1 0.0 846.4531742487335 1106.3364233140226 188.05898548458785 # Ar
1244 1244 1 0.0 864.1507649402798 6.36655664601289 560.6602133467165 # Ar
1245 1245 1 0.0 1260.2769766318047 833.6736061793239 1234.4799982701497 # Ar
1246 1246 1 0.0 190.6256124438283 825.2358376247612 1171.3156726367129 # Ar
1247 1247 1 0.0 388.9680031149309 1011.6010561380043 927.2797710866494 # Ar
1248 1248 1 0.0 861.0630371331905 1254.7728797017526 773.9326236612815 # Ar
1249 1249 1 0.0 1180.3023547039513 680.2623226213664 802.8904955281407 # Ar
1250 1250 1 0.0 672.6222238824405 532.315600262161 69.25347005428225 # Ar
1251 1251 1 0.0 763.9825483225942 125.41772459742428 816.0030325540961 # Ar
1252 1252 1 0.0 207.16611380174177 746.160806179593 807.4439361212882 # Ar
1253 1253 1 0.0 1148.3361387568523 867.4203496546894 604.2951626152145 # Ar
1254 1254 1 0.0 1128.1921647612105 485.7380300612947 862.1110401285612 # Ar
1255 1255 1 0.0 200.38522927351715 236.69173890815293 230.89105872407708 # Ar
1256 1256 1 0.0 1230.8711938061133 681.8414507096193 692.1506477555074 # Ar
1257 1257 1 0.0 679.4315327430782 45.16093877545422 375.112958890709 # Ar
1258 1258 1 0.0 597.9184925771767 152.80496468238252 1104.4401519678524 # Ar
1259 1259 1 0.0 970.614846525702 877.387695116689 164.769395417165 # Ar
1260 1260 1 0.0 842.4403018305213 298.403362874684 805.9249247144518 # Ar
1261 1261 1 0.0 142.94810993915493 983.2805233694108 1114.678526992186 # Ar
1262 1262 1 0.0 833.5511254759645 442.47164140798037 1060.110991907704 # Ar
1263 1263 1 0.0 828.1015026433757 1046.5687325112879 1149.2835049190078 # Ar
1264 1264 1 0.0 56.90171976185566 109.45647332460157 960.2216933652353 # Ar
1265 1265 1 0.0 1009.5050415488643 513.3972224058782 1127.528696316371 # Ar
1266 1266 1 0.0 628.1367836456176 143.5493134884698 516.5440068568279 # Ar
1267 1267 1 0.0 572.7964273791823 403.0876650138506 319.74417196645385 # Ar
1268 1268 1 0.0 1028.8251840751652 99.49722134044299 851.1656504468858 # Ar
1269 1269 1 0.0 422.40976385566415 585.6194433999331 627.2160388848594 # Ar
1270 1270 1 0.0 1230.761915794333 1190.1721249926825 904.157042935833 # Ar
1271 1271 1 0.0 962.2034079570088 342.66802864085685 1009.0374055396215 # Ar
1272 1272 1 0.0 181.81298373009014 320.41947075257525 968.3263755877886 # Ar
1273 1273 1 0.0 138.6339901698216 894.607232233003 964.5611586863276 # Ar
1274 1274 1 0.0 119.30754149432414 1089.130871237489 36.7544828783175 # Ar
1275 1275 1 0.0 32.8086347216157 638.1290435052251 871.0031144724236 # Ar
1276 1276 1 0.0 1270.4483647303566 1104.400666358495 976.8957672294703 # Ar
1277 1277 1 0.0 131.3313028544129 533.2471365336999 1281.3942320540234 # Ar
1278 1278 1 0.0 771.5308331234409 803.8157957490056 853.8472713827949 # Ar
1279 1279 1 0.0 819.0386000116131 98.64308787929862 917.7369424057889 # Ar
1280 1280 1 0.0 40.98504674489019 460.13115294940917 62.31876858761391 # Ar
1281 1281 1 0.0 1110.6623544367085 1164.9997860447234 962.5078414596613 # Ar
1282 1282 1 0.0 290.87988631197044 1160.7084057454933 756.0838145130153 # Ar
1283 1283 1 0.0 704.7095174805582 633.9224325884401 891.5876227373863 # Ar
1284 1284 1 0.0 306.7474624391635 1060.292974835991 506.77652970412333 # Ar
1285 1285 1 0.0 785.167696314646 577.7989830710633 172.82234105382614 # Ar
1286 1286 1 0.0 1268.019596181169 311.5108070896469 316.05763839810214 # Ar
1287 1287 1 0.0 564.8657267091527 865.0161518046381 460.42106889161624 # Ar
1288 1288 1 0.0 808.9328702927767 584.4501710936133 412.9708724516397 # Ar
1289 1289 1 0.0 1011.4722688217379 946.3999728998724 851.9767502380213 # Ar
1290 1290 1 0.0 566.6258891237304 121.1363922367265 1026.8386176518172 # Ar
1291 1291 1 0.0 75.88268492830323 665.5341287827346 96.52004830717465 # Ar
1292 1292 1 0.0 952.5624876370689 855.1079776479044 482.72362471248243 # Ar
1293 1293 1 0.0 144.66292329974914 911.7909333733193 232.84678591053333 # Ar
1294 1294 1 0.0 1008.3873209369825 706.5082830058466 30.53024163757892 # Ar
1295 1295 1 0.0 233.6258771125809 386.5839164536761 1088.97866747405 # Ar
1296 1296 1 0.0 133.193193960901 376.9770256456745 1161.6427909277204 # Ar
1297 1297 1 0.0 827.8595453802943 1019.3562258675754 466.61456009993987 # Ar
1298 1298 1 0.0 91.86848283550633 353.39601135720216 541.0531831078201 # Ar
1299 1299 1 0.0 707.44224693208 440.2768476972167 326.12797780363576 # Ar
1300 1300 1 0.0 332.067804930019 256.5686818558973 706.977702662426 # Ar
1301 1301 1 0.0 827.1678885741825 891.3174946389852 885.0838929569994 # Ar
1302 1302 1 0.0 324.13157317530784 511.7703118407178 198.14845080792944 # Ar
1303 1303 1 0.0 968.9005130814979 35.18669106050853 627.0083251515405 # Ar
1304 1304 1 0.0 360.0968369982223 1101.455647371118 1077.3549616844484 # Ar
1305 1305 1 0.0 260.1604597020361 956.4057576589979 1131.1954870266713 # Ar
1306 1306 1 0.0 174.95493877442183 16.850013136479046 337.6190555934653 # Ar
1307 1307 1 0.0 1148.3071931040442 946.0100506201628 905.5816542086533 # Ar
1308 1308 1 0.0 908.5217831625727 571.8008607359218 618.5143108453788 # Ar
1309 1309 1 0.0 737.3379155077029 1074.0988712226085 810.9126557214153 # Ar
1310 1310 1 0.0 605.0928863842056 733.0220426132817 87.78172112670946 # Ar
1311 1311 1 0.0 517.4474837511744 955.4185936136215 721.5886850684828 # Ar
1312 1312 1 0.0 129.39510241330916 1028.5136460901645 263.3494358864481 # Ar
1313 1313 1 0.0 1009.713426897153 123.85398311589435 188.06713665385146 # Ar
1314 1314 1 0.0 635.9772965176219 406.4904227802017 120.53099423066125 # Ar
1315 1315 1 0.0 1250.190286954778 872.8787343104204 716.461460779569 # Ar
1316 1316 1 0.0 774.7597719897324 537.6537290156531 210.12483695887246 # Ar
1317 1317 1 0.0 778.7939035367446 259.51278019323377 577.8866177011977 # Ar
1318 1318 1 0.0 173.63352345408452 1080.1629797766527 1160.9803179362248 # Ar
1319 1319 1 0.0 1200.4641560308141 356.57751302343917 157.5244187936999 # Ar
1320 1320 1 0.0 360.1163974591068 253.41929023263995 1093.8236956327398 # Ar
1321 1321 1 0.0 704.296802069503 1041.9053039367352 1249.4066001153183 # Ar
1322 1322 1 0.0 95.45281936233557 276.778232807357 10.071804256307438 # Ar
1323 1323 1 0.0 1148.8623353697412 597.3457923966159 612.4172899119095 # Ar
1324 1324 1 0.0 131.5836132586052 999.2943322392159 1132.5875000803073 # Ar
1325 1325 1 0.0 1180.7157658691428 1168.5218463640485 127.63457237643316 # Ar
1326 1326 1 0.0 208.21183680144298 1185.5928342677225 887.7420213829014 # Ar
1327 1327 1 0.0 526.7658644504463 1050.484834036669 93.09180924439616 # Ar
1328 1328 1 0.0 1137.051617461386 1252.4307003571319 135.91154051746526 # Ar
1329 1329 1 0.0 539.6106760354759 417.0219732115932 1102.0128016631884 # Ar
1330 1330 1 0.0 264.21758475896354 921.0241371430354 522.4318960042947 # Ar
1331 1331 1 0.0 964.9696087452827 870.3547255139963 419.73960294171667 # Ar
1332 1332 1 0.0 1177.990224200671 981.262715874208 769.4206576375219 # Ar
1333 1333 1 0.0 259.0168771695217 1108.5566378269652 629.798941104799 # Ar
1334 1334 1 0.0 86.41226888787547 107.95456874831612 42.13767731620839 # Ar
1335 1335 1 0.0 856.3527309909587 1016.7431092413216 392.37696766491274 # Ar
1336 1336 1 0.0 1207.343113567701 427.7749774943455 420.9341576322629 # Ar
1337 1337 1 0.0 41.55548971323686 199.34926986550235 1214.8276682190829 # Ar
1338 1338 1 0.0 1241.0708612691449 974.0069063094863 207.92057032664582 # Ar
1339 1339 1 0.0 707.2955713318936 624.10431162859 100.94230660569544 # Ar
1340 1340 1 0.0 1019.0019903896452 315.2825743454289 871.1021861207827 # Ar
1341 1341 1 0.0 126.4605777110506 847.5226446453962 82.75741934618254 # Ar
1342 1342 1 0.0 651.0662744292077 1067.2666483421024 673.991592468716 # Ar
1343 1343 1 0.0 488.23221757991325 526.1497093259258 467.7421921250138 # Ar
1344 1344 1 0.0 178.1801855340648 889.4836528799166 190.236400639837 # Ar
1345 1345 1 0.0 361.8201865454387 945.1284677367564 734.9000236734191 # Ar
1346 1346 1 0.0 952.8961754261207 637.7123399274158 1241.7299289964608 # Ar
1347 1347 1 0.0 664.0855431523605 238.01272072393914 416.64411789616884 # Ar
1348 1348 1 0.0 395.05485046303926 856.7676474506276 941.504253014174 # Ar
1349 1349 1 0.0 703.3416888689976 776.0721599833837 149.39528118019163 # Ar
1350 1350 1 0.0 1189.3468373857079 426.1870249704784 335.63403032084705 # Ar
1351 1351 1 0.0 249.19702439317422 854.1029775831125 1207.977698787466 # Ar
1352 1352 1 0.0 994.8753964435377 1285.8023370363185 548.3318942439158 # Ar
1353 1353 1 0.0 21.034234189467007 146.66602043166253 1257.3901631068904 # Ar
1354 1354 1 0.0 1272.1071863190732 590.8304618037436 576.9423048459355 # Ar
1355 1355 1 0.0 686.683131442723 166.29725430376845 218.2000672304082 # Ar
1356 1356 1 0.0 115.44350020050786 716.1911631497063 524.3981383248552 # Ar
1357 1357 1 0.0 614.458982681632 886.5822419696703 1056.1286298344469 # Ar
1358 1358 1 0.0 275.93548791132343 1077.56364684024 1069.6877389186373 # Ar
1359 1359 1 0.0 882.3184616892025 665.9428412945812 7.50832190193332 # Ar
1360 1360 1 0.0 341.52873875946784 92.80499768562416 1254.0739842188786 # Ar
1361 1361 1 0.0 1161.4374814640978 440.0571182243579 1166.5296575198204 # Ar
1362 1362 1 0.0 391.5119921442504 1290.93712286182 1183.552115243676 # Ar
1363 1363 1 0.0 1211.5988650497895 489.25559822044795 30.45100252117073 # Ar
1364 1364 1 0.0 994.3787167257915 575.9008217353604 255.5046100972221 # Ar
1365 1365 1 0.0 1134.71158300763 65.27578252967896 696.7045452688623 # Ar
1366 1366 1 0.0 640.6577236435808 1168.6090553373087 628.0387757184931 # Ar
1367 1367 1 0.0 966.0651036181537 690.2954922317294 539.7518243614571 # Ar
1368 1368 1 0.0 304.44045728002243 1142.3120542263287 350.5018088704969 # Ar
1369 1369 1 0.0 179.54204545449124 847.4162220451865 523.5760282156544 # Ar
1370 1370 1 0.0 998.9877942917255 1076.1833730112414 246.47506624126908 # Ar
1371 1371 1 0.0 788.6249945988665 817.9063707895925 545.9681947948843 # Ar
1372 1372 1 0.0 488.89639851439614 1218.3805563142846 888.8089711532486 # Ar
1373 1373 1 0.0 75.95888608067192 983.5291072429065 121.53340859509937 # Ar
1374 1374 1 0.0 303.66038998934494 995.6024771762579 1246.6502113532104 # Ar
1375 1375 1 0.0 1184.3672042915323 927.3136711141404 380.5790406793062 # Ar
1376 1376 1 0.0 250.79463450745115 817.5566394611848 880.7074359662253 # Ar
1377 1377 1 0.0 1151.452522565276 1066.1495077813995 796.583667704964 # Ar
1378 1378 1 0.0 135.01012507058437 559.3937969345092 937.1352234978298 # Ar
1379 1379 1 0.0 667.0078686439984 11.744760176487677 903.4038129923684 # Ar
1380 1380 1 0.0 272.0470177378179 376.58841707416684 20.115580653497744 # Ar
1381 1381 1 0.0 732.5811968981116 151.19120750872676 1235.2086745567312 # Ar
1382 1382 1 0.0 627.7953607165487 1295.756870490459 1258.1448314140514 # Ar
1383 1383 1 0.0 747.6495231906213 1173.1145209804672 444.2677821211061 # Ar
1384 1384 1 0.0 92.79342095301683 339.1356417153656 784.5047613621937 # Ar
1385 1385 1 0.0 596.2058716330721 837.3136422969816 443.8725678492114 # Ar
1386 1386 1 0.0 452.2335565607393 536.0517964348664 1268.0495987823758 # Ar
1387 1387 1 0.0 534.4568054402156 527.3326167527675 832.2410471690754 # Ar
1388 1388 1 0.0 434.3100015292391 847.3458455738356 1238.3944321103004 # Ar
1389 1389 1 0.0 74.48409839987922 585.959443373615 1178.1010408028972 # Ar
1390 1390 1 0.0 1274.55143717034 452.87986409319495 726.9592273781624 # Ar
1391 1391 1 0.0 468.8786099357987 1204.6432074193517 815.4729266936603 # Ar
1392 1392 1 0.0 245.49593365297355 244.349240940462 195.79795520957887 # Ar
1393 1393 1 0.0 362.70136857176686 1143.1772916488974 1172.995188084881 # Ar
1394 1394 1 0.0 49.6946085116954 685.0603597013644 917.2689855966631 # Ar
1395 1395 1 0.0 786.7861471412749 578.4197184067492 708.0615384021042 # Ar
1396 1396 1 0.0 252.2146020262093 48.74416006210334 889.9680812850133 # Ar
1397 1397 1 0.0 625.9791884461285 322.16587629160006 1109.601871123662 # Ar
1398 1398 1 0.0 1190.2966818521058 390.0018791204756 641.310389407879 # Ar
1399 1399 1 0.0 875.2605136483468 1214.8503554815268 173.74517115132198 # Ar
1400 1400 1 0.0 386.4754481165091 602.9477721463417 746.9065527065019 # Ar
1401 1401 1 0.0 69.15179623674173 454.64775423801404 833.2251473661457 # Ar
1402 1402 1 0.0 489.6179863883598 537.6234024465506 238.0835728838694 # Ar
1403 1403 1 0.0 182.95459965371217 162.20418160254926 427.1396332925375 # Ar
1404 1404 1 0.0 1152.6313480474296 149.4703407644508 873.2534075877644 # Ar
1405 1405 1 0.0 1216.6094084498368 1144.9410390063988 36.319563500599415 # Ar
1406 1406 1 0.0 222.11012711287694 898.3090113956586 842.4016723464463 # Ar
1407 1407 1 0.0 800.1692492623971 404.8974564405431 538.0574836308053 # Ar
1408 1408 1 0.0 1273.5234084921965 180.1017919437993 303.1756297927445 # Ar
1409 1409 1 0.0 845.4828076789682 849.0366397337758 1093.8732811513369 # Ar
1410 1410 1 0.0 153.75972714622594 101.94214333471717 651.194261845457 # Ar
1411 1411 1 0.0 861.1991726783406 458.609515633561 1000.2527144748439 # Ar
1412 1412 1 0.0 657.8324302939548 775.7248781825832 190.27248741614298 # Ar
1413 1413 1 0.0 941.3840445927681 619.1267890803385 631.5015652924906 # Ar
1414 1414 1 0.0 1019.8977001289418 517.6984606389934 446.0394986233859 # Ar
1415 1415 1 0.0 91.47927775182599 924.7940003758995 56.483210228408645 # Ar
1416 1416 1 0.0 888.314326587532 1224.824263463849 1174.139020485052 # Ar
1417 1417 1 0.0 344.2054565698245 620.7762026389373 639.1184726441697 # Ar
1418 1418 1 0.0 513.6240773026591 1187.1597249431888 228.54154517937778 # Ar
1419 1419 1 0.0 1103.4627805945443 880.463922149972 1166.3616705169864 # Ar
1420 1420 1 0.0 100.57448845044861 511.2589167154885 700.3905617562108 # Ar
1421 1421 1 0.0 238.3020163900597 444.19699140518816 1151.9809327227847 # Ar
1422 1422 1 0.0 1218.003530485943 1237.8349641836644 815.2923053121968 # Ar
1423 1423 1 0.0 28.132116011969735 565.6992838124163 80.61491420045976 # Ar
1424 1424 1 0.0 1211.7944247508403 380.712845690734 308.46689240414196 # Ar
1425 1425 1 0.0 567.3283653530412 1126.3571717041596 623.8676676561931 # Ar
1426 1426 1 0.0 1267.568861609864 1036.6140912136157 713.685176179024 # Ar
1427 1427 1 0.0 428.97081138077607 193.38667879487045 1235.045784122933 # Ar
1428 1428 1 0.0 972.7045513742138 408.30785763607923 559.5699936267151 # Ar
1429 1429 1 0.0 622.0609853512517 975.0355891043474 95.72832301417591 # Ar
1430 1430 1 0.0 1125.562087302304 524.5475054329575 643.9147862563725 # Ar
1431 1431 1 0.0 32.03327974930431 488.4571895133991 717.5880990289953 # Ar
1432 1432 1 0.0 1244.7269725588192 817.0993123076464 437.5877338898548 # Ar
1433 1433 1 0.0 1256.5946366042233 851.1226794368293 1200.6681482892218 # Ar
1434 1434 1 0.0 316.6336371550921 431.153416145845 1116.0903201079884 # Ar
1435 1435 1 0.0 18.707606169740075 1269.170930508843 492.31929379257735 # Ar
1436 1436 1 0.0 1144.4341936368844 263.10563103278554 779.1119413221014 # Ar
1437 1437 1 0.0 537.5132910647277 235.0907107647724 6.720859132559436 # Ar
1438 1438 1 0.0 99.85137183625865 1093.3269024783176 844.5423779394496 # Ar
1439 1439 1 0.0 963.1986441259705 386.6965885104037 1014.5893167320537 # Ar
1440 1440 1 0.0 1106.1376164421704 719.9443424171657 728.1044808085124 # Ar
1441 1441 1 0.0 276.23224969566195 728.279374780631 827.2058750126475 # Ar
1442 1442 1 0.0 1274.5447714851161 239.1887248443077 771.8860567401939 # Ar
1443 1443 1 0.0 727.3976780668434 222.89803952618698 838.3003595080853 # Ar
1444 1444 1 0.0 459.7767227597543 346.8426111052014 273.96317646143336 # Ar
1445 1445 1 0.0 728.7265797444627 954.0634303316766 0.8775214976579572 # Ar
1446 1446 1 0.0 561.661905825681 1090.3986855459507 174.24934459839704 # Ar
1447 1447 1 0.0 1067.7928242637934 1134.3134655891117 110.97491866953547 # Ar
1448 1448 1 0.0 876.3853719078439 538.4406095896976 992.5453981553936 # Ar
1449 1449 1 0.0 686.4035593306112 1208.0190976261586 1059.2326149090559 # Ar
1450 1450 1 0.0 1065.7917726631615 847.9910663572883 1228.1679862625801 # Ar
1451 1451 1 0.0 757.8559106256357 894.6730522813788 660.7699583024332 # Ar
1452 1452 1 0.0 1034.2911030852101 205.59935857072313 733.9308674142171 # Ar
1453 1453 1 0.0 651.1181105482848 441.31385660479293 978.3519186161412 # Ar
1454 1454 1 0.0 1125.9346926586006 635.5310861150264 1031.8602297701934 # Ar
1455 1455 1 0.0 294.43462202577336 365.6943135144579 694.9899094848913 # Ar
1456 1456 1 0.0 269.58425848809844 787.900530216525 244.93771370163032 # Ar
1457 1457 1 0.0 1127.4497331717305 1017.6291975098401 1053.6416979048927 # Ar
1458 1458 1 0.0 623.6717475995725 877.6813079606981 971.42826092393 # Ar
1459 1459 1 0.0 1237.6069158644332 99.00722705684205 867.7207297577378 # Ar
1460 1460 1 0.0 1049.8804632741735 836.2226067090027 849.1618947260564 # Ar
1461 1461 1 0.0 780.2514672675982 351.28781436520893 915.2492951211286 # Ar
1462 1462 1 0.0 799.3619281433542 1228.0108540235992 111.05694984669155 # Ar
1463 1463 1 0.0 657.5499206866659 1241.9761790837224 1091.7228951770635 # Ar
1464 1464 1 0.0 95.67591770846589 616.8400050985936 827.618546771685 # Ar
1465 1465 1 0.0 939.3996185645416 151.90215698920917 843.5410480657873 # Ar
1466 1466 1 0.0 580.4825900024952 1020.1273240708131 792.2374000037421 # Ar
1467 1467 1 0.0 472.3504471341174 220.86356635295064 1196.9586333240347 # Ar
1468 1468 1 0.0 874.226473763865 910.5910218118794 1152.6412603147248 # Ar
1469 1469 1 0.0 745.7187872516395 773.8826484852675 66.39992772604651 # Ar
1470 1470 1 0.0 586.5251173188544 1157.1014838280707 475.0337563398349 # Ar
1471 1471 1 0.0 325.7562564877597 291.0890788340874 808.3994558342958 # Ar
1472 1472 1 0.0 1234.2728073182789 108.25641386989192 1098.369489480518 # Ar
1473 1473 1 0.0 286.23870415910204 839.0446305359127 323.77895106407146 # Ar
1474 1474 1 0.0 1.9425744271123706 1187.8513717202927 145.4378488285184 # Ar
1475 1475 1 0.0 80.94911593014666 625.133289612993 466.16974193752225 # Ar
1476 1476 1 0.0 146.68445682581824 988.5724760589284 4.274059933831713 # Ar
1477 1477 1 0.0 744.8783362913072 764.184689451173 1017.5806661142703 # Ar
1478 1478 1 0.0 930.160403231335 1278.1729722906432 1227.7412096286455 # Ar
1479 1479 1 0.0 1126.3282173476055 479.96916981556865 451.4119354156254 # Ar
1480 1480 1 0.0 302.9708695753032 625.5230287299023 52.02524798473463 # Ar
1481 1481 1 0.0 1169.9055379462302 928.6356559141199 482.9683819859727 # Ar
1482 1482 1 0.0 724.9803780046062 651.384307842477 510.4676488265337 # Ar
1483 1483 1 0.0 1192.3582553758185 1057.1312969607036 292.3214569411991 # Ar
1484 1484 1 0.0 530.4056234106413 94.60006236774123 402.65855085481667 # Ar
1485 1485 1 0.0 1279.539405843445 967.9858862293914 1098.4318692379786 # Ar
1486 1486 1 0.0 468.5148503753372 418.61147461735027 1124.1959252534423 # Ar
1487 1487 1 0.0 746.8901868381662 560.7578063121622 34.3870558827835 # Ar
1488 1488 1 0.0 592.3035955827098 358.23447026784237 537.2442782330804 # Ar
1489 1489 1 0.0 309.8487400741992 441.9503305074939 441.11186476554946 # Ar
1490 1490 1 0.0 956.5902496165415 853.6381119804324 569.4393286482814 # Ar
1491 1491 1 0.0 1121.1040604538014 72.0162323901543 630.5074521594638 # Ar
1492 1492 1 0.0 1046.5900345174887 350.7395804188979 319.8624922565673 # Ar
1493 1493 1 0.0 766.736058660533 256.07660133065474 1091.4555623057038 # Ar
1494 1494 1 0.0 1144.2729952741993 1067.404965590211 382.6761364567602 # Ar
1495 1495 1 0.0 351.2060336873672 1271.1051652300239 955.0443258890751 # Ar
1496 1496 1 0.0 323.7066027553734 773.8360932119548 1194.2179695913449 # Ar
1497 1497 1 0.0 180.00841304300334 517.1323689575768 157.64214395128795 # Ar
1498 1498 1 0.0 666.9895585842988 425.4684826305675 139.1242408690298 # Ar
1499 1499 1 0.0 115.73358502628436 691.4229633045338 785.1580948113752 # Ar
1500 1500 1 0.0 611.3359524172523 946.7386801086094 1270.6118953552539 # Ar
1501 1501 1 0.0 615.7370675644756 333.2647312220422 192.20843090933647 # Ar
1502 1502 1 0.0 95.3244178860147 1235.001507089616 415.5038413453325 # Ar
1503 1503 1 0.0 178.09390096126523 567.6867546608493 1014.8322555583695 # Ar
1504 1504 1 0.0 1056.6504103167076 1259.6048047012316 58.48562777252153 # Ar
1505 1505 1 0.0 124.57811880827832 759.3432544528408 56.04953776298111 # Ar
1506 1506 1 0.0 114.81720014698492 869.8514481344685 435.45305864247825 # Ar
1507 1507 1 0.0 469.0827758175595 206.59687943154694 1126.4799670305224 # Ar
1508 1508 1 0.0 575.1541890825467 1162.6539823568019 1134.1929796151871 # Ar
1509 1509 1 0.0 1136.7093136847482 407.77534976956247 326.37578484847404 # Ar
1510 1510 1 0.0 49.80396845460977 958.5968137036439 786.9203470194313 # Ar
1511 1511 1 0.0 498.56307406525286 648.5420057815816 1073.039219713362 # Ar
1512 1512 1 0.0 818.3922645952215 314.47926665158815 357.6401322061969 # Ar
1513 1513 1 0.0 989.061286554292 314.96779112489054 362.978415318748 # Ar
1514 1514 1 0.0 567.8218872538561 246.21599729815716 159.3090905702307 # Ar
1515 1515 1 0.0 1159.6471138338645 587.7056806768194 827.7189161162942 # Ar
1516 1516 1 0.0 331.1534594760785 258.8526460062265 972.7782021299051 # Ar
1517 1517 1 0.0 553.622117639478 374.1189495294249 449.29798130516735 # Ar
1518 1518 1 0.0 174.12045547090278 991.8600111571308 235.06981857361149 # Ar
1519 1519 1 0.0 520.7227937073876 624.1923362600928 783.2004765362597 # Ar
1520 1520 1 0.0 770.8415976055824 605.3953951585478 617.2896341330508 # Ar
1521 1521 1 0.0 209.90620456351587 822.4061961491338 265.42327970097244 # Ar
1522 1522 1 0.0 788.0482078784611 567.4120395047502 589.5796862934503 # Ar
1523 1523 1 0.0 1282.9321033727608 381.74263602339386 207.18734533862104 # Ar
1524 1524 1 0.0 16.003259546045655 240.91336852146037 1264.096082642764 # Ar
1525 1525 1 0.0 1290.492340101736 301.2239035972856 62.8936798783595 # Ar
1526 1526 1 0.0 663.8067626393959 913.760239955257 524.5150261203786 # Ar
1527 1527 1 0.0 345.2005441274806 1102.297165841008 541.1101475678903 # Ar
1528 1528 1 0.0 1107.4732283682047 1109.1112048390285 496.5607626317024 # Ar
1529 1529 1 0.0 237.2027561904011 795.2418497699754 207.83759155818527 # Ar
1530 1530 1 0.0 537.5666435605148 899.818914522401 933.8164079973408 # Ar
1531 1531 1 0.0 643.5243094666351 491.04477187743777 256.883139046885 # Ar
1532 1532 1 0.0 489.23367917534927 1015.2264140338388 1249.1751709670543 # Ar
1533 1533 1 0.0 638.7273361950307 1232.095146989979 332.48929289721923 # Ar
1534 1534 1 0.0 872.4293991961905 81.00052014995883 233.3450515832313 # Ar
1535 1535 1 0.0 1043.3214322407175 563.3451932742208 927.7033840065761 # Ar
1536 1536 1 0.0 817.5700281936832 760.4434256867107 171.72968918941763 # Ar
1537 1537 1 0.0 838.1830900739446 215.31511493739342 1069.0626098931555 # Ar
1538 1538 1 0.0 808.9165499719423 1210.6176961422798 708.8749194845147 # Ar
1539 1539 1 0.0 534.0720019835117 167.18435071356097 347.47190167528277 # Ar
1540 1540 1 0.0 360.00536809268215 725.4218517739698 596.1318629349962 # Ar
1541 1541 1 0.0 315.207172109192 475.61382030856873 35.153291201218046 # Ar
1542 1542 1 0.0 644.713088297754 596.7765570522132 297.4089910684973 # Ar
1543 1543 1 0.0 650.2525216455955 1142.4623629484483 10.525670484182958 # Ar
1544 1544 1 0.0 296.837809589984 1169.2964381287225 606.523933542932 # Ar
1545 1545 1 0.0 1193.8706306020345 459.91658884286034 90.30753022694111 # Ar
1546 1546 1 0.0 968.7174742743639 363.57472596723954 1087.6779124330901 # Ar
1547 1547 1 0.0 473.86872014468634 543.0192474750601 484.0357103673474 # Ar
1548 1548 1 0.0 918.7671838890449 729.9665989158996 1099.1758170735595 # Ar
1549 1549 1 0.0 1197.3100913970134 1291.6070525823516 891.7129378280157 # Ar
1550 1550 1 0.0 843.8922158711077 28.540738649065368 1283.4254389537093 # Ar
1551 1551 1 0.0 933.7837372221926 104.29757479134926 750.8420852144224 # Ar
1552 1552 1 0.0 3.486806277412304 967.9082089023731 153.18943191125925 # Ar
1553 1553 1 0.0 1177.5181212797838 463.116618684589 207.9163905247691 # Ar
1554 1554 1 0.0 1203.219208326384 767.8210368012113 1286.3487577904539 # Ar
1555 1555 1 0.0 1156.2173437270437 812.5727860298498 812.959016815032 # Ar
1556 1556 1 0.0 531.4012968933292 1070.698224183634 320.0420216274533 # Ar
1557 1557 1 0.0 660.7092478485438 1072.7110161351948 663.8144333058087 # Ar
1558 1558 1 0.0 1228.6836457863176 451.90361290613043 85.02159719580722 # Ar
1559 1559 1 0.0 464.02347284918767 921.6277196422544 1133.0252042461375 # Ar
1560 1560 1 0.0 789.768569835299 644.0643975850018 754.0850205331637 # Ar
1561 1561 1 0.0 901.7259652283427 371.0346836655885 1188.471495333259 # Ar
1562 1562 1 0.0 765.8877331856643 591.227271060381 397.6612742974155 # Ar
1563 1563 1 0.0 879.6458963414326 944.871223656921 483.28125081295644 # Ar
1564 1564 1 0.0 856.0846747925468 360.1081582724714 1220.3657813651128 # Ar
1565 1565 1 0.0 918.3886082402936 204.81888402384163 812.8127555544188 # Ar
1566 1566 1 0.0 877.632603308357 36.91451974258705 508.92389420920506 # Ar
1567 1567 1 0.0 1128.0656207906259 712.7101017886321 1279.1690579600445 # Ar
1568 1568 1 0.0 632.7063592773932 513.0680857410393 396.4972743770536 # Ar
1569 1569 1 0.0 836.5577445317288 921.4858304337603 579.4635707558274 # Ar
1570 1570 1 0.0 1220.815542661127 1258.5116999649435 992.3240762020629 # Ar
1571 1571 1 0.0 423.40459632334614 695.8620344374058 1198.080856583719 # Ar
1572 1572 1 0.0 1063.7777277158655 215.68143543429073 921.1928935109153 # Ar
1573 1573 1 0.0 1040.5131022674339 560.6972117243328 817.8318090010613 # Ar
1574 1574 1 0.0 992.4098943540168 65.46761629755895 585.0552160076761 # Ar
1575 1575 1 0.0 912.2974942102214 435.7671866157185 1290.4574714451574 # Ar
1576 1576 1 0.0 1104.5458537151906 157.38708382869814 141.23209249504956 # Ar
1577 1577 1 0.0 1053.1386776930303 844.8923165757056 137.4541686515066 # Ar
1578 1578 1 0.0 1155.3179072466169 740.0290132384672 793.7628290925045 # Ar
1579 1579 1 0.0 586.5827406159551 888.5050663688106 291.6797130931612 # Ar
1580 1580 1 0.0 602.7933829494317 1177.4276766323965 1101.4759056023238 # Ar
1581 1581 1 0.0 999.9002813982528 1128.0475952219967 787.0524245108883 # Ar
1582 1582 1 0.0 665.4954911341778 1187.6848064237995 543.8832708024655 # Ar
1583 1583 1 0.0 518.2113846233996 513.8098018659485 1018.1771552225443 # Ar
1584 1584 1 0.0 804.7859656001251 645.606352954627 30.14276288519529 # Ar
1585 1585 1 0.0 1263.0641158231522 1183.1087064326393 399.9470675802342 # Ar
1586 1586 1 0.0 923.8061605012551 1260.8728069311783 1243.694395732778 # Ar
1587 1587 1 0.0 1070.9234384041704 943.8679551678811 335.68770928870254 # Ar
1588 1588 1 0.0 659.2243139032482 775.7197138929553 96.51647394499771 # Ar
1589 1589 1 0.0 199.36064048633256 524.866919941212 511.88230803635577 # Ar
1590 1590 1 0.0 493.25563934899264 1261.4317335055093 137.0476105817437 # Ar
1591 1591 1 0.0 165.12337211431674 496.49099554994154 629.1469897758894 # Ar
1592 1592 1 0.0 813.9126002099373 205.03410569183885 36.312071294490465 # Ar
1593 1593 1 0.0 853.6211049164356 70.06268922392701 450.6353247982315 # Ar
1594 1594 1 0.0 1175.633502531964 536.193011516336 225.4988060597789 # Ar
1595 1595 1 0.0 829.9889605550037 492.8684849916847 636.4928331013443 # Ar
1596 1596 1 0.0 665.3443376565516 606.9788654495088 87.55584005841656 # Ar
1597 1597 1 0.0 326.3159090074982 571.7222819293462 86.49949782072702 # Ar
1598 1598 1 0.0 1232.9273444908197 317.75898793622036 382.6512919740808 # Ar
1599 1599 1 0.0 1031.674103441833 615.2977704876143 337.2482574359464 # Ar
1600 1600 1 0.0 577.3354066333828 1149.0198121937922 704.8059264164685 # Ar
1601 1601 1 0.0 1007.2667363137707 455.5552076826283 1246.1039130297816 # Ar
1602 1602 1 0.0 150.51274564240342 32.912056851582285 679.6349397365875 # Ar
1603 1603 1 0.0 204.25313090956223 235.92472007221372 926.4531128491101 # Ar
1604 1604 1 0.0 599.0891628725444 561.0881785610851 529.366044956175 # Ar
1605 1605 1 0.0 1116.179343916766 527.0426123104148 950.7136902952566 # Ar
1606 1606 1 0.0 60.004691199146734 560.4602438000876 52.37094737526484 # Ar
1607 1607 1 0.0 737.7715983362574 420.7078485881214 220.54195701536216 # Ar
1608 1608 1 0.0 780.5742081585307 914.6091124124099 63.70286293693278 # Ar
1609 1609 1 0.0 404.2996067534647 442.36437159480255 344.3935900823634 # Ar
1610 1610 1 0.0 322.42486143390704 1245.261576076229 221.64160533419752 # Ar
1611 1611 1 0.0 441.2145002760712 1148.005726867273 621.2082801602413 # Ar
1612 1612 1 0.0 796.4205422081296 116.41123099742924 743.431382947275 # Ar
1613 1613 1 0.0 250.9932279041778 945.9752278968682 815.8407283515681 # Ar
1614 1614 1 0.0 507.443933308977 991.9529613213141 1183.2926631061787 # Ar
1615 1615 1 0.0 141.01875342723696 1031.313094147986 116.13808263936292 # Ar
1616 1616 1 0.0 655.6665694111292 920.7600383425554 754.4907121691026 # Ar
1617 1617 1 0.0 906.1578549518628 567.6666625268241 777.5242396607814 # Ar
1618 1618 1 0.0 283.95607150851845 361.08662580558837 664.0706162022658 # Ar
1619 1619 1 0.0 179.43483208328092 702.4207239811595 998.0414544897292 # Ar
1620 1620 1 0.0 1229.9962738259248 979.7791421997784 787.6388481250842 # Ar
1621 1621 1 0.0 743.5492692511074 384.1190760996401 883.5093487919327 # Ar
1622 1622 1 0.0 1033.3668815477654 265.8974214770097 827.2250095611993 # Ar
1623 1623 1 0.0 309.86938092692674 1280.682477808469 1186.6981553856608 # Ar
1624 1624 1 0.0 1175.4945626748786 264.8773489609079 713.0571968116459 # Ar
1625 1625 1 0.0 511.69991092614555 956.0756891574537 778.4813333120662 # Ar
1626 1626 1 0.0 1250.3203961767135 1095.0882622296454 1195.804358943911 # Ar
1627 1627 1 0.0 561.9835703264006 557.7423601086072 1037.1316220393235 # Ar
1628 1628 1 0.0 272.77546599644984 1041.2189900480507 767.2681941170742 # Ar
1629 1629 1 0.0 735.5999295952346 430.16637121379847 293.6489628166605 # Ar
1630 1630 1 0.0 1273.1189258533652 299.0958194021274 977.1062858288516 # Ar
1631 1631 1 0.0 752.6727238536101 1017.3946094866421 560.2964941013827 # Ar
1632 1632 1 0.0 711.0096352223543 494.7895873491455 748.0091313698782 # Ar
1633 1633 1 0.0 204.45813635839826 489.78924270861705 633.1198398819577 # Ar
1634 1634 1 0.0 268.58030278151716 594.6315170471651 257.33053647887687 # Ar
1635 1635 1 0.0 323.2212769656676 573.9415621034901 168.39797390612716 # Ar
1636 1636 1 0.0 661.524911154993 279.13190670186356 592.5906323067348 # Ar
1637 1637 1 0.0 558.6721006513783 215.2810010800419 850.7726369670993 # Ar
1638 1638 1 0.0 305.13575906622725 204.3403598606171 410.867843907056 # Ar
1639 1639 1 0.0 782.9888098556372 99.21349403891362 722.7814955592781 # Ar
1640 1640 1 0.0 95.88546014625693 804.4034085178902 891.3790553399137 # Ar
1641 1641 1 0.0 826.3855865731086 488.17191425786524 495.1494703249294 # Ar
1642 1642 1 0.0 883.8138075990877 1231.4504954047086 1188.3943948018232 # Ar
1643 1643 1 0.0 868.8723347879559 629.0397535800738 649.7824418930746 # Ar
1644 1644 1 0.0 117.71041076410643 336.81135426120204 111.12852588112396 # Ar
1645 1645 1 0.0 388.8335161663589 521.998728809366 26.90042772327775 # Ar
1646 1646 1 0.0 1038.0528042370524 1084.3064188749547 499.56843156187534 # Ar
1647 1647 1 0.0 1188.6434498594012 410.1569747089515 531.653338457338 # Ar
1648 1648 1 0.0 226.56402646464562 454.1545915225907 940.0854334838651 # Ar
1649 1649 1 0.0 1103.3571942982685 131.53339743652606 592.5520834554494 # Ar
1650 1650 1 0.0 182.98793098992323 187.42855836728734 146.99849484418726 # Ar
1651 1651 1 0.0 45.259884110717074 205.50609246457483 602.171346798663 # Ar
1652 1652 1 0.0 895.3635881203384 450.005043885815 146.35243980505314 # Ar
1653 1653 1 0.0 323.7963488563194 940.2628770458235 266.1430226898387 # Ar
1654 1654 1 0.0 1020.7200812785012 663.857184867955 473.4829880390895 # Ar
1655 1655 1 0.0 1104.4850242208186 1266.7347859986594 502.51446294330333 # Ar
1656 1656 1 0.0 1017.7303818572507 299.25628739446176 198.4386625461624 # Ar
1657 1657 1 0.0 133.1375624353958 239.40588315994574 1026.1916830510718 # Ar
1658 1658 1 0.0 614.8548861016834 859.7689259674963 874.6855959608407 # Ar
1659 1659 1 0.0 455.1422996557493 826.6611408349248 118.89753554127667 # Ar
1660 1660 1 0.0 402.06748674481133 924.8995423853025 1020.5187401693236 # Ar
1661 1661 1 0.0 109.72475346955552 1277.4081423253886 659.1513430470667 # Ar
1662 1662 1 0.0 983.57004316172 443.2154335455641 434.67481965010654 # Ar
1663 1663 1 0.0 1190.6854450039434 977.1408520515494 883.2463168057047 # Ar
1664 1664 1 0.0 685.5012395619672 188.56584475530144 1137.4614251569349 # Ar
1665 1665 1 0.0 1145.8910622801448 889.5394187790822 343.63377892161003 # Ar
1666 1666 1 0.0 716.6318833086605 216.99362342487433 857.82343803331 # Ar
1667 1667 1 0.0 130.86871808812015 1069.7346955145574 88.50464262361395 # Ar
1668 1668 1 0.0 496.1798169600689 990.0746714810892 11.097382915919168 # Ar
1669 1669 1 0.0 32.481156747468965 690.3854240038098 1226.0313118838685 # Ar
1670 1670 1 0.0 494.26973585767234 292.75455003414044 68.66548462520142 # Ar
1671 1671 1 0.0 925.4986878243539 163.31928563090528 580.9677304434767 # Ar
1672 1672 1 0.0 1151.099874989203 1255.4804925224641 892.0488592317914 # Ar
1673 1673 1 0.0 342.39448752788263 902.9933032830672 21.867501409959406 # Ar
1674 1674 1 0.0 762.3469143990781 289.5992818668769 32.196992179414984 # Ar
1675 1675 1 0.0 1159.6451679063991 314.55932424416034 1110.40428684528 # Ar
1676 1676 1 0.0 1238.4626183843766 1095.8654928292417 354.47006882114675 # Ar
1677 1677 1 0.0 668.8700666652808 129.72262887624743 293.284670304743 # Ar
1678 1678 1 0.0 37.9969353042057 454.4687475588393 442.7470887492871 # Ar
1679 1679 1 0.0 811.6728021636357 823.3739424216501 616.1337227256877 # Ar
1680 1680 1 0.0 588.5704116279003 159.68165969489283 819.0401401710061 # Ar
1681 1681 1 0.0 715.178644444568 408.91254047109265 666.3655119975296 # Ar
1682 1682 1 0.0 1195.163724730464 314.3792887219869 1290.7244447552769 # Ar
1683 1683 1 0.0 189.1702394998448 1206.8346215288857 1141.7191761517552 # Ar
1684 1684 1 0.0 537.0081732526356 949.6345698789111 869.8586977858098 # Ar
1685 1685 1 0.0 795.2689141990244 438.5487251011927 1227.1332805718005 # Ar
1686 1686 1 0.0 455.7607820721665 160.55303830685324 1071.875004491331 # Ar
1687 1687 1 0.0 1132.5608853749964 286.42228305877666 794.270447660235 # Ar
1688 1688 1 0.0 419.814433949325 113.60042678592085 764.1593661788097 # Ar
1689 1689 1 0.0 402.65737383969235 189.74808931975932 1089.88781265758 # Ar
1690 1690 1 0.0 1289.1197423657798 13.855372751745382 617.6208256532441 # Ar
1691 1691 1 0.0 527.7482524758999 518.9376122407242 909.4429983346729 # Ar
1692 1692 1 0.0 980.7416164171442 991.3491058783792 504.2964048869984 # Ar
1693 1693 1 0.0 256.04129092813326 24.657889994645892 1143.3476219778877 # Ar
1694 1694 1 0.0 293.4639572231078 867.0587336870501 155.1074448837002 # Ar
1695 1695 1 0.0 1272.4673112394798 216.8859695197166 101.53755315664242 # Ar
1696 1696 1 0.0 560.8636217644477 1082.0418751763325 304.05304837372245 # Ar
1697 1697 1 0.0 19.08808509445594 843.2889076788877 267.9117395660757 # Ar
1698 1698 1 0.0 343.2151532308161 84.41494886516288 1245.1083627195733 # Ar
1699 1699 1 0.0 185.011717232514 1019.050772455481 669.9910367985017 # Ar
1700 1700 1 0.0 527.8546080961432 814.4615430269184 1031.984553891745 # Ar
1701 1701 1 0.0 924.5139435084914 654.3031256578765 1141.6686673741162 # Ar
1702 1702 1 0.0 827.757933738066 622.1992106901722 1155.5758070091824 # Ar
1703 1703 1 0.0 386.85083001606307 719.0114426312579 266.73347375839995 # Ar
1704 1704 1 0.0 215.8844379982147 1004.2192467071362 1115.555762588816 # Ar
1705 1705 1 0.0 667.7067336160188 588.9803054252397 288.5686954746063 # Ar
1706 1706 1 0.0 1023.9988481406326 245.89322329007703 1115.6582045601167 # Ar
1707 1707 1 0.0 930.3005484745391 662.5371705666049 1083.2791713653176 # Ar
1708 1708 1 0.0 83.97873655741269 296.62513619137667 1122.0523890002885 # Ar
1709 1709 1 0.0 1115.1756550019084 809.2024226279448 797.4484834570205 # Ar
1710 1710 1 0.0 142.57628851738485 541.7822280674434 667.2500108888413 # Ar
1711 1711 1 0.0 1177.6087666690432 229.33333252966682 1144.0518152278898 # Ar
1712 1712 1 0.0 135.40106210938256 1250.178949134967 970.1793167434789 # Ar
1713 1713 1 0.0 653.1859641573836 906.6385164296806 636.2311379862248 # Ar
1714 1714 1 0.0 366.1340315264096 1216.047146911973 1082.8973646335758 # Ar
1715 1715 1 0.0 1292.036741074241 624.2425876359072 502.39917055858604 # Ar
1716 1716 1 0.0 865.7564654250925 391.25116520621515 611.7581887417277 # Ar
1717 1717 1 0.0 945.8754945891296 1028.7281683803903 629.2485519701007 # Ar
1718 1718 1 0.0 1045.6949822888082 446.2153370338062 1239.1859205458982 # Ar
1719 1719 1 0.0 60.70037901693354 1144.8435278700674 1112.7887178282624 # Ar
1720 1720 1 0.0 420.5180377961982 809.2494383889709 1070.4027144816828 # Ar
1721 1721 1 0.0 944.2600754276614 483.0776984982379 254.3147977225001 # Ar
1722 1722 1 0.0 573.8651186889128 150.41262241576473 508.02724040704305 # Ar
1723 1723 1 0.0 1032.4871729128947 145.10570666691294 172.90097595779696 # Ar
1724 1724 1 0.0 256.04875203631974 1273.6139245321187 101.0073804406644 # Ar
1725 1725 1 0.0 437.71187594717543 522.060983707759 424.0464064371276 # Ar
1726 1726 1 0.0 455.60574680381916 1225.8857956516572 98.14361211805755 # Ar
1727 1727 1 0.0 910.3525680197462 1125.6996348023877 73.7728361239142 # Ar
1728 1728 1 0.0 284.42735385041254 119.9473603939993 1152.5387609332429 # Ar
1729 1729 1 0.0 40.132277691711074 783.912083081878 924.9579131969901 # Ar
1730 1730 1 0.0 183.24317081500894 709.1999444619559 884.9671974190412 # Ar
1731 1731 1 0.0 287.8757771157173 267.4564224584477 1018.791576255922 # Ar
1732 1732 1 0.0 648.7399686931927 1094.1329382544316 171.747125512663 # Ar
1733 1733 1 0.0 365.9459531526331 868.6411891326769 902.5654290580081 # Ar
1734 1734 1 0.0 620.0897027899433 760.7164507798097 1096.4284529961444 # Ar
1735 1735 1 0.0 981.7538801175136 1225.9302377489962 756.3331473561229 # Ar
1736 1736 1 0.0 42.540329999981715 503.68194135095007 1189.191950418876 # Ar
1737 1737 1 0.0 5.259512355448426 191.64000301814818 1075.5554809410053 # Ar
1738 1738 1 0.0 534.5426869701433 580.6375270878733 909.727759604551 # Ar
1739 1739 1 0.0 124.9275254443195 752.3153369123789 851.4678834496095 # Ar
1740 1740 1 0.0 233.12315927970215 502.1270027826549 1099.5580786998719 # Ar
1741 1741 1 0.0 168.3904155762321 354.5494094800161 441.23566797310986 # Ar
1742 1742 1 0.0 833.3410187370459 1034.1400258674196 188.7119218362644 # Ar
1743 1743 1 0.0 869.8485606757679 928.8238083594297 1110.2559355054736 # Ar
1744 1744 1 0.0 988.9570167341238 738.3668711149538 143.250999753731 # Ar
1745 1745 1 0.0 490.3257644661735 691.2035177530096 935.8065420611149 # Ar
1746 1746 1 0.0 900.5421618661647 248.01820814803273 123.37662809947588 # Ar
1747 1747 1 0.0 464.4281796073237 334.92586948622204 663.1864400975928 # Ar
1748 1748 1 0.0 225.00551472308348 10.983174764308346 373.4277045239056 # Ar
1749 1749 1 0.0 541.1473635566344 749.580118471133 856.8913429096375 # Ar
1750 1750 1 0.0 645.5771053015708 271.7041484808418 66.11027423082811 # Ar
1751 1751 1 0.0 436.80066449510525 211.2057675728919 177.6148081551365 # Ar
1752 1752 1 0.0 1024.6830769857233 1137.9932809254465 384.3996769376848 # Ar
1753 1753 1 0.0 668.0165050773142 1247.656776310106 360.79111452247224 # Ar
1754 1754 1 0.0 144.87662833510012 904.3880289902487 526.7785232954047 # Ar
1755 1755 1 0.0 503.20545141071085 1296.3214454833944 1219.6099966253682 # Ar
1756 1756 1 0.0 182.7781281577434 908.981136758726 638.3432158564599 # Ar
1757 1757 1 0.0 100.73788285334065 201.78569478155032 762.8267787184302 # Ar
1758 1758 1 0.0 1195.173397352008 187.8169223895418 686.6288455246828 # Ar
1759 1759 1 0.0 741.7707468800086 1214.7685786853688 218.60919450992097 # Ar
1760 1760 1 0.0 277.7007176362956 53.60267131185631 709.1005741635153 # Ar
1761 1761 1 0.0 897.6839905284535 956.7721046484683 1219.171702232719 # Ar
1762 1762 1 0.0 242.9752905551291 919.6306638388055 492.3652952785837 # Ar
1763 1763 1 0.0 67.64077703936788 794.5686197978523 306.72757017389023 # Ar
1764 1764 1 0.0 738.3766588626723 7.664063964479262 1207.375362060653 # Ar
1765 1765 1 0.0 1067.1928131408843 245.3074328959766 812.3666394295867 # Ar
1766 1766 1 0.0 1041.7387095328597 524.8308739142576 532.4431081485201 # Ar
1767 1767 1 0.0 1260.4168595029557 1039.608546390178 825.9074971461893 # Ar
1768 1768 1 0.0 699.4959056924131 9.961513221244623 788.9960002348498 # Ar
1769 1769 1 0.0 667.6961630606984 148.6815637548515 496.4830890674107 # Ar
1770 1770 1 0.0 1068.3579213761238 236.55262923265303 153.97221734034184 # Ar
1771 1771 1 0.0 540.3443914028783 1165.6775990273752 982.5610172090843 # Ar
1772 1772 1 0.0 977.6909137032616 759.859731636975 177.77661492319282 # Ar
1773 1773 1 0.0 404.9629224181114 12.02689897117715 1167.2825972944058 # Ar
1774 1774 1 0.0 596.0712924025518 1251.1751608816103 1118.6793621719125 # Ar
1775 1775 1 0.0 774.9492778065066 503.32248705833166 1180.9081312793103 # Ar
1776 1776 1 0.0 141.98701750516568 950.2726105009183 360.75115066086767 # Ar
1777 1777 1 0.0 1258.72683586378 969.523852559967 431.77650093126204 # Ar
1778 1778 1 0.0 485.82190771648277 1193.3990600046395 59.0650376015241 # Ar
1779 1779 1 0.0 1161.199420315003 276.61083762449346 996.1353737305365 # Ar
1780 1780 1 0.0 788.3891607207743 149.50423310512502 1065.9516999831378 # Ar
1781 1781 1 0.0 1136.2707044160024 950.4963492658071 196.88020492563294 # Ar
1782 1782 1 0.0 284.20067878296635 712.8018302130669 265.02293604199576 # Ar
1783 1783 1 0.0 548.7766312918704 271.11778679779275 165.71109794937124 # Ar
1784 1784 1 0.0 402.15380310134015 995.019022359279 764.1094403721982 # Ar
1785 1785 1 0.0 122.59040484231437 77.17713022257757 290.93184501917824 # Ar
1786 1786 1 0.0 181.08239674814038 789.1784749213226 1099.9337459405567 # Ar
1787 1787 1 0.0 342.029489771174 619.7841587477645 56.38848807995601 # Ar
1788 1788 1 0.0 335.8050327455754 258.81882162727413 375.1324838518743 # Ar
1789 1789 1 0.0 467.2899935277002 32.95494235755352 1063.5288626855265 # Ar
1790 1790 1 0.0 180.02465367673895 1163.037106994046 18.299012591627758 # Ar
1791 1791 1 0.0 1134.2043715889295 1116.3516831265797 142.0410698338194 # Ar
1792 1792 1 0.0 833.5316056928085 70.32703400325983 523.42886345481 # Ar
1793 1793 1 0.0 165.72329319371266 1074.4432745518643 217.27107380552374 # Ar
1794 1794 1 0.0 1150.230559865552 616.2511054685067 911.2714962302218 # Ar
1795 1795 1 0.0 760.8749685703773 727.3624076502836 553.8883808917117 # Ar
1796 1796 1 0.0 1015.567046069904 924.1373807983981 193.91456906685488 # Ar
1797 1797 1 0.0 748.7792911998761 724.0712213287984 329.63746104772036 # Ar
1798 1798 1 0.0 81.36822634396746 382.13885295266493 936.6689789648207 # Ar
1799 1799 1 0.0 204.486394847931 1163.631791183841 993.8927683087999 # Ar
1800 1800 1 0.0 153.98327552687792 478.7390749083954 1079.8242615639215 # Ar
1801 1801 1 0.0 1004.6252225527328 572.8898732650558 882.6537223322334 # Ar
1802 1802 1 0.0 1088.8108533075917 480.5691195292248 667.4121914928727 # Ar
1803 1803 1 0.0 13.770820037593216 120.17097572260397 705.3402789719391 # Ar
1804 1804 1 0.0 19.976486616340804 857.0965087642065 976.3172454036933 # Ar
1805 1805 1 0.0 1173.8978780823568 1125.9918042399465 719.3645390460857 # Ar
1806 1806 1 0.0 1194.5565064821792 540.557676261516 1246.112933940739 # Ar
1807 1807 1 0.0 25.27092206126901 27.77242716461975 724.2095901992768 # Ar
1808 1808 1 0.0 91.39436357005842 272.93218828103124 412.38705864998127 # Ar
1809 1809 1 0.0 1009.9158672246456 257.32926347690045 529.5989122207209 # Ar
1810 1810 1 0.0 201.82056092580336 944.5908941303236 344.6904112218414 # Ar
1811 1811 1 0.0 406.26708615367494 1100.2473131775873 775.5152262879741 # Ar
1812 1812 1 0.0 805.8514406173757 639.9658092371346 296.73284415371984 # Ar
1813 1813 1 0.0 90.79887522246037 210.7077796020891 771.2784071314585 # Ar
1814 1814 1 0.0 993.2853581769747 734.3258025352641 475.0970857661487 # Ar
1815 1815 1 0.0 176.86002543182596 174.0264627486286 533.2665514671858 # Ar
1816 1816 1 0.0 4.251968330770641 1144.380454841965 93.38833591445929 # Ar
1817 1817 1 0.0 788.3542338349666 332.3644249889876 694.0968949385866 # Ar
1818 1818 1 0.0 418.0069542536803 70.35375060533947 821.396110444248 # Ar
1819 1819 1 0.0 386.5218062351774 11.273346271937015 1228.122607537619 # Ar
1820 1820 1 0.0 744.2418492632753 377.4542376525623 1107.4832220360536 # Ar
1821 1821 1 0.0 209.76827502678725 955.9351747244849 635.823473332008 # Ar
1822 1822 1 0.0 619.9342027318263 473.23671624395826 11.655550388387228 # Ar
1823 1823 1 0.0 574.0063583975058 609.5034259167988 1092.05032003007 # Ar
1824 1824 1 0.0 929.3488471509158 1197.717614857493 1056.704087205552 # Ar
1825 1825 1 0.0 411.16218948380146 1135.5475435537164 1148.3356034731717 # Ar
1826 1826 1 0.0 60.08011031951676 154.53635590541558 781.0436106504397 # Ar
1827 1827 1 0.0 869.2329757294455 84.57851686745556 1287.1317131828241 # Ar
1828 1828 1 0.0 615.955197990057 410.2274078590621 200.88795650064415 # Ar
1829 1829 1 0.0 726.2172449952556 636.0869774069336 428.30948171273224 # Ar
1830 1830 1 0.0 907.2240234218357 390.39077709169294 956.4414335199785 # Ar
1831 1831 1 0.0 399.47611212256317 1158.4945245399556 204.4456368453071 # Ar
1832 1832 1 0.0 42.38483801858249 197.46618882255987 1077.360636927172 # Ar
1833 1833 1 0.0 977.2399962624509 623.0360094827547 78.69698823857999 # Ar
1834 1834 1 0.0 741.9319725975529 501.769361934492 1180.0279829974008 # Ar
1835 1835 1 0.0 1156.7148260937336 332.2154023942196 598.4590097642221 # Ar
1836 1836 1 0.0 1114.863815344797 1016.0726628975816 214.0560395929156 # Ar
1837 1837 1 0.0 465.5286848202045 1.9422970076256598 157.27564913495365 # Ar
1838 1838 1 0.0 667.9598005375125 295.126052022831 501.64664597195525 # Ar
1839 1839 1 0.0 1089.7063142481213 421.7842549927811 827.0640045960332 # Ar
1840 1840 1 0.0 556.6306351596651 839.7372011835616 382.3454625447268 # Ar
1841 1841 1 0.0 329.75482525519 178.54336944080345 605.4486451686493 # Ar
1842 1842 1 0.0 799.4797930863674 233.84830904879922 632.0929681846694 # Ar
1843 1843 1 0.0 1277.3524178199998 1289.9394320426954 658.5679193095231 # Ar
1844 1844 1 0.0 908.1758807339171 1236.7560425797678 20.428412391755558 # Ar
1845 1845 1 0.0 911.5942327260937 418.3486589738005 303.5844993701474 # Ar
1846 1846 1 0.0 587.3586047309458 1182.182814651056 316.2199728656875 # Ar
1847 1847 1 0.0 705.7651393059983 1032.2902200179105 214.4207390947383 # Ar
1848 1848 1 0.0 520.5608754920917 1144.772488291428 1212.5828313046622 # Ar
1849 1849 1 0.0 356.1366664266942 411.68995838955243 1018.7710995899068 # Ar
1850 1850 1 0.0 241.44205904674035 55.3571661918414 590.5727778605362 # Ar
1851 1851 1 0.0 796.4808158112863 57.802108222203934 576.0435064184296 # Ar
1852 1852 1 0.0 140.40809910417633 801.2189670843845 502.4639130409509 # Ar
1853 1853 1 0.0 288.02920624284656 568.2847613914257 769.2084998323946 # Ar
1854 1854 1 0.0 133.32558455167467 1182.568849116887 1150.131179066689 # Ar
1855 1855 1 0.0 720.6512065965582 776.3170846323653 933.8123768132582 # Ar
1856 1856 1 0.0 201.1373022495296 1153.8117991840759 161.0378524916685 # Ar
1857 1857 1 0.0 302.8544282041615 191.358526588107 1041.8103764890984 # Ar
1858 1858 1 0.0 337.8990026892593 357.61679588130124 892.7984320248174 # Ar
1859 1859 1 0.0 1129.6048136537745 30.429520703515063 1178.0127987544436 # Ar
1860 1860 1 0.0 772.5450075122687 1082.5007994644411 635.7893115406379 # Ar
1861 1861 1 0.0 1098.7275904408086 762.1916145703842 781.7345958964281 # Ar
1862 1862 1 0.0 1267.1917505269676 520.242188459335 137.855431064834 # Ar
1863 1863 1 0.0 804.7269665078022 421.0947014975868 1196.507346727724 # Ar
1864 1864 1 0.0 217.10908710661698 1013.4680723513593 192.1868951205334 # Ar
1865 1865 1 0.0 320.59099918024066 570.8968968871086 1167.2315590385845 # Ar
1866 1866 1 0.0 488.19782404495925 890.7954159453016 221.0409146393345 # Ar
1867 1867 1 0.0 909.9592475825881 632.599780106661 61.04032950687629 # Ar
1868 1868 1 0.0 229.68407061262232 168.3752651350564 311.5314855825184 # Ar
1869 1869 1 0.0 137.67839091903892 640.1074058566311 604.4182498996585 # Ar
1870 1870 1 0.0 265.6286157745799 892.8217835482081 734.65917810145 # Ar
1871 1871 1 0.0 259.80007457044013 753.3127797335304 1110.6227374024559 # Ar
1872 1872 1 0.0 191.944441749318 184.19603355894392 52.2992270499695 # Ar
1873 1873 1 0.0 545.4232979564308 1252.7080874493372 1031.4118963903547 # Ar
1874 1874 1 0.0 559.9044303790012 921.3415870983723 632.4763077175645 # Ar
1875 1875 1 0.0 817.1412063463586 586.2827814673446 288.45869731942105 # Ar
1876 1876 1 0.0 852.3266038890707 554.2948475180023 466.18314090185834 # Ar
1877 1877 1 0.0 218.52640462808202 475.21435964547356 121.16032565203946 # Ar
1878 1878 1 0.0 1131.7877982468938 690.7470863501973 811.8943633778905 # Ar
1879 1879 1 0.0 253.41695889750957 593.9702218389422 1265.5595269096125 # Ar
1880 1880 1 0.0 31.019736201583108 967.0398212791675 130.86882343435806 # Ar
1881 1881 1 0.0 533.4669371922834 670.4907963254564 142.30158880051556 # Ar
1882 1882 1 0.0 982.3703030230282 177.99899725482703 486.4159492260529 # Ar
1883 1883 1 0.0 406.5275828128132 172.31239070105 1231.8359316833191 # Ar
1884 1884 1 0.0 325.63976599431885 1261.811737052002 448.58081966326756 # Ar
1885 1885 1 0.0 1275.75612708401 1003.0723311071386 1289.8234662145765 # Ar
1886 1886 1 0.0 385.2819033311847 1249.2916648647758 779.7704609204694 # Ar
1887 1887 1 0.0 1251.4679050748452 312.99249356860304 245.61520900955145 # Ar
1888 1888 1 0.0 207.03117080376288 928.5124093288772 1096.4136712027548 # Ar
1889 1889 1 0.0 294.8152800439847 717.3629101520031 321.43035013818786 # Ar
1890 1890 1 0.0 696.9253373245723 128.87331540915875 675.9628061600104 # Ar
1891 1891 1 0.0 1010.1590557186294 274.9640078643062 544.4741111988541 # Ar
1892 1892 1 0.0 1174.1578758576647 668.0926071909278 322.3843880766294 # Ar
1893 1893 1 0.0 1055.3330800273209 121.14649251291534 964.0892267521718 # Ar
1894 1894 1 0.0 346.2716035534366 1024.1396858254259 953.0077394200181 # Ar
1895 1895 1 0.0 748.6022492304689 755.1393869284816 406.0639154381439 # Ar
1896 1896 1 0.0 315.5127310259493 1255.8743122833682 1098.5886201250798 # Ar
1897 1897 1 0.0 1250.3896444397046 251.87666206739357 1207.3015761483646 # Ar
1898 1898 1 0.0 917.3834920960644 815.8598718826171 258.4265378013042 # Ar
1899 1899 1 0.0 103.82955273845121 904.291082732705 60.95781665959873 # Ar
1900 1900 1 0.0 884.2569841020781 636.2249475233955 916.1357625186675 # Ar
1901 1901 1 0.0 23.11136009250011 633.5429950123482 913.948273828633 # Ar
1902 1902 1 0.0 1251.786969403643 586.9562540351566 334.64110002774106 # Ar
1903 1903 1 0.0 574.3592272801492 409.8193281766945 424.10627319497456 # Ar
1904 1904 1 0.0 574.1821738004826 1028.4660482990503 345.45275368744245 # Ar
1905 1905 1 0.0 601.9473003094059 527.5414423116205 493.73134914100456 # Ar
1906 1906 1 0.0 213.3449835911464 1162.3247082256853 1148.3332374862455 # Ar
1907 1907 1 0.0 566.876624905764 976.359589329265 977.4914056770457 # Ar
1908 1908 1 0.0 1000.3631726785759 515.922393147079 846.2288331996386 # Ar
1909 1909 1 0.0 1.0894749559251007 532.3755421243885 873.4262387475264 # Ar
1910 1910 1 0.0 283.1428702761414 670.3503915171098 514.4901105020688 # Ar
1911 1911 1 0.0 506.3202484399509 1194.209237493699 748.7125406836733 # Ar
1912 1912 1 0.0 299.96605430875246 1196.092372172913 370.5575936214557 # Ar
1913 1913 1 0.0 502.6955427841021 227.10789211794955 305.864920773496 # Ar
1914 1914 1 0.0 1097.8256766206432 828.9534084289029 1216.8299109566199 # Ar
1915 1915 1 0.0 330.0030840116353 1016.5515307492649 260.0847421872989 # Ar
1916 1916 1 0.0 895.1329267050105 706.3336480895038 92.77303014817699 # Ar
1917 1917 1 0.0 374.9086933198386 867.9813719230617 970.302760965571 # Ar
1918 1918 1 0.0 861.4850450567046 373.13493013939205 1035.7611494942735 # Ar
1919 1919 1 0.0 807.2374611109293 960.1531339920664 650.5131669907336 # Ar
1920 1920 1 0.0 707.2490057371035 708.6699834060719 66.75772317477768 # Ar
1921 1921 1 0.0 56.821437339416796 397.5605600511653 1200.6593765076407 # Ar
1922 1922 1 0.0 1160.5805990269764 718.2027686214267 197.87438612930407 # Ar
1923 1923 1 0.0 132.93746341387057 302.9063152268249 1107.6430534580663 # Ar
1924 1924 1 0.0 1027.5798636741106 715.1486167257716 1028.518297823217 # Ar
1925 1925 1 0.0 631.0410169999034 85.63957969798255 320.67380566709164 # Ar
1926 1926 1 0.0 640.9763867785501 145.61233548987744 881.6782320804854 # Ar
1927 1927 1 0.0 1259.7099118426831 788.9242808048623 517.4688495658421 # Ar
1928 1928 1 0.0 133.03456924699114 1275.335383043869 1008.9709892195189 # Ar
1929 1929 1 0.0 742.542136018738 306.94857431534234 474.36578494853717 # Ar
1930 1930 1 0.0 1285.805609149002 264.8438065303796 246.79657195223595 # Ar
1931 1931 1 0.0 668.5401860518243 1205.7718658439205 185.13615855660402 # Ar
1932 1932 1 0.0 700.9880625554891 794.8565156777485 840.0382865535558 # Ar
1933 1933 1 0.0 115.74910012030018 1132.3019271391831 963.7803829801757 # Ar
1934 1934 1 0.0 964.2374647031703 714.7282764247653 213.76519751314484 # Ar
1935 1935 1 0.0 330.51560715299695 166.00358066370956 1279.4159042344436 # Ar
1936 1936 1 0.0 474.3028580726361 946.2330652022431 160.27048211747078 # Ar
1937 1937 1 0.0 612.2988527908146 69.26922260375274 1118.003468887619 # Ar
1938 1938 1 0.0 1287.9192100101327 131.25804915205052 79.75422611234313 # Ar
1939 1939 1 0.0 1181.0699147059893 259.03674130675364 918.315577361951 # Ar
1940 1940 1 0.0 357.8548111135042 377.16210145458746 761.9834451330947 # Ar
1941 1941 1 0.0 174.8261319358027 432.04170400772693 1189.2536963430516 # Ar
1942 1942 1 0.0 1195.1286317890374 268.3066253706077 408.44422880151194 # Ar
1943 1943 1 0.0 61.76026079432212 592.5501582073806 931.476138578222 # Ar
1944 1944 1 0.0 239.31121784134842 868.5441496202263 133.7643628137885 # Ar
1945 1945 1 0.0 463.1861469890458 266.24653511380626 647.4169034108945 # Ar
1946 1946 1 0.0 618.734691254417 912.93407777999 81.20074813766213 # Ar
1947 1947 1 0.0 1173.1722072892405 865.3584841766584 451.6688227546961 # Ar
1948 1948 1 0.0 725.9130877442502 589.7371670918535 773.3887884811953 # Ar
1949 1949 1 0.0 505.76670177390594 467.3235214584871 620.9645950931717 # Ar
1950 1950 1 0.0 649.6366008093379 1246.9871181579947 403.84574230766856 # Ar
1951 1951 1 0.0 497.2517050323291 1066.37579301192 533.8244327744084 # Ar
1952 1952 1 0.0 47.04084213683278 207.82803671370826 730.6566065572109 # Ar
1953 1953 1 0.0 119.80282172841558 658.3231459550855 611.6823360972645 # Ar
1954 1954 1 0.0 355.0000677733846 406.029048487131 850.3259201233051 # Ar
1955 1955 1 0.0 239.10651143513402 1268.038527638122 27.44484534848861 # Ar
1956 1956 1 0.0 761.4079706324957 142.34066531207662 780.8424722741436 # Ar
1957 1957 1 0.0 1160.2734256136423 716.757031859703 315.18509099565284 # Ar
1958 1958 1 0.0 1133.3631113449746 897.186046108096 714.0462695377455 # Ar
1959 1959 1 0.0 383.71801794837927 260.2368042256944 223.20881453370504 # Ar
1960 1960 1 0.0 1057.8468263805378 1155.7843266350785 816.2092231931299 # Ar
1961 1961 1 0.0 452.8278607181408 211.55734816256592 153.0283021905174 # Ar
1962 1962 1 0.0 698.5349885489277 749.3843573846106 1160.7120263296174 # Ar
1963 1963 1 0.0 869.642879060044 4.027547860135635 416.9718403886298 # Ar
1964 1964 1 0.0 1226.6484473788464 626.4350566290391 597.3092348452922 # Ar
1965 1965 1 0.0 352.83329211158497 1215.6956778130618 1043.4469431459954 # Ar
1966 1966 1 0.0 134.91822596129578 692.8260027393707 883.007700329201 # Ar
1967 1967 1 0.0 337.91982435427883 851.1353457956891 902.4876235975541 # Ar
1968 1968 1 0.0 563.217169143872 1110.561948874818 210.1276514038971 # Ar
1969 1969 1 0.0 761.5337442886492 434.682764342846 1174.5331307188433 # Ar
1970 1970 1 0.0 1168.6222045046368 522.5209575834675 652.4465714885132 # Ar
1971 1971 1 0.0 414.4039555164753 168.291363867317 1084.934164467968 # Ar
1972 1972 1 0.0 45.597024944264106 366.94348707943544 286.8361051644202 # Ar
1973 1973 1 0.0 61.178451312346816 732.52237752334 129.81992008924644 # Ar
1974 1974 1 0.0 81.06797280290945 108.8585235786948 1028.2070864135937 # Ar
1975 1975 1 0.0 917.4558391697925 144.22750232122561 666.770862809933 # Ar
1976 1976 1 0.0 1019.9524013784929 1199.1685378567481 1000.1717519643528 # Ar
1977 1977 1 0.0 1071.3345801360877 881.7031528550255 15.858506436504864 # Ar
1978 1978 1 0.0 37.705065996566454 251.6973936240614 485.8950189241008 # Ar
1979 1979 1 0.0 1065.451588702576 1198.1502678943814 1110.8093294903933 # Ar
1980 1980 1 0.0 1087.0538455115206 500.96683960674386 444.4373955828381 # Ar
1981 1981 1 0.0 600.2009404253399 163.40880446871063 15.733756292081559 # Ar
1982 1982 1 0.0 420.55312000362625 1018.3854869352895 483.23696623351617 # Ar
1983 1983 1 0.0 214.13014549318115 277.95884942606415 786.8121834902481 # Ar
1984 1984 1 0.0 372.07382737639847 170.0583786323631 143.43277037478583 # Ar
1985 1985 1 0.0 407.06470890147665 596.0660269704132 51.012522044161834 # Ar
1986 1986 1 0.0 374.78839424443294 592.3907822454306 152.5520377909532 # Ar
1987 1987 1 0.0 381.67311284453694 403.6178447562765 294.1914057732062 # Ar
1988 1988 1 0.0 267.06301150319683 711.1893404182371 703.8202820081581 # Ar
1989 1989 1 0.0 1226.7505007768855 774.8908669101628 734.8648310377531 # Ar
1990 1990 1 0.0 1223.976843810369 523.6870965984525 1290.007369473489 # Ar
1991 1991 1 0.0 797.8315002360914 231.0557824785909 494.4797064587063 # Ar
1992 1992 1 0.0 682.5409977971613 1144.5932122527795 20.129850981806182 # Ar
1993 1993 1 0.0 217.08146221905633 1061.0047214022522 966.1967001724752 # Ar
1994 1994 1 0.0 213.0138390828258 525.7340285576203 537.8920190677679 # Ar
1995 1995 1 0.0 945.0274472556985 647.4563082015246 967.4948043561277 # Ar
1996 1996 1 0.0 1236.034137168681 707.5185936674195 396.1754976002987 # Ar
1997 1997 1 0.0 1176.276745164951 323.7439293435734 115.20407618812814 # Ar
1998 1998 1 0.0 818.6981565972862 72.43542949443602 87.46227096633157 # Ar
1999 1999 1 0.0 1014.4686427236489 67.9416507604562 762.1874531833281 # Ar
2000 2000 1 0.0 1013.4368080896315 1176.9550165191 1188.0400209688557 # Ar
