LAMMPS data file -- atom_style full -- generated by chemfiles
150 atoms
0 bonds
0 angles
0 dihedrals
0 impropers
2 atom types
0 bond types
0 angle types
0 dihedral types
0 improper types
0.00000000 1393.14072 xlo xhi
0.00000000 1393.14072 ylo yhi
0.00000000 1393.14072 zlo zhi

# Pair Coeffs
# 1 Ar
# 2 Ar+

Masses

1 39.948 # Ar
2 39.948 # Ar+

Atoms # full

1 1 1 0.0 604.202961476785 534.0820248196428 1251.1963548386148 # Ar
2 2 1 0.0 80.74398436825514 1041.6952018678767 745.4449176890336 # Ar
3 3 1 0.0 903.3976109853122 591.3103694943483 908.3193677601348 # Ar
4 4 1 0.0 215.89461581198873 938.5436227935752 785.2243243607751 # Ar
5 5 1 0.0 1285.1352875707566 751.7303639432906 636.57740295894 # Ar
6 6 1 0.0 161.02207138899686 1387.8750180383065 396.7917470800683 # Ar
7 7 1 0.0 240.03789638386874 465.2340666952186 772.8301844916151 # Ar
8 8 1 0.0 515.7764430498959 53.17558554737818 808.8761102743437 # Ar
9 9 1 0.0 1211.2643482401415 217.03991784451793 1385.6140372540294 # Ar
10 10 1 0.0 548.8555122725319 83.45530588027835 749.8914289712573 # Ar
11 11 1 0.0 680.0101966447038 1298.4891533102623 964.0848272224046 # Ar
12 12 1 0.0 674.4453387975933 1101.7088577069467 1258.704426640135 # Ar
13 13 1 0.0 504.6909910844557 306.5505496745657 1230.8670811701982 # Ar
14 14 1 0.0 15.513998553135332 1158.2036833308418 951.2634831819544 # Ar
15 15 1 0.0 165.16080195323542 344.1897794503714 1150.230373654288 # Ar
16 16 1 0.0 629.5271247657832 187.85296169647066 1054.2279685188284 # Ar
17 17 1 0.0 384.1406328960018 537.6057355705983 1049.003813891988 # Ar
18 18 1 0.0 965.2221830366989 1026.8478515956674 604.0996454973326 # Ar
19 19 1 0.0 216.76197027437402 1332.450778224945 938.2338394729026 # Ar
20 20 1 0.0 1294.7200036812176 1142.4695742912795 333.63119069618244 # Ar
21 21 1 0.0 964.4743338748119 1234.7758676934734 360.6643943306626 # Ar
22 22 1 0.0 701.9274646435764 569.8173922897081 1384.0310783505356 # Ar
23 23 1 0.0 1323.548986975728 662.7811740740044 1061.9760735701495 # Ar
24 24 1 0.0 1028.886587662916 1258.9176208202775 265.8979910853424 # Ar
25 25 1 0.0 129.2314437881118 1314.6148427437902 1149.2259530813305 # Ar
26 26 1 0.0 679.0463818484069 1362.667295071956 415.6878758430691 # Ar
27 27 1 0.0 1249.8393236458892 447.9854898439992 322.68336248848175 # Ar
28 28 1 0.0 570.446342044439 1207.8387510614295 725.6860477165999 # Ar
29 29 1 0.0 720.5440974431122 623.6342606060687 785.6840587281108 # Ar
30 30 1 0.0 304.47651690133154 696.1476766686726 1220.1167629909733 # Ar
31 31 1 0.0 488.1495880183415 996.5298190137084 696.9546032841605 # Ar
32 32 1 0.0 60.22063208728225 251.0670513152877 1285.2301717718676 # Ar
33 33 1 0.0 382.04958622013817 270.82130406508895 154.4879839351208 # Ar
34 34 1 0.0 1037.7198800815286 1016.5188475715239 982.8506803604895 # Ar
35 35 1 0.0 372.6068212284728 1369.5553784850492 804.3397700165823 # Ar
36 36 1 0.0 87.23128997475638 1346.0443447116102 504.72399644300094 # Ar
37 37 1 0.0 756.5521273244266 1236.7213795575399 444.33212570295547 # Ar
38 38 1 0.0 1273.3036822892618 320.837077738163 271.101382107695 # Ar
39 39 1 0.0 127.08132389494864 1074.3316906070283 1112.288870584916 # Ar
40 40 1 0.0 91.67953161498176 248.70778186245374 1048.7571543745057 # Ar
41 41 1 0.0 1185.1418328765774 1292.2784648395075 1000.287941556646 # Ar
42 42 1 0.0 1222.9203524493078 87.57692017314871 1344.2429529391077 # Ar
43 43 1 0.0 1179.3400222212874 1249.7703758865146 297.3057613698018 # Ar
44 44 1 0.0 1332.18105792165 1144.8612411019305 223.6028092327687 # Ar
45 45 1 0.0 1061.5947252661617 941.9695294442049 193.93242642532078 # Ar
46 46 1 0.0 144.7025353059322 812.2575334316728 109.87307909322054 # Ar
47 47 1 0.0 967.2996837656523 1125.4299461629962 31.372273425825437 # Ar
48 48 1 0.0 1388.8155864206003 7.5735361411901785 295.1348845434213 # Ar
49 49 1 0.0 1271.7401217323038 508.74035795287097 1196.7978768015719 # Ar
50 50 1 0.0 422.12581600077255 486.02632459696474 768.2300027373873 # Ar
51 51 1 0.0 326.4199816979751 1046.8329916606865 84.022899128834 # Ar
52 52 1 0.0 212.99404312534944 448.5836903354744 940.8907877640771 # Ar
53 53 1 0.0 1260.6822591107057 706.4339646351779 1247.4902460249816 # Ar
54 54 1 0.0 1025.6357544885507 668.7410701759527 541.2803787730834 # Ar
55 55 1 0.0 700.2363891260528 1050.8857417371096 550.0927121783187 # Ar
56 56 1 0.0 1361.4552168603575 461.5101541408914 124.98838911435634 # Ar
57 57 1 0.0 508.1303327146908 1295.6396118345494 1237.1768566468547 # Ar
58 58 1 0.0 965.6134895097049 293.69334091705093 1070.1803645012699 # Ar
59 59 1 0.0 377.82170868676036 285.7895398388191 801.2810993422293 # Ar
60 60 1 0.0 460.2086610806013 1307.7806936645832 160.05318894127075 # Ar
61 61 1 0.0 562.9708399566169 1295.9082781042212 1101.0675630230592 # Ar
62 62 1 0.0 1178.4898439176798 292.61002868198017 836.5381225101563 # Ar
63 63 1 0.0 1019.871375338846 586.6452156377599 371.07384959473814 # Ar
64 64 1 0.0 1025.4922175103595 920.3236320122768 203.76386371254543 # Ar
65 65 1 0.0 1294.829165245159 1216.7876065764785 1229.0988062309473 # Ar
66 66 1 0.0 418.60216449680985 456.56243236208604 820.5085565875277 # Ar
67 67 1 0.0 1285.6062300558297 1169.7695130629531 792.7845696309238 # Ar
68 68 1 0.0 1238.3229910516618 186.85275196263075 303.97093376116584 # Ar
69 69 1 0.0 815.0230695443411 1290.8686357043653 235.6593807978622 # Ar
70 70 1 0.0 888.164011466488 118.77125482392943 285.46305149031554 # Ar
71 71 1 0.0 1347.1302025068067 176.1715218994823 1135.3334853491747 # Ar
72 72 1 0.0 1117.8404741352367 564.0773315047339 26.69044784990397 # Ar
73 73 1 0.0 558.4720246861867 497.8873123406021 826.0855112785044 # Ar
74 74 2 0.0 227.62439909746857 1189.8399055600328 28.43900548736628 # Ar+
75 75 2 0.0 476.6896922871108 903.8718561909659 627.5409495454028 # Ar+
76 76 2 0.0 968.3841459377206 300.01661520611003 806.2863513396795 # Ar+
77 77 2 0.0 603.6760139870587 192.49342499088843 167.0482882648757 # Ar+
78 78 2 0.0 1343.900629601532 706.7351004746563 351.7156040341575 # Ar+
79 79 2 0.0 74.51962550937422 158.93756030949908 1295.5109214345796 # Ar+
80 80 2 0.0 1289.8841336610712 210.87581236607235 877.8583841569131 # Ar+
81 81 2 0.0 1190.889253706459 404.54832570126825 513.0670074986474 # Ar+
82 82 2 0.0 341.4992608202869 1215.6399243791166 1298.4417513632873 # Ar+
83 83 2 0.0 134.56827324018278 996.5213411591582 1116.2142922532908 # Ar+
84 84 2 0.0 855.5370082166581 1295.8593582519707 550.3496112088461 # Ar+
85 85 2 0.0 1084.9417367829376 308.0997052585113 726.9538687937511 # Ar+
86 86 2 0.0 1239.029659213069 299.820780656053 901.349079388484 # Ar+
87 87 2 0.0 1065.569897375508 802.4457762753675 225.75644807665324 # Ar+
88 88 2 0.0 370.7756647967304 954.1272820053557 121.35607988768605 # Ar+
89 89 2 0.0 289.01789467703117 183.67487891198292 797.8549886167106 # Ar+
90 90 2 0.0 210.332570737861 1287.870388686718 835.4076908767846 # Ar+
91 91 2 0.0 406.131333914194 698.6960165986674 577.3401949684462 # Ar+
92 92 2 0.0 426.02958546764813 443.44977158806216 225.32427032698595 # Ar+
93 93 2 0.0 42.17418780957823 492.7964924896184 56.006392765623126 # Ar+
94 94 2 0.0 976.4535198594687 1296.577670203234 190.90647799849552 # Ar+
95 95 2 0.0 775.648951481012 464.18703840003167 1098.4341534472046 # Ar+
96 96 2 0.0 1316.680256797513 1338.669758889591 490.75123370011784 # Ar+
97 97 2 0.0 965.7668834936054 1248.5780740226273 433.60107012796846 # Ar+
98 98 2 0.0 878.8359568632495 113.72198828198948 145.77213881828652 # Ar+
99 99 2 0.0 20.241642215691368 140.6129646730082 601.0026061040289 # Ar+
100 100 2 0.0 555.1154450428517 731.7170408093401 942.4000976324356 # Ar+
101 101 2 0.0 1245.5431479342994 567.4944430303328 294.71648937857145 # Ar+
102 102 2 0.0 1174.3238108886485 1371.881813104699 1319.7744265644387 # Ar+
103 103 2 0.0 1104.1018754374643 499.85350818458386 248.74356690118017 # Ar+
104 104 2 0.0 897.368945129019 929.9043237550155 979.0409625068701 # Ar+
105 105 2 0.0 353.30581682985667 1347.7630973375249 1163.6127777772897 # Ar+
106 106 2 0.0 101.84781300152488 1243.7274663949693 425.1535611837965 # Ar+
107 107 2 0.0 807.1119559991247 575.0584396857112 842.0701183970888 # Ar+
108 108 2 0.0 1010.8449089760685 997.0000638844652 927.1653643974945 # Ar+
109 109 2 0.0 572.564512931066 690.0514470273777 670.743676628671 # Ar+
110 110 2 0.0 440.60594202845357 46.86101975020299 588.6389320881548 # Ar+
111 111 2 0.0 1060.4086772231144 622.8794847779342 220.57161577818235 # Ar+
112 112 2 0.0 588.0807613409886 752.5798152030727 1171.638092647415 # Ar+
113 113 2 0.0 932.7084213853012 1154.5070696589057 351.42756299888856 # Ar+
114 114 2 0.0 1077.1320999676 898.1081675202146 212.7314214432326 # Ar+
115 115 2 0.0 500.5554133386295 253.73382790479286 189.86365003840424 # Ar+
116 116 2 0.0 1112.0079190401548 1295.6094544131743 779.9079165207706 # Ar+
117 117 2 0.0 1344.004271378408 945.1093183006551 172.58863458467428 # Ar+
118 118 2 0.0 1141.4294714546556 766.9866014192557 324.3340823593061 # Ar+
119 119 2 0.0 502.7919863612729 510.37162651379975 406.67721114243574 # Ar+
120 120 2 0.0 352.3129085595208 1032.3378127750386 286.68678679620155 # Ar+
121 121 2 0.0 1329.1427546289515 427.9259981340797 1018.2788595414612 # Ar+
122 122 2 0.0 131.57587272568392 886.0729860723494 1292.8893910993093 # Ar+
123 123 2 0.0 915.0615300385406 1204.384055654546 992.6651286671495 # Ar+
124 124 2 0.0 1258.0467865094124 1242.09177315242 206.6267868062106 # Ar+
125 125 2 0.0 499.5402893207087 34.6358874521006 675.3052930258613 # Ar+
126 126 2 0.0 622.3698828631126 1370.0907330187506 1172.9331278689608 # Ar+
127 127 2 0.0 1141.2200487752743 211.08307266697304 811.6815092007874 # Ar+
128 128 2 0.0 758.69513123903 253.0945575805459 1028.4929000874283 # Ar+
129 129 2 0.0 863.8751649520242 226.1033902403136 96.24206041956982 # Ar+
130 130 2 0.0 69.4747420460993 643.8845183799282 1207.5715364627185 # Ar+
131 131 2 0.0 1333.5381472302263 957.7138369824788 687.6561195505224 # Ar+
132 132 2 0.0 1152.2212405261039 935.2969650323722 72.08258756979878 # Ar+
133 133 2 0.0 1388.7316836102527 623.3303445846127 1188.385654164685 # Ar+
134 134 2 0.0 849.0863003468874 1172.7782542464074 116.54254117119922 # Ar+
135 135 2 0.0 842.2273840826138 1022.344834624694 914.6797203020982 # Ar+
136 136 2 0.0 1283.0020024701694 47.694195234865624 117.209499133164 # Ar+
137 137 2 0.0 668.7676494625175 126.1927635443316 1314.577783667033 # Ar+
138 138 2 0.0 334.0167962063614 1038.5886152165556 179.64584928054256 # Ar+
139 139 2 0.0 1112.9920651781358 703.5595300154089 632.6356440183918 # Ar+
140 140 2 0.0 1181.6432679972331 446.07566284651983 588.3124812837228 # Ar+
141 141 2 0.0 739.7629173499014 817.3637948469891 168.09477479099445 # Ar+
142 142 2 0.0 804.2188408891142 533.7938266180737 361.90218307249665 # Ar+
143 143 2 0.0 1270.3925794696042 304.4892080662875 1106.464234246962 # Ar+
144 144 2 0.0 744.8515006572155 112.12541789386835 379.3504416749532 # Ar+
145 145 2 0.0 766.143338568228 455.58581718153124 1114.8903259937078 # Ar+
146 146 2 0.0 892.9480480551979 766.224739862381 806.5055624938982 # Ar+
147 147 2 0.0 1063.5328934673926 78.65193377126296 1104.3561260105503 # Ar+
148 148 2 0.0 1320.3239525221331 1045.796822433314 239.90143648855965 # Ar+
149 149 2 0.0 674.6679314880136 590.9242438688548 1120.9948203904921 # Ar+
150 150 2 0.0 1048.3385043725598 908.6782848183316 1228.546936827039 # Ar+
