LAMMPS data file -- atom_style full -- generated by chemfiles
2000 atoms
0 bonds
0 angles
0 dihedrals
0 impropers
1 atom types
0 bond types
0 angle types
0 dihedral types
0 improper types
0.00000000 1029.16629 xlo xhi
0.00000000 1029.16629 ylo yhi
0.00000000 1029.16629 zlo zhi

# Pair Coeffs
# 1 Ar

Masses

1 39.948 # Ar

Atoms # full

1 1 1 0.0 948.9773026316955 649.8199537895254 1013.2385183722002 # Ar
2 2 1 0.0 542.0657197034895 626.2319952494515 793.3352240198889 # Ar
3 3 1 0.0 84.93196307366863 207.73158461545788 202.41134383725378 # Ar
4 4 1 0.0 782.5427641415371 994.155470340096 707.0282333334442 # Ar
5 5 1 0.0 472.3353435801528 410.1479226030411 162.706241374204 # Ar
6 6 1 0.0 272.81020413963546 914.4888303227186 963.1634695357138 # Ar
7 7 1 0.0 187.81738275044532 209.95196284208265 318.45541500562825 # Ar
8 8 1 0.0 1.4743321454221017 906.6794019217598 566.1465796280488 # Ar
9 9 1 0.0 24.42981317489313 970.0384704394867 213.21328401781054 # Ar
10 10 1 0.0 541.7315678443532 64.43812863360985 590.5519346114538 # Ar
11 11 1 0.0 21.63113459506059 903.0494054660045 485.69801980517724 # Ar
12 12 1 0.0 633.9618669005594 519.1316548222874 321.1210755808477 # Ar
13 13 1 0.0 250.70472983020704 79.26829608037752 216.35998316521477 # Ar
14 14 1 0.0 127.82323405879644 84.8055321553998 810.8665971795648 # Ar
15 15 1 0.0 849.1997422213689 386.58779782373153 273.72484486049404 # Ar
16 16 1 0.0 276.2874164083083 141.52378207150485 353.90917770456815 # Ar
17 17 1 0.0 341.2404480226087 521.5730147975796 470.5130221965676 # Ar
18 18 1 0.0 5.42330462660257 309.88062893444794 572.4333841567565 # Ar
19 19 1 0.0 1017.495477682921 991.4433158362915 396.2059896315342 # Ar
20 20 1 0.0 737.7326487165992 91.37621077350583 11.606125009110876 # Ar
21 21 1 0.0 748.8720293707945 372.59711866348835 93.46837059403627 # Ar
22 22 1 0.0 46.108823783742004 24.109041342230984 881.6823870361143 # Ar
23 23 1 0.0 1014.0389491744903 252.346112925312 968.3899734361398 # Ar
24 24 1 0.0 250.2618141526195 910.4550297379436 745.3484911823948 # Ar
25 25 1 0.0 635.2074596525259 322.12949164448895 153.27696881161353 # Ar
26 26 1 0.0 161.6907449039067 576.615220817393 240.90735466817344 # Ar
27 27 1 0.0 186.4628157223854 885.2806802581995 608.8891770359187 # Ar
28 28 1 0.0 286.15922206889087 323.75150665895995 636.2304700266114 # Ar
29 29 1 0.0 383.1929802195428 267.64584895708947 53.99949612075915 # Ar
30 30 1 0.0 951.2392481430874 26.80843892607895 335.6026245388326 # Ar
31 31 1 0.0 794.1294350967219 293.80706551505347 779.7945913481911 # Ar
32 32 1 0.0 841.6021325543174 400.3547333734707 336.18795497884565 # Ar
33 33 1 0.0 821.1481690446943 771.4090524482938 578.1008407309417 # Ar
34 34 1 0.0 362.02107512174683 242.30589380970204 671.379481886178 # Ar
35 35 1 0.0 428.38982484903835 775.922764425139 1020.738851044074 # Ar
36 36 1 0.0 172.9060715888208 536.2859334967587 398.5050599147451 # Ar
37 37 1 0.0 237.51666772347934 770.234866661208 776.4592028717778 # Ar
38 38 1 0.0 998.0565235611364 203.05213054125443 284.3306013181788 # Ar
39 39 1 0.0 124.78565895830936 464.84526798111995 45.11565688716426 # Ar
40 40 1 0.0 419.81584079200496 100.53644444316141 625.7138790688713 # Ar
41 41 1 0.0 444.38631099686586 468.32308433013617 869.6712223996099 # Ar
42 42 1 0.0 648.0314738907259 115.2646260801627 672.5486586897434 # Ar
43 43 1 0.0 143.58824399791047 79.16462607376167 26.36118270895446 # Ar
44 44 1 0.0 221.5460009902102 70.75462724166334 396.0388905096422 # Ar
45 45 1 0.0 558.5096065779877 709.6927045742839 226.46071721874694 # Ar
46 46 1 0.0 806.803832812444 883.5346033113813 752.9111194294492 # Ar
47 47 1 0.0 272.9298626623845 561.7352541666303 197.06235672127903 # Ar
48 48 1 0.0 954.5821452278989 54.67889587726558 117.65334828921159 # Ar
49 49 1 0.0 42.29818465925125 641.1946566778955 1003.228832318307 # Ar
50 50 1 0.0 82.43135440212608 557.7827494081208 61.989871178533626 # Ar
51 51 1 0.0 736.680574092068 45.06226231723525 530.7202659924919 # Ar
52 52 1 0.0 258.49523580920174 9.72383497332694 762.8620649865529 # Ar
53 53 1 0.0 441.0124609535196 296.82972577805265 397.49516388866317 # Ar
54 54 1 0.0 883.4607044095493 646.0880521473546 275.8743435830659 # Ar
55 55 1 0.0 589.8118974492231 873.9893554551918 773.622020832849 # Ar
56 56 1 0.0 546.2895609729665 306.0755527502092 477.5112805788632 # Ar
57 57 1 0.0 330.0238062429578 804.1647144318584 976.4339552192415 # Ar
58 58 1 0.0 523.1438632928662 336.34310237714965 490.18226982020235 # Ar
59 59 1 0.0 323.0621922434254 905.860036046252 736.5494381705504 # Ar
60 60 1 0.0 234.81617658914092 526.3724440360389 205.73528974085775 # Ar
61 61 1 0.0 540.888212871346 1026.0110092889702 95.26826170696101 # Ar
62 62 1 0.0 911.8513662985392 175.9334403877889 942.5540576771808 # Ar
63 63 1 0.0 837.205399612342 134.32681153634692 925.6430296487641 # Ar
64 64 1 0.0 219.58306715669664 12.50543192282713 315.82084882683546 # Ar
65 65 1 0.0 211.04477731372768 1025.4450911445736 195.77254360614717 # Ar
66 66 1 0.0 870.9631526842419 268.17161756293245 822.170964223524 # Ar
67 67 1 0.0 304.6032378608067 183.6160879513851 780.6277851530798 # Ar
68 68 1 0.0 265.6512111487137 326.240759108484 300.04188230263253 # Ar
69 69 1 0.0 67.66240188952199 635.6610517340855 315.21047509854867 # Ar
70 70 1 0.0 346.58401097569197 536.2901251135467 194.67771836228226 # Ar
71 71 1 0.0 128.08524064046904 62.12228433231027 401.5812547856469 # Ar
72 72 1 0.0 145.68630382890746 763.7567910152164 141.03558339735304 # Ar
73 73 1 0.0 514.5101473667617 930.3608141623761 479.73099088294697 # Ar
74 74 1 0.0 580.2135903206367 761.5513428506699 740.7030200197872 # Ar
75 75 1 0.0 41.68486946746646 790.7789862605654 537.7937192211593 # Ar
76 76 1 0.0 699.1383396820147 192.75456413244063 630.3038937191969 # Ar
77 77 1 0.0 51.63703739112937 576.6068160750503 343.3549708222626 # Ar
78 78 1 0.0 941.9272867889775 928.8986203356061 955.8093611900716 # Ar
79 79 1 0.0 614.1154109150687 350.7249974604741 691.8936831477749 # Ar
80 80 1 0.0 55.088856965665876 707.2628415236278 181.40836578314835 # Ar
81 81 1 0.0 707.2760165067127 428.2210416500352 770.1912068508592 # Ar
82 82 1 0.0 890.3326820758891 803.956362691099 631.0790614691412 # Ar
83 83 1 0.0 833.0218402730973 498.13164719204315 296.9276348331578 # Ar
84 84 1 0.0 538.7289203881563 870.8179447328946 190.5463378337246 # Ar
85 85 1 0.0 200.994300175242 802.4010593868117 898.8164905230922 # Ar
86 86 1 0.0 484.92405973145827 114.76362563052281 297.5322227376597 # Ar
87 87 1 0.0 33.686255979084756 36.413609151430265 657.5926014990687 # Ar
88 88 1 0.0 200.53322634574366 306.0572919494055 838.6717946720108 # Ar
89 89 1 0.0 845.9760267292615 247.32803186304045 507.3823559311101 # Ar
90 90 1 0.0 993.9581063190184 449.9717379729359 376.76814459428556 # Ar
91 91 1 0.0 594.4470617281831 654.0643441806487 252.25574598430987 # Ar
92 92 1 0.0 439.9491546526866 201.55450918710096 110.00828947575447 # Ar
93 93 1 0.0 823.8601693464658 491.40555612582403 161.55545292494637 # Ar
94 94 1 0.0 399.8487534164219 439.0679600229107 232.90552820246205 # Ar
95 95 1 0.0 484.4883365753807 65.1439458294394 820.9225064498072 # Ar
96 96 1 0.0 620.8813104928138 963.8350959738332 153.00967662770924 # Ar
97 97 1 0.0 134.86231646153644 658.5635342109636 462.9014244325577 # Ar
98 98 1 0.0 341.37126489501895 657.6019901205101 540.5823458663403 # Ar
99 99 1 0.0 286.79008352399467 569.1156999168261 1027.433360134605 # Ar
100 100 1 0.0 47.42213368676907 801.767265110067 407.11969276909446 # Ar
101 101 1 0.0 830.7181641462852 900.5743316034293 7.227438291880201 # Ar
102 102 1 0.0 852.3302425498026 506.6289218967182 90.78573207224822 # Ar
103 103 1 0.0 863.425122371338 195.94519422531516 99.64687076464132 # Ar
104 104 1 0.0 6.1098707701978805 151.7216771595917 927.3044036623327 # Ar
105 105 1 0.0 131.2801549486044 990.0556200766 741.8605764689661 # Ar
106 106 1 0.0 0.6311930317353514 269.26222346227956 488.6276358335424 # Ar
107 107 1 0.0 764.286400108916 109.7664722324576 177.24900595357224 # Ar
108 108 1 0.0 772.3338999828436 578.0551489965225 972.159075750511 # Ar
109 109 1 0.0 670.0458084371998 578.3732644433315 804.649455778486 # Ar
110 110 1 0.0 436.494824368029 544.0062156996147 64.97526034779197 # Ar
111 111 1 0.0 908.2492644658458 429.38748649085795 468.279526637942 # Ar
112 112 1 0.0 43.35263004847103 953.4904221780223 153.85229423341687 # Ar
113 113 1 0.0 338.41359033154197 506.1830111149538 109.15939955932771 # Ar
114 114 1 0.0 418.1431515506059 323.4218799171379 147.19148573493914 # Ar
115 115 1 0.0 805.8680580769942 915.5742055826988 738.0366101437832 # Ar
116 116 1 0.0 201.29939317974032 697.5152184624696 229.4033296254323 # Ar
117 117 1 0.0 978.0053711915484 436.0749773864191 128.53146784168604 # Ar
118 118 1 0.0 887.0910896173104 355.82889907682033 583.773982124314 # Ar
119 119 1 0.0 110.19898196242718 489.3516328561273 455.8934271133766 # Ar
120 120 1 0.0 302.4957299022234 470.95741540295575 740.1146174709875 # Ar
121 121 1 0.0 629.6470540366296 610.1175071758844 154.75576841472676 # Ar
122 122 1 0.0 838.7207242210183 894.3842610320477 1013.129487249217 # Ar
123 123 1 0.0 75.11235705329338 156.0222106540932 769.2719950102573 # Ar
124 124 1 0.0 174.04015471841612 363.6909891705661 775.9920821600095 # Ar
125 125 1 0.0 917.7888391329528 1001.0717252469348 383.8097013602611 # Ar
126 126 1 0.0 289.418786028276 194.70869658822076 224.05765264389478 # Ar
127 127 1 0.0 33.351007670009736 294.2948551287177 310.81829853355 # Ar
128 128 1 0.0 660.304701211497 7.32801109237181 141.57912525506256 # Ar
129 129 1 0.0 907.3542298883332 18.60829505460561 562.9664481641981 # Ar
130 130 1 0.0 773.0484224886465 609.5486915172535 512.2419766922725 # Ar
131 131 1 0.0 718.4659310511569 398.12591400538145 826.3475852432579 # Ar
132 132 1 0.0 498.1622333977262 280.75600182424427 518.1182975965329 # Ar
133 133 1 0.0 346.0058562396289 381.70141196932076 431.42361041263604 # Ar
134 134 1 0.0 1025.2499320665988 947.0730695310001 501.71404818632493 # Ar
135 135 1 0.0 528.4869547153717 376.40290022752157 396.0984217409638 # Ar
136 136 1 0.0 711.0051323693867 334.8532122754801 893.5695078874612 # Ar
137 137 1 0.0 358.2075384073305 904.387963434143 271.21134032269134 # Ar
138 138 1 0.0 615.0021548915175 34.97275300278473 578.9894993955328 # Ar
139 139 1 0.0 517.9603379397769 791.3807494645754 455.4785969244291 # Ar
140 140 1 0.0 879.7159211011424 541.272621769573 188.0871950431073 # Ar
141 141 1 0.0 392.50244119364254 206.4245183403485 894.1074416973103 # Ar
142 142 1 0.0 119.60447461902261 444.3216295487186 434.57857092727323 # Ar
143 143 1 0.0 705.9581561627879 901.8991494463074 60.0992172128807 # Ar
144 144 1 0.0 797.0739928257659 44.18885670946365 63.89740647348328 # Ar
145 145 1 0.0 570.4940780377937 798.9377998754354 370.7293902652346 # Ar
146 146 1 0.0 632.7266061900258 47.8954386984937 379.0645906377895 # Ar
147 147 1 0.0 269.4135992855216 68.75296247026147 268.5286669264721 # Ar
148 148 1 0.0 114.72553070320456 431.67455867792023 353.0505849122893 # Ar
149 149 1 0.0 996.5095716205952 962.4604908596428 496.06511358155893 # Ar
150 150 1 0.0 637.276607173868 164.33029411955562 641.9813344762415 # Ar
151 151 1 0.0 611.2654514666538 437.6019478714168 395.3428711886924 # Ar
152 152 1 0.0 517.8009108770018 899.6267856669735 898.1793085230288 # Ar
153 153 1 0.0 302.7408500092834 534.0748552148424 790.151364624354 # Ar
154 154 1 0.0 22.769598834382123 43.65596277071089 95.18143118653065 # Ar
155 155 1 0.0 969.2706081270653 683.5344464517561 522.5607706842093 # Ar
156 156 1 0.0 157.57891928440225 361.20789392530355 63.42118296874591 # Ar
157 157 1 0.0 133.05026529067536 925.418560167834 254.73910568416972 # Ar
158 158 1 0.0 759.3059107155514 723.3992927347916 748.70388865613 # Ar
159 159 1 0.0 338.97108554986363 93.53777646612387 276.0152891262407 # Ar
160 160 1 0.0 918.6907090295433 588.4063804518635 98.45071805048579 # Ar
161 161 1 0.0 557.6343909812535 856.1272922657175 804.8708680967657 # Ar
162 162 1 0.0 504.8262452515429 890.444534130494 958.159770300104 # Ar
163 163 1 0.0 320.2588803593695 420.02056563279575 39.000424837756356 # Ar
164 164 1 0.0 478.5974550784871 339.9390333633376 285.8939957960652 # Ar
165 165 1 0.0 355.30782282001053 995.3086203336466 623.4964801192795 # Ar
166 166 1 0.0 219.44602242320292 795.4165356312515 213.1610628443162 # Ar
167 167 1 0.0 381.71264995418943 279.53599763885836 625.6084915155099 # Ar
168 168 1 0.0 117.88994368212083 804.0896650547246 183.89155696809084 # Ar
169 169 1 0.0 692.4590077992959 37.17369030368314 833.1714148078718 # Ar
170 170 1 0.0 208.27178587745107 439.3196038599572 621.1302601652314 # Ar
171 171 1 0.0 832.5547972647854 662.9541969794129 508.4970014687817 # Ar
172 172 1 0.0 423.2945122025986 873.8015905506809 686.4519951337907 # Ar
173 173 1 0.0 144.43819802240318 487.5156159906398 234.49570163888683 # Ar
174 174 1 0.0 98.67818164063729 252.74659332848012 750.0838957898369 # Ar
175 175 1 0.0 467.9382904329224 738.7708715717358 480.9263022152242 # Ar
176 176 1 0.0 830.3696670885149 919.0393255455388 853.6340520779561 # Ar
177 177 1 0.0 212.8520047540423 134.78789164085106 40.592314738120514 # Ar
178 178 1 0.0 187.54220007075 839.278701751943 850.0223027257656 # Ar
179 179 1 0.0 307.225030942388 408.97760169871054 15.81978399676639 # Ar
180 180 1 0.0 883.2189871324355 987.1505500987198 286.21780272132645 # Ar
181 181 1 0.0 333.33399909986207 614.5975995599657 116.47342055630493 # Ar
182 182 1 0.0 879.046257152429 803.9711636529876 24.683858275481523 # Ar
183 183 1 0.0 92.91369225781995 186.5596172470409 992.1596988254702 # Ar
184 184 1 0.0 829.2826673062976 618.1561223462868 102.99832081124448 # Ar
185 185 1 0.0 699.3711135400277 892.3640439759665 441.24764628491874 # Ar
186 186 1 0.0 812.476175079712 823.7892835278983 367.1172091179713 # Ar
187 187 1 0.0 425.0461149257209 391.3758189893513 38.741054463385716 # Ar
188 188 1 0.0 646.1469492742677 312.7742235439297 18.691627739874356 # Ar
189 189 1 0.0 493.5233046279626 333.5972472168297 514.255060435185 # Ar
190 190 1 0.0 575.3270462225005 796.9706083945604 822.9467705529504 # Ar
191 191 1 0.0 558.0931220013896 494.9772492468483 194.10282011336346 # Ar
192 192 1 0.0 904.6072969628167 302.8442251112425 908.9007578598399 # Ar
193 193 1 0.0 442.53842726120496 908.1257659979997 230.06664269067258 # Ar
194 194 1 0.0 190.7094849948708 247.3587937640186 30.589411954336725 # Ar
195 195 1 0.0 958.2688743852835 62.39764283224126 506.67965344448464 # Ar
196 196 1 0.0 1017.0111258446291 302.14013653088944 879.3879820499842 # Ar
197 197 1 0.0 137.2116831125025 606.4959485499418 608.997885728301 # Ar
198 198 1 0.0 843.8896785309282 631.2149173328429 459.27006769665803 # Ar
199 199 1 0.0 973.2011885697696 692.1816758074178 215.91449028614932 # Ar
200 200 1 0.0 417.61463513835076 55.300114906404005 125.95284210443334 # Ar
201 201 1 0.0 175.682872818489 472.8951518235068 871.1957271281846 # Ar
202 202 1 0.0 333.2841241296244 887.8558080237593 125.90942707541718 # Ar
203 203 1 0.0 438.9117385044078 235.01819205056788 516.5597240248946 # Ar
204 204 1 0.0 848.6033448359341 966.636135305283 302.16193808135915 # Ar
205 205 1 0.0 337.6165319484728 159.67194504122602 958.0274502835799 # Ar
206 206 1 0.0 400.7414064695731 746.7553251402923 625.5506360866655 # Ar
207 207 1 0.0 865.7487154120898 337.05088560290875 761.2044758695149 # Ar
208 208 1 0.0 17.281119318891992 33.082417016510746 0.7241182381364167 # Ar
209 209 1 0.0 141.49351218109945 3.4844717522396653 928.4868612685646 # Ar
210 210 1 0.0 202.59427302026845 382.95967217377796 70.29065729630491 # Ar
211 211 1 0.0 141.28479662162397 64.7472922273519 362.8218753686159 # Ar
212 212 1 0.0 43.431250935973104 944.7253491518577 118.13250754288721 # Ar
213 213 1 0.0 1003.5053776413744 614.5221387499278 954.5705053271647 # Ar
214 214 1 0.0 462.7846031547171 393.9013830437838 672.8885200143068 # Ar
215 215 1 0.0 83.07926841589116 298.3884941978137 123.56051394904199 # Ar
216 216 1 0.0 1015.7373335042364 14.87123175051091 540.2725162483185 # Ar
217 217 1 0.0 636.5280281720521 583.5280398026798 918.5541805514733 # Ar
218 218 1 0.0 539.7049613247522 17.596439995288936 1014.4243273870522 # Ar
219 219 1 0.0 556.2464538641628 143.60639548762427 1022.3869549180678 # Ar
220 220 1 0.0 722.2186780714524 151.25675157396645 691.8125533616067 # Ar
221 221 1 0.0 334.0215521929881 109.0533018264265 874.0635002266046 # Ar
222 222 1 0.0 322.46194464608914 301.2257679095459 467.57892958899527 # Ar
223 223 1 0.0 415.7170464106479 859.95681938419 781.2349226809129 # Ar
224 224 1 0.0 82.93548940799224 918.483933453581 355.120828470192 # Ar
225 225 1 0.0 550.3849147818165 261.53545690723485 648.1946401848381 # Ar
226 226 1 0.0 2.7977177909239432 670.6116780595864 72.09004615919292 # Ar
227 227 1 0.0 647.1418839228609 274.58625847058227 66.19867005694235 # Ar
228 228 1 0.0 464.7277738174005 186.97435375340123 115.06144155270036 # Ar
229 229 1 0.0 597.3149791122386 558.2982071373973 694.4558120763834 # Ar
230 230 1 0.0 925.8757020133747 407.7155507889888 972.0089344097292 # Ar
231 231 1 0.0 795.0868455711689 622.5928109876226 429.5703667272012 # Ar
232 232 1 0.0 77.7845923162333 907.1603604528019 782.2449229528064 # Ar
233 233 1 0.0 106.26262554915976 234.7479412445447 925.5824925793278 # Ar
234 234 1 0.0 230.74487240000494 755.9222562697273 966.4087542543416 # Ar
235 235 1 0.0 96.96163369129216 842.277354064755 997.8650456835265 # Ar
236 236 1 0.0 46.280993786411614 760.7768570196794 956.1702700304606 # Ar
237 237 1 0.0 827.8409606990213 725.2942629121447 998.7550227102953 # Ar
238 238 1 0.0 909.7810270470668 957.6605312108958 609.4870620957813 # Ar
239 239 1 0.0 189.8540677035212 619.4313418522498 268.40578705654485 # Ar
240 240 1 0.0 622.7130553633672 779.8202277921056 619.1407444604434 # Ar
241 241 1 0.0 967.4576238469602 71.41179964882875 408.503887030229 # Ar
242 242 1 0.0 996.1906106655309 364.53172377080165 257.7379370381157 # Ar
243 243 1 0.0 883.7630840329048 81.36262252841395 105.14213815156373 # Ar
244 244 1 0.0 79.80317225565608 235.22355999754444 288.8630700134992 # Ar
245 245 1 0.0 127.37478867501305 151.4018436631612 427.80096437515573 # Ar
246 246 1 0.0 250.52069948792143 978.2535725513902 390.04996974826383 # Ar
247 247 1 0.0 260.62881250195176 525.7592085889082 547.6656041957243 # Ar
248 248 1 0.0 666.890847718045 999.0319668735685 534.683003840304 # Ar
249 249 1 0.0 31.23945346865837 368.60953967012034 233.62618386952835 # Ar
250 250 1 0.0 65.0333512794828 186.4725302969038 679.6332285534114 # Ar
251 251 1 0.0 465.92525960008663 166.80556550532165 936.1187965545156 # Ar
252 252 1 0.0 59.31526034403354 413.8256161852145 374.3858494648764 # Ar
253 253 1 0.0 787.9268489708178 480.70879940486185 222.02397825532165 # Ar
254 254 1 0.0 420.5728480015355 232.1377574175157 0.9506873297115274 # Ar
255 255 1 0.0 307.7720377423133 126.25565018784309 608.0047954762775 # Ar
256 256 1 0.0 802.2518133433249 256.9021733835045 660.0464119077586 # Ar
257 257 1 0.0 72.11573308039843 428.19634919118545 524.9127996361237 # Ar
258 258 1 0.0 257.58232422451454 863.4937681439662 223.19544996278802 # Ar
259 259 1 0.0 841.1782610953092 268.5579029132674 146.04858911350587 # Ar
260 260 1 0.0 393.82553284743756 1014.2548983143464 803.3037958072863 # Ar
261 261 1 0.0 60.70029625497821 1010.3694311445416 956.726321733053 # Ar
262 262 1 0.0 149.85341366862474 854.4963082438295 516.6226476499913 # Ar
263 263 1 0.0 292.1364856256408 705.5591405346652 233.1966070274636 # Ar
264 264 1 0.0 924.543930331294 895.1021415519668 707.9017250417324 # Ar
265 265 1 0.0 632.2556203044663 88.9554332108645 44.174620693368915 # Ar
266 266 1 0.0 94.76478305516414 359.9521262549982 172.26106548392377 # Ar
267 267 1 0.0 833.7665909292201 560.9131426115064 248.31623096734305 # Ar
268 268 1 0.0 339.875252118474 54.24785542686356 341.24600412046834 # Ar
269 269 1 0.0 342.9824160481832 772.9828350220698 411.437671143609 # Ar
270 270 1 0.0 898.4521145469568 527.8904067317599 509.3997278972673 # Ar
271 271 1 0.0 436.4410561066483 228.93607476094306 904.3209680974695 # Ar
272 272 1 0.0 131.00838042703882 1020.9496646093919 856.2758697636459 # Ar
273 273 1 0.0 443.6339432277702 877.3427061490859 218.24507372404415 # Ar
274 274 1 0.0 536.9976775740075 881.5931217657743 685.0565408305167 # Ar
275 275 1 0.0 931.8366032078268 691.6296139943217 599.0167184504203 # Ar
276 276 1 0.0 788.2716452557718 19.846668936915414 540.2289640466847 # Ar
277 277 1 0.0 811.5738041040872 876.3954681943302 181.89358318218186 # Ar
278 278 1 0.0 786.1032211305481 470.30441087934275 440.2705853943541 # Ar
279 279 1 0.0 262.8755156596409 238.50448606512055 51.03069059841545 # Ar
280 280 1 0.0 92.66172595402497 93.0048246224144 175.84612897917836 # Ar
281 281 1 0.0 521.3441420276164 871.6609725668494 529.7628303522274 # Ar
282 282 1 0.0 547.5116609278963 123.82400007734859 660.7083984397307 # Ar
283 283 1 0.0 887.6392997604474 895.3704305759508 607.8650053808593 # Ar
284 284 1 0.0 371.0132497991274 727.728323367306 62.3203336988432 # Ar
285 285 1 0.0 328.4784346080979 585.3923608237205 330.57392995598644 # Ar
286 286 1 0.0 69.99869415458383 615.9165457221031 337.8604433913355 # Ar
287 287 1 0.0 909.3899354477325 149.7622559811693 60.82900836314089 # Ar
288 288 1 0.0 779.2922122339696 375.215110171018 42.73595120263714 # Ar
289 289 1 0.0 467.8078350721327 519.509062368562 181.97727187355176 # Ar
290 290 1 0.0 459.12163902242065 459.3959606119116 358.67298819513206 # Ar
291 291 1 0.0 757.5035144404497 692.4481657300063 119.22016924535959 # Ar
292 292 1 0.0 91.95114115529124 838.1330846987571 687.5535899917197 # Ar
293 293 1 0.0 937.5848809234412 144.98396494477893 1013.9985352069572 # Ar
294 294 1 0.0 889.7397523365362 564.1725538142805 577.7650700835172 # Ar
295 295 1 0.0 458.6244339543323 591.7788476593728 925.989104097687 # Ar
296 296 1 0.0 558.4786195957765 396.21915239150553 762.82938443666 # Ar
297 297 1 0.0 720.2270485689825 580.9721797252995 701.9634278161011 # Ar
298 298 1 0.0 811.5172881487836 544.7682453243759 652.8757205874665 # Ar
299 299 1 0.0 92.749323911716 77.97642329096588 400.41599938077195 # Ar
300 300 1 0.0 583.9749959678164 892.3904965258504 698.5231125139526 # Ar
301 301 1 0.0 354.99646842022497 456.3831825044277 430.5920889311001 # Ar
302 302 1 0.0 575.4818743617207 433.74075538639846 245.00925265027453 # Ar
303 303 1 0.0 576.820837947253 402.44127378031027 963.3520336311658 # Ar
304 304 1 0.0 230.50069916160444 224.62313845418757 928.9049767621358 # Ar
305 305 1 0.0 286.33238178984055 886.9944456613978 6.78231836866119 # Ar
306 306 1 0.0 956.4832185696147 403.15793957657814 808.979789685396 # Ar
307 307 1 0.0 215.19698241049284 61.96348719613614 222.55946604031868 # Ar
308 308 1 0.0 137.8679451446787 800.2464977898554 855.0472758531834 # Ar
309 309 1 0.0 419.0159379390703 29.48831133258451 760.0407782044595 # Ar
310 310 1 0.0 921.6294706281112 353.30239310950174 998.9034641483212 # Ar
311 311 1 0.0 402.30061316219167 196.70180652973684 782.6893487635471 # Ar
312 312 1 0.0 582.8131883193073 17.442847739917635 88.5785429959822 # Ar
313 313 1 0.0 949.7964459231496 1.6904907359556394 772.4971271833068 # Ar
314 314 1 0.0 2.5899967342296972 255.04098295089835 666.1903375089934 # Ar
315 315 1 0.0 218.3036854352354 677.011097364164 657.2373256599531 # Ar
316 316 1 0.0 417.0449233270737 208.2934622303781 123.27002774188583 # Ar
317 317 1 0.0 11.61185665859377 314.74428765846983 278.3873188754175 # Ar
318 318 1 0.0 122.6274980535573 546.6254345250175 278.7827347823054 # Ar
319 319 1 0.0 366.2040546284954 121.99306922544936 440.87602187845164 # Ar
320 320 1 0.0 796.5376034288597 881.2337342616561 516.4097800231257 # Ar
321 321 1 0.0 742.9008652027848 1018.7623318079799 781.7537950014558 # Ar
322 322 1 0.0 308.72991933652577 962.9415163616369 98.73246431788753 # Ar
323 323 1 0.0 334.65642333914803 389.3464469583148 593.8725163400275 # Ar
324 324 1 0.0 532.2607187613861 625.4385879686216 470.70461972675236 # Ar
325 325 1 0.0 649.6526062853815 971.0354799277071 149.76779093856914 # Ar
326 326 1 0.0 737.1628566200094 619.3402639631847 757.2604780099477 # Ar
327 327 1 0.0 1005.5988154095385 882.6207541340837 94.94758267039857 # Ar
328 328 1 0.0 369.51640193275546 826.9244279746782 408.9923044346613 # Ar
329 329 1 0.0 385.5225158576873 314.38366965563256 201.02763608532754 # Ar
330 330 1 0.0 157.86138033352452 372.3288500475412 491.18561645129546 # Ar
331 331 1 0.0 967.9553481247597 649.508621722545 126.31909312636692 # Ar
332 332 1 0.0 256.52510403156606 326.7307828596995 277.12648715380755 # Ar
333 333 1 0.0 187.3871320695776 372.47300160817827 538.6305610788406 # Ar
334 334 1 0.0 950.8216054595381 954.9234432417895 72.6212038417339 # Ar
335 335 1 0.0 481.61612479127433 20.385311120619846 708.7563104428959 # Ar
336 336 1 0.0 501.66549719877406 841.8470378633544 611.2232379523252 # Ar
337 337 1 0.0 52.623824373820256 762.0819579273832 25.371352448272706 # Ar
338 338 1 0.0 816.4402391851971 458.7249540842731 643.8136234031582 # Ar
339 339 1 0.0 40.20091222019259 466.1105025074445 211.1454368001832 # Ar
340 340 1 0.0 602.9439218077994 411.9297426456963 32.6695376048897 # Ar
341 341 1 0.0 343.8565843542247 642.7599396240248 811.9604942672293 # Ar
342 342 1 0.0 225.5165887081952 998.0425802205283 201.44151790524734 # Ar
343 343 1 0.0 843.5981789317246 423.5557654101865 407.43169552934523 # Ar
344 344 1 0.0 453.41616352392606 537.3443614221418 838.0823831088801 # Ar
345 345 1 0.0 413.4817979617786 486.5916877651354 973.1337283130197 # Ar
346 346 1 0.0 30.380753967901878 715.8357215875751 307.4033554091612 # Ar
347 347 1 0.0 689.9623943567747 831.1690591951191 607.9356569477197 # Ar
348 348 1 0.0 596.5566420382756 555.2134743995789 141.65048103760915 # Ar
349 349 1 0.0 287.27886666871956 31.83778213931592 803.4605058996789 # Ar
350 350 1 0.0 397.0308229948446 93.52739619300814 732.5099372584585 # Ar
351 351 1 0.0 596.7376725315968 233.03627830306704 972.2644542052744 # Ar
352 352 1 0.0 673.911376353213 163.70253921605988 225.9203018203179 # Ar
353 353 1 0.0 621.0859702126427 568.3380706205212 876.6507358599014 # Ar
354 354 1 0.0 345.5214918520612 459.1262471744778 822.4849608975832 # Ar
355 355 1 0.0 236.9704372873707 102.44336218104715 429.9651555160085 # Ar
356 356 1 0.0 385.06848529597283 706.9110005069792 137.46976790656043 # Ar
357 357 1 0.0 733.6754498176998 853.7096389503755 789.6971304281852 # Ar
358 358 1 0.0 953.1444703117687 385.6597176987238 145.52309732792506 # Ar
359 359 1 0.0 575.4102494649852 225.44992658524848 517.9732740870013 # Ar
360 360 1 0.0 457.34897362554176 287.3767972848068 174.03163133190702 # Ar
361 361 1 0.0 193.29370123369873 886.5295440854919 905.2860095022671 # Ar
362 362 1 0.0 191.33681502166732 287.9585875289486 913.0978339400955 # Ar
363 363 1 0.0 280.67530621236494 132.09834831528872 255.13933712909696 # Ar
364 364 1 0.0 215.30679667399826 964.3972485840432 861.3804789216858 # Ar
365 365 1 0.0 357.72738359686514 176.63698230069284 1017.9972604822588 # Ar
366 366 1 0.0 710.4208988445712 880.9540255063903 395.8579452679321 # Ar
367 367 1 0.0 1022.5350885115439 116.80300635772728 838.7808230328083 # Ar
368 368 1 0.0 872.5404776624817 184.59320026889944 229.01805690461654 # Ar
369 369 1 0.0 592.8315604987413 414.3268722879635 105.06948770534146 # Ar
370 370 1 0.0 235.95235469221197 932.7111412611648 1026.6555559355675 # Ar
371 371 1 0.0 356.77941177449657 744.7469602775609 469.03994188468715 # Ar
372 372 1 0.0 943.674590930919 969.1903357412587 174.34691848384404 # Ar
373 373 1 0.0 892.5926147226505 482.72494556322675 1005.076109496025 # Ar
374 374 1 0.0 443.51715828527057 651.0681038521473 858.0605944421172 # Ar
375 375 1 0.0 418.8639119794345 736.1349205227415 791.5203152474071 # Ar
376 376 1 0.0 450.92729276008555 1019.9713525605687 924.7501603091615 # Ar
377 377 1 0.0 708.6319294096858 494.8914356299402 928.7468566566641 # Ar
378 378 1 0.0 939.4738239877955 880.3878445153532 19.24246399767145 # Ar
379 379 1 0.0 918.2544430426332 465.9439455842776 557.4017470245016 # Ar
380 380 1 0.0 951.8091296029235 379.9163357815673 318.0454008936858 # Ar
381 381 1 0.0 547.1959256927953 998.6594702045716 379.60829057322746 # Ar
382 382 1 0.0 467.1760828702288 993.8172395231422 474.2793142496073 # Ar
383 383 1 0.0 372.82791691089193 810.039588265936 37.64986163990648 # Ar
384 384 1 0.0 349.67494712761766 306.1718501875232 379.6515670721285 # Ar
385 385 1 0.0 704.358605326312 627.8089179430132 338.6226722582708 # Ar
386 386 1 0.0 707.4364526563443 930.3810150775045 163.89805344807664 # Ar
387 387 1 0.0 558.4753855734974 849.0938720537803 573.9673491921463 # Ar
388 388 1 0.0 792.691946034349 975.0473062803175 667.2020053882256 # Ar
389 389 1 0.0 640.1899596588024 206.12772072632978 23.788117627876947 # Ar
390 390 1 0.0 669.0616667664084 851.2041045486793 417.19176480665965 # Ar
391 391 1 0.0 161.7828651188454 503.37816279741344 324.9329269763822 # Ar
392 392 1 0.0 868.6876160144229 577.453008541229 930.1513643259378 # Ar
393 393 1 0.0 463.7847779946179 904.705357084868 960.3431629509627 # Ar
394 394 1 0.0 281.40435083890833 847.0500654529293 801.901034971834 # Ar
395 395 1 0.0 334.5791963324992 918.9489011776051 770.059851424907 # Ar
396 396 1 0.0 462.02940040461567 507.73538613021236 1028.4688051442138 # Ar
397 397 1 0.0 1021.34389289732 1027.4323352121094 341.5591101186265 # Ar
398 398 1 0.0 701.7439532529805 847.634752085902 535.0725080527588 # Ar
399 399 1 0.0 800.5473719889823 949.748968238307 768.579822199155 # Ar
400 400 1 0.0 19.23284942026228 1021.4517915262414 977.9091570725728 # Ar
401 401 1 0.0 645.1192561516955 683.4893923977613 922.7315602204526 # Ar
402 402 1 0.0 962.7249459426774 989.4995835248369 84.06947211138245 # Ar
403 403 1 0.0 920.5922539589045 834.0535248598345 1020.5410953345324 # Ar
404 404 1 0.0 1017.9853110399541 233.71780790739172 85.65001623094052 # Ar
405 405 1 0.0 148.96502266264352 97.32813260617769 135.82661954722536 # Ar
406 406 1 0.0 547.0333078999797 364.26210611779527 47.477908145890325 # Ar
407 407 1 0.0 886.5160134439935 286.66754146984954 178.7638881849815 # Ar
408 408 1 0.0 439.12680432584733 121.59416636029444 195.80434179171365 # Ar
409 409 1 0.0 78.50029375761976 786.859487359623 711.54905545902 # Ar
410 410 1 0.0 175.0783752819975 258.5733504952516 419.7814748314186 # Ar
411 411 1 0.0 84.58729152140326 953.2665704587642 786.8903616140201 # Ar
412 412 1 0.0 706.2349165552421 900.9910456286237 357.2109897801462 # Ar
413 413 1 0.0 760.0031176798036 281.69006506401206 786.7512226936249 # Ar
414 414 1 0.0 1018.604744619987 711.1557860622186 551.1319832144578 # Ar
415 415 1 0.0 39.772876917475294 558.8122225797507 795.3319356103041 # Ar
416 416 1 0.0 875.9382259013718 73.12974598674006 849.6274606248363 # Ar
417 417 1 0.0 151.69393111345357 43.41796584745101 235.87833741503937 # Ar
418 418 1 0.0 107.61706179782333 89.92104743033595 772.5565017354597 # Ar
419 419 1 0.0 730.2299290489069 370.0880475397518 703.9627098867703 # Ar
420 420 1 0.0 67.74173647429755 815.2796981856146 906.5739645026802 # Ar
421 421 1 0.0 802.8328303965853 879.054856189347 78.19231750713755 # Ar
422 422 1 0.0 77.21492583365321 169.02004932148353 591.0431684689556 # Ar
423 423 1 0.0 409.6751045934793 299.67501307425687 531.9361546483512 # Ar
424 424 1 0.0 448.69529134600515 122.72833615138171 555.9296648463459 # Ar
425 425 1 0.0 702.2806417967074 551.1382160503407 559.154245145782 # Ar
426 426 1 0.0 220.83688532375356 994.0816832077451 639.6365747812725 # Ar
427 427 1 0.0 793.3491154534631 431.4218833044057 552.3568343383392 # Ar
428 428 1 0.0 848.6639124970161 683.5818272973307 433.11193529140996 # Ar
429 429 1 0.0 538.7407753462272 533.7900484208058 417.995393210176 # Ar
430 430 1 0.0 919.5001426261869 962.4507807742824 1017.7662522682069 # Ar
431 431 1 0.0 119.41615444025004 1011.4032659985628 155.58395308852698 # Ar
432 432 1 0.0 553.3017006399521 945.845356036289 637.2713379974809 # Ar
433 433 1 0.0 76.23144773017285 866.6301641017478 502.4346284645522 # Ar
434 434 1 0.0 571.7545741501559 547.9806147222006 390.5703675652833 # Ar
435 435 1 0.0 220.1563900617551 599.5089334474584 431.83906112228874 # Ar
436 436 1 0.0 117.02574599686643 43.91438733297092 465.68498940378544 # Ar
437 437 1 0.0 399.83648808159467 677.5291886370712 306.27101451754083 # Ar
438 438 1 0.0 280.7563481570633 314.26541879450133 913.0363818022737 # Ar
439 439 1 0.0 329.41478175391876 649.2121448342051 634.5097846109817 # Ar
440 440 1 0.0 226.4584563681337 598.1559075451612 905.7192412168212 # Ar
441 441 1 0.0 711.0261840486344 68.70453301423535 484.407095547916 # Ar
442 442 1 0.0 735.4005254430832 1018.9503391498015 162.2246622290834 # Ar
443 443 1 0.0 528.4213762450205 185.08069081297876 860.6108489067101 # Ar
444 444 1 0.0 764.2780986596139 193.26649797900427 520.475944182052 # Ar
445 445 1 0.0 968.6727251390662 753.7017119857097 1023.865142731002 # Ar
446 446 1 0.0 729.4020958723618 581.9095779148465 353.9595709462226 # Ar
447 447 1 0.0 153.1368482100253 81.01160607706227 502.41558535914544 # Ar
448 448 1 0.0 208.00206128069868 366.1852668735834 694.3871976551872 # Ar
449 449 1 0.0 376.8859581172626 775.4078692502674 125.27890429857298 # Ar
450 450 1 0.0 588.4383621093856 299.0332165082781 62.7329219562406 # Ar
451 451 1 0.0 987.9037459051247 897.3572007580492 582.6591123843863 # Ar
452 452 1 0.0 90.24941283579713 528.9047393242292 312.9136058001676 # Ar
453 453 1 0.0 301.0481267592239 851.7499025081245 72.73447887723941 # Ar
454 454 1 0.0 404.4520697210838 135.13501512399432 609.8055835363024 # Ar
455 455 1 0.0 397.08043779241416 128.91897690018587 730.2681436679101 # Ar
456 456 1 0.0 207.62533623256778 27.792657758158764 577.8168258170623 # Ar
457 457 1 0.0 109.12267949325084 553.5994246776518 951.4993695789254 # Ar
458 458 1 0.0 543.7491733690509 242.4909664181473 66.65895130081213 # Ar
459 459 1 0.0 305.53861911067355 601.0034130536974 30.47508581800763 # Ar
460 460 1 0.0 1021.0346898071357 10.355055069874332 216.7880190011196 # Ar
461 461 1 0.0 201.13269168252108 486.77754411387775 156.28275920083584 # Ar
462 462 1 0.0 36.22247456449502 926.4593722866101 694.0140141364155 # Ar
463 463 1 0.0 503.6878847354913 591.2688259078718 493.751850423214 # Ar
464 464 1 0.0 372.5952357582696 201.64962306880102 94.15789638440926 # Ar
465 465 1 0.0 873.5208098644005 791.7132579864124 675.002984665409 # Ar
466 466 1 0.0 845.5629068123446 138.50563394620804 60.168207145258656 # Ar
467 467 1 0.0 562.7633462147429 913.2515921980075 948.427976819362 # Ar
468 468 1 0.0 809.4064992453083 750.8239256885041 622.2730682047429 # Ar
469 469 1 0.0 8.40198155240193 838.2651154986667 476.12820615235796 # Ar
470 470 1 0.0 583.2808962452287 423.7139252864576 431.2888276228569 # Ar
471 471 1 0.0 406.14861996927914 299.9695145884402 985.22974541385 # Ar
472 472 1 0.0 265.1836366405577 810.2094499549775 137.0609935671975 # Ar
473 473 1 0.0 191.72600690111133 677.6137705044151 597.3348094434413 # Ar
474 474 1 0.0 650.0603955390108 1023.0045526026069 637.4939072022124 # Ar
475 475 1 0.0 810.5193167015575 118.00266193348196 77.44100886056022 # Ar
476 476 1 0.0 587.1703098450206 26.86760967985103 448.84714628480646 # Ar
477 477 1 0.0 545.5121925102518 31.432193171998794 347.7958032045753 # Ar
478 478 1 0.0 452.79580828021744 152.63131684297667 964.9178183129106 # Ar
479 479 1 0.0 229.2024972188176 7.033841599690844 489.0438962840735 # Ar
480 480 1 0.0 52.64931982813461 719.8450294279924 70.13654770386799 # Ar
481 481 1 0.0 85.54188890751833 315.7012604057638 472.5447380299144 # Ar
482 482 1 0.0 758.8010995095083 277.48166057773653 62.77280603938734 # Ar
483 483 1 0.0 632.1890306202405 358.73875693074854 395.0857179800987 # Ar
484 484 1 0.0 627.1387518512487 633.8682491054202 870.7869900525171 # Ar
485 485 1 0.0 930.4719810302053 813.5479567774585 619.1926004555056 # Ar
486 486 1 0.0 754.2274820347332 67.43411470565472 787.4789868122776 # Ar
487 487 1 0.0 217.45911804233427 324.10551645762104 838.9665811875726 # Ar
488 488 1 0.0 917.5311461076877 1004.7021635666589 411.32821107259184 # Ar
489 489 1 0.0 511.122583052909 5.866977177623045 386.9767332371995 # Ar
490 490 1 0.0 485.32931951705234 232.18596269742824 904.4015075177846 # Ar
491 491 1 0.0 642.7521481644847 655.6457183408677 712.5103603006963 # Ar
492 492 1 0.0 516.3161705185804 174.98411709994227 450.69936345217883 # Ar
493 493 1 0.0 544.2311541119599 523.9451807146938 299.2245001843404 # Ar
494 494 1 0.0 888.1308726790087 989.0516070711046 505.17450385410183 # Ar
495 495 1 0.0 1026.0364145564731 120.37364289058607 766.5947409175483 # Ar
496 496 1 0.0 450.5436207329991 329.84350932459296 660.3384277575831 # Ar
497 497 1 0.0 1013.2726842278379 203.69321953943174 537.4127365999315 # Ar
498 498 1 0.0 667.5065351772882 877.7436315385726 354.5244187150777 # Ar
499 499 1 0.0 985.97400453418 966.6830527791194 366.61523442669346 # Ar
500 500 1 0.0 1013.6360354778757 895.834179146035 223.03269811167368 # Ar
501 501 1 0.0 147.23098546025938 187.57172525272816 570.3266932166574 # Ar
502 502 1 0.0 128.12118902210364 204.5470566973795 942.0589816984856 # Ar
503 503 1 0.0 647.8169418003782 128.4020828431578 971.2153529513346 # Ar
504 504 1 0.0 48.02258500169302 487.6084047835155 287.2448296287383 # Ar
505 505 1 0.0 628.4104960756058 693.8315525775462 396.4884366559051 # Ar
506 506 1 0.0 271.2727639584444 478.0164613103769 968.4351827157332 # Ar
507 507 1 0.0 517.1671131997772 893.7944659263443 631.4104845495912 # Ar
508 508 1 0.0 641.7862777768054 747.622588711965 480.21872888255825 # Ar
509 509 1 0.0 485.2122502932858 760.987217047109 4.71590735118885 # Ar
510 510 1 0.0 294.86441074177134 1001.7199269452257 368.6999528926137 # Ar
511 511 1 0.0 629.0775543753607 143.28808519933978 714.4381980989717 # Ar
512 512 1 0.0 109.40609012834821 125.5273472884394 865.8328169607873 # Ar
513 513 1 0.0 76.32015731474989 326.94685611538404 359.21501300659287 # Ar
514 514 1 0.0 527.1632618121571 385.00634131837455 745.0890521103069 # Ar
515 515 1 0.0 378.1177472510723 916.9641689305766 274.8579208828175 # Ar
516 516 1 0.0 432.58185455981794 124.0668715410141 402.0429373330643 # Ar
517 517 1 0.0 529.9460705713228 14.894781121652315 758.3463854136588 # Ar
518 518 1 0.0 343.2497810316483 625.7362721968791 884.2014491076945 # Ar
519 519 1 0.0 747.5606274137587 143.17721543412569 508.44332200315637 # Ar
520 520 1 0.0 323.8968297814724 706.76073462242 632.1408735998151 # Ar
521 521 1 0.0 19.77247069746641 638.7304781356206 661.4571583162931 # Ar
522 522 1 0.0 731.6913668319273 399.6269654877891 466.9237783957895 # Ar
523 523 1 0.0 261.75463890665515 797.3901115356333 201.56635414813388 # Ar
524 524 1 0.0 136.05459050319453 191.83371384754562 819.0674332937598 # Ar
525 525 1 0.0 995.643301933949 263.25556507711343 141.68055055949242 # Ar
526 526 1 0.0 443.44492716215416 974.5654748459551 260.0807206157038 # Ar
527 527 1 0.0 534.7212294475828 614.1561086759567 72.20768361791448 # Ar
528 528 1 0.0 676.8841980520491 736.8165726483202 373.65968784790647 # Ar
529 529 1 0.0 134.86734268322553 105.68510787347208 280.2563853535329 # Ar
530 530 1 0.0 673.4890269133409 795.7011058049894 702.4671280699357 # Ar
531 531 1 0.0 927.2964880182151 809.5214175293302 858.9959358686027 # Ar
532 532 1 0.0 511.4394579848759 1028.4022755477408 817.4218466142723 # Ar
533 533 1 0.0 652.7666746354613 919.8524064178121 984.2834436848761 # Ar
534 534 1 0.0 59.60697087471768 249.68002515904604 991.1536528675958 # Ar
535 535 1 0.0 297.07504739665546 180.44530580339955 652.854749473107 # Ar
536 536 1 0.0 3.782671576806171 560.0377157666286 626.0583203312667 # Ar
537 537 1 0.0 86.44129243371452 696.8280304347015 262.54553401409675 # Ar
538 538 1 0.0 396.871004335611 710.0981166723603 998.4699030028792 # Ar
539 539 1 0.0 400.52526664703333 319.9587684201358 394.5569111096897 # Ar
540 540 1 0.0 938.0897144069688 739.2219288167955 263.06930083838887 # Ar
541 541 1 0.0 311.92705539377397 486.4257167412588 310.81667062583256 # Ar
542 542 1 0.0 569.1840905000097 299.3293514109224 391.7489668112696 # Ar
543 543 1 0.0 981.5115684603674 174.15506851060147 370.4187850710309 # Ar
544 544 1 0.0 944.8204363651558 739.7635970040014 409.86727583206516 # Ar
545 545 1 0.0 468.20223500985696 945.537838009117 488.4992483074575 # Ar
546 546 1 0.0 318.9727535291072 506.82833953309034 651.3638654018059 # Ar
547 547 1 0.0 565.4178946587282 680.3093897921717 488.13663159396395 # Ar
548 548 1 0.0 692.9514159598307 51.78117463068609 393.9796242295912 # Ar
549 549 1 0.0 401.4983531241126 804.7777358953447 486.9138937202867 # Ar
550 550 1 0.0 105.56305322219367 974.2810448353114 1002.3177691530866 # Ar
551 551 1 0.0 720.4704692602535 982.8017668879546 193.33954314366744 # Ar
552 552 1 0.0 262.3389943378674 276.3304138503834 148.46477607067254 # Ar
553 553 1 0.0 32.9295892358861 1007.0744267429301 188.8038349685459 # Ar
554 554 1 0.0 210.61059937315244 136.32592668978458 848.4989245227216 # Ar
555 555 1 0.0 962.5460167790442 843.5819016095355 502.97158082935607 # Ar
556 556 1 0.0 112.91782815005435 12.224734452311534 646.4200705456626 # Ar
557 557 1 0.0 681.5148914903581 6.13037445498016 154.76190622556794 # Ar
558 558 1 0.0 458.3414181060235 554.4699174715595 679.0963055695206 # Ar
559 559 1 0.0 548.8483659630476 701.5232042657409 460.7735620732023 # Ar
560 560 1 0.0 691.8316796518669 777.8152475848481 638.237929522046 # Ar
561 561 1 0.0 726.7562487465952 190.62290328109106 6.277685026994687 # Ar
562 562 1 0.0 14.351561269519248 878.8659385937511 243.4913296907229 # Ar
563 563 1 0.0 981.8558333745501 38.47546066904422 490.58749321383584 # Ar
564 564 1 0.0 133.8406051307773 327.28244698042425 873.639216558292 # Ar
565 565 1 0.0 14.987210046705039 68.57645250916734 155.54902106573547 # Ar
566 566 1 0.0 566.9552736411841 77.96086143752407 334.5754760514431 # Ar
567 567 1 0.0 753.6777582749912 433.8241549380457 220.98806631904583 # Ar
568 568 1 0.0 637.3647630672857 940.5550959999126 399.712176889731 # Ar
569 569 1 0.0 911.0454105786719 939.1764879659461 237.64026846099586 # Ar
570 570 1 0.0 764.7523767819823 853.8606660240736 656.9770383903917 # Ar
571 571 1 0.0 866.7240462159484 895.279019699177 729.2935973154657 # Ar
572 572 1 0.0 183.04331758087739 154.44758062940548 241.3464076756498 # Ar
573 573 1 0.0 911.3563692410063 201.35242107171354 276.30753731908794 # Ar
574 574 1 0.0 531.2896838530374 2.1045063516671183 972.156120391972 # Ar
575 575 1 0.0 456.1255561202013 568.7258948988034 971.1934441028487 # Ar
576 576 1 0.0 124.75672600108365 866.0063479965041 807.1090046309976 # Ar
577 577 1 0.0 352.44100556241733 380.1971149517731 1025.7337092716596 # Ar
578 578 1 0.0 404.8117743243748 951.8649235928535 921.8103277497046 # Ar
579 579 1 0.0 577.5355905255036 402.18827190509387 339.6216843389164 # Ar
580 580 1 0.0 1006.0080455914459 30.86564133704472 962.8212805299163 # Ar
581 581 1 0.0 919.0241445694322 528.8969663720336 539.7919810564044 # Ar
582 582 1 0.0 393.23785560933584 33.088501870756865 906.8432666868786 # Ar
583 583 1 0.0 255.8329638606675 27.92219925255937 379.8414395153815 # Ar
584 584 1 0.0 362.46179643657166 136.27786856583594 984.3345037160058 # Ar
585 585 1 0.0 625.3920330886202 447.91719345507846 960.3502020911761 # Ar
586 586 1 0.0 92.40321791837944 194.61773622956073 394.9816416526588 # Ar
587 587 1 0.0 373.0894605675226 148.6294155431252 557.0359621856551 # Ar
588 588 1 0.0 401.56676881122166 609.3926506627096 521.9235280068928 # Ar
589 589 1 0.0 978.1248596043505 537.7737812716605 853.0962795913606 # Ar
590 590 1 0.0 613.3568387809647 482.3395802949634 642.7685338055679 # Ar
591 591 1 0.0 113.68767745527695 385.62064025462314 14.616210294774014 # Ar
592 592 1 0.0 569.7450072073916 251.1387454160034 432.16663913643066 # Ar
593 593 1 0.0 611.3041264445377 785.4124154074393 924.9153645119172 # Ar
594 594 1 0.0 639.9903318398558 532.6691075867383 227.55757936307404 # Ar
595 595 1 0.0 923.0029620293152 897.4903229528217 558.0437868773736 # Ar
596 596 1 0.0 272.8989500581889 130.61474602005882 679.6804978661215 # Ar
597 597 1 0.0 867.9570017517307 885.2283844750441 54.84782128713745 # Ar
598 598 1 0.0 781.9909485845188 344.1748570987383 521.2936858429803 # Ar
599 599 1 0.0 378.7438641802155 842.4171944928516 364.85439435944534 # Ar
600 600 1 0.0 559.2219018096235 924.0962409281644 58.844956577017165 # Ar
601 601 1 0.0 747.2226771022813 359.0760434687315 411.8494344095373 # Ar
602 602 1 0.0 632.5835980650489 390.8456799075023 563.7235656428817 # Ar
603 603 1 0.0 550.2218958033636 508.4250539018722 756.5242648698239 # Ar
604 604 1 0.0 455.78177210962457 423.83926308772516 612.2056441499644 # Ar
605 605 1 0.0 357.64795799052115 806.6577164339826 745.3849013302597 # Ar
606 606 1 0.0 55.073517640723765 264.4079987907055 739.4013481149817 # Ar
607 607 1 0.0 72.3477430375494 587.7368249195392 179.1689239884972 # Ar
608 608 1 0.0 473.47902817824513 660.1689954633955 909.5910356742253 # Ar
609 609 1 0.0 460.60706367277544 358.57890671107117 538.618662349928 # Ar
610 610 1 0.0 189.06238761009408 487.81273884231786 308.4712285991131 # Ar
611 611 1 0.0 724.1302872254047 117.71449029367636 938.6227805458295 # Ar
612 612 1 0.0 615.9918913858322 122.02891881430959 680.9720612216902 # Ar
613 613 1 0.0 74.53483291704462 727.9981386413082 709.4252668032785 # Ar
614 614 1 0.0 376.8359379103139 493.41820205608883 340.2390811536232 # Ar
615 615 1 0.0 377.8533641753405 104.57155304803548 706.1364186583509 # Ar
616 616 1 0.0 922.6752890074041 82.89356579208737 549.5495834016344 # Ar
617 617 1 0.0 863.5705881771567 550.431039398818 231.7513021783986 # Ar
618 618 1 0.0 942.6257883130354 735.9115872033746 988.543559104708 # Ar
619 619 1 0.0 26.505050204445293 909.3797942240355 570.7237933609391 # Ar
620 620 1 0.0 789.9746368070752 768.003928432707 472.5298276002421 # Ar
621 621 1 0.0 212.17675117953644 911.4032074430794 684.957275095833 # Ar
622 622 1 0.0 394.9418772505229 26.837701376195835 392.239016733244 # Ar
623 623 1 0.0 904.5436041880239 428.78602941798283 83.44017595804648 # Ar
624 624 1 0.0 30.931701787177342 577.3539538192364 938.7038101109437 # Ar
625 625 1 0.0 749.4902959718437 30.611725582844766 582.2724617906065 # Ar
626 626 1 0.0 680.9799105202361 608.2654954124123 678.69031128446 # Ar
627 627 1 0.0 501.6794690414999 965.4004271474538 406.1521877709645 # Ar
628 628 1 0.0 915.9538486766226 850.7186575670567 583.5623901810881 # Ar
629 629 1 0.0 713.062684159459 303.9646301933749 506.3555338785733 # Ar
630 630 1 0.0 634.286197814571 288.67182590458344 672.9934990818524 # Ar
631 631 1 0.0 211.47469443869824 187.71687532678192 475.26776788126233 # Ar
632 632 1 0.0 401.1141785566566 109.98033440853817 865.4238377907288 # Ar
633 633 1 0.0 566.1118194252538 261.79087134188154 27.530929420006977 # Ar
634 634 1 0.0 131.3426411578236 198.28080007622987 887.523960686586 # Ar
635 635 1 0.0 601.0487711759565 421.6512315770499 981.1687571442396 # Ar
636 636 1 0.0 786.4933239482266 922.135046186455 836.2946794766679 # Ar
637 637 1 0.0 267.7194789256985 661.2746295451112 1014.505567602637 # Ar
638 638 1 0.0 275.86256698597174 796.888938522548 1000.1356517780399 # Ar
639 639 1 0.0 249.27000762896463 721.7520294126372 230.99823922550112 # Ar
640 640 1 0.0 117.31402923147022 571.1571022691561 982.2073893487894 # Ar
641 641 1 0.0 255.16588311608072 473.8855761626407 551.4058068271772 # Ar
642 642 1 0.0 760.7233701471686 711.7484446307985 139.52126371149043 # Ar
643 643 1 0.0 485.45146825634015 526.8304654026102 782.3706410024389 # Ar
644 644 1 0.0 762.1752281764966 168.51262888917375 672.3896949283616 # Ar
645 645 1 0.0 990.8068938846774 749.6055261712017 61.2349860272914 # Ar
646 646 1 0.0 909.1307315067933 36.33017649905863 663.7076245926933 # Ar
647 647 1 0.0 600.8477677292722 20.751352767445688 139.34582684507973 # Ar
648 648 1 0.0 991.6588372110509 512.4539518324239 572.8135223826484 # Ar
649 649 1 0.0 560.8739488104349 637.1132256182685 896.101605354317 # Ar
650 650 1 0.0 768.9486364331171 651.9545135831889 356.3144179078002 # Ar
651 651 1 0.0 181.43749305748227 398.3596077035601 306.8687716284174 # Ar
652 652 1 0.0 236.4156528705381 215.50931434529943 205.33263282262166 # Ar
653 653 1 0.0 398.84356612097764 848.8845265576052 423.61026362796264 # Ar
654 654 1 0.0 206.87789936153513 659.4329945845424 869.1378072522076 # Ar
655 655 1 0.0 966.5278867949283 323.77340926595997 218.05513419219707 # Ar
656 656 1 0.0 365.6970999305037 874.9394308735513 779.2591513892779 # Ar
657 657 1 0.0 184.71537305028457 69.08551799385133 794.3130284765164 # Ar
658 658 1 0.0 775.6187194202375 985.4208039249784 495.29945720341027 # Ar
659 659 1 0.0 217.9919315950744 195.18198290871135 753.4076594958135 # Ar
660 660 1 0.0 674.9994768522546 326.0332842366356 706.9939298678214 # Ar
661 661 1 0.0 453.6215734947004 810.7457525665621 1016.8878434404944 # Ar
662 662 1 0.0 217.50293142471804 336.093490821098 671.9015981501242 # Ar
663 663 1 0.0 662.0405914965783 172.20902089463766 246.8534047550197 # Ar
664 664 1 0.0 351.6795508216955 747.8722968145712 231.5671725851689 # Ar
665 665 1 0.0 141.27252529885283 115.48496081027409 796.6800069839312 # Ar
666 666 1 0.0 849.998193964837 661.8072335642214 525.6361165952819 # Ar
667 667 1 0.0 671.6722907447767 206.6953780348987 60.34680778952582 # Ar
668 668 1 0.0 28.379917717560733 61.31122004820171 584.0198529679441 # Ar
669 669 1 0.0 504.88961983115996 977.1045030821443 171.6350353981337 # Ar
670 670 1 0.0 60.764818227935564 1008.6262346816515 784.5854894499859 # Ar
671 671 1 0.0 378.8310890068958 846.8808322072024 55.56943076501228 # Ar
672 672 1 0.0 374.1372445702239 880.3071448200053 403.24174022261434 # Ar
673 673 1 0.0 577.3347504822717 867.5010592729774 226.96438532318467 # Ar
674 674 1 0.0 611.414204999065 343.28168346519845 677.7748144092632 # Ar
675 675 1 0.0 521.4139330786173 997.4953085737615 385.20792040461953 # Ar
676 676 1 0.0 764.7566097235048 876.446450989054 156.9061813047294 # Ar
677 677 1 0.0 429.0128462234957 1011.3563710580546 950.5445758447422 # Ar
678 678 1 0.0 372.14476586349224 701.5611811716223 832.3769717619366 # Ar
679 679 1 0.0 477.04168439954583 502.4776896040107 715.5073179721635 # Ar
680 680 1 0.0 643.6395566317095 656.9542215738992 825.6800355248735 # Ar
681 681 1 0.0 938.0192377424177 774.7216926614117 521.911395134563 # Ar
682 682 1 0.0 959.860584425951 494.2693918790798 221.45388147882508 # Ar
683 683 1 0.0 471.31028131628614 861.3961218674851 627.4217466344926 # Ar
684 684 1 0.0 92.36423024393568 977.6586216731033 584.2855059258889 # Ar
685 685 1 0.0 161.3045103574789 254.88084591672018 1014.412094463487 # Ar
686 686 1 0.0 635.7563155376644 300.04736909514304 693.98270799088 # Ar
687 687 1 0.0 634.4346521520436 116.6568464848202 361.63710683789606 # Ar
688 688 1 0.0 757.8692755709222 557.5199311343099 265.5646857681297 # Ar
689 689 1 0.0 299.02216108923193 53.06709086313055 751.4140933948371 # Ar
690 690 1 0.0 217.30184311852574 426.92335970272467 336.38138446498806 # Ar
691 691 1 0.0 124.29580336703947 656.4575164356683 822.8856936786733 # Ar
692 692 1 0.0 114.6017751073334 4.598542301131675 253.28289262087506 # Ar
693 693 1 0.0 920.4111536430046 714.9305759264631 318.3024312509333 # Ar
694 694 1 0.0 298.92708390799055 955.280433800501 44.683412811378616 # Ar
695 695 1 0.0 612.6349049446718 748.5604248135612 753.8399612212468 # Ar
696 696 1 0.0 5.632971122152448 1023.7810763835963 967.2605884380847 # Ar
697 697 1 0.0 12.87218955750823 910.279639248339 388.10442074579834 # Ar
698 698 1 0.0 137.96061751748698 477.98984547655857 450.9692847134582 # Ar
699 699 1 0.0 178.26577955427703 762.367645322354 638.8172756460349 # Ar
700 700 1 0.0 79.27561758928168 29.969658217573407 61.94930496576303 # Ar
701 701 1 0.0 755.9691719475985 397.26623187914186 908.9443297602311 # Ar
702 702 1 0.0 739.8683744810307 597.7596192308033 81.08558251420149 # Ar
703 703 1 0.0 145.73307914469854 869.4937265650083 683.3493866077453 # Ar
704 704 1 0.0 181.96970616770338 1003.6427345824375 186.42006793858872 # Ar
705 705 1 0.0 782.2247809889583 827.494088243086 495.8489817577262 # Ar
706 706 1 0.0 164.8273979869072 611.4388138817143 1002.2882142333036 # Ar
707 707 1 0.0 754.367347674788 427.25891808635294 724.9095559797272 # Ar
708 708 1 0.0 76.10486996669965 862.592100415302 732.6396242141889 # Ar
709 709 1 0.0 487.3579204656842 375.4528123855727 690.4137400278712 # Ar
710 710 1 0.0 298.9031258832873 406.2832078938467 431.33612856970507 # Ar
711 711 1 0.0 500.131151422771 835.3912151735584 203.1620666784412 # Ar
712 712 1 0.0 458.6152595153228 405.13589932786 671.3541467596289 # Ar
713 713 1 0.0 964.7476986942086 109.29328279162608 432.33172624131714 # Ar
714 714 1 0.0 811.3788054036866 183.80621527859537 325.47857366482583 # Ar
715 715 1 0.0 907.2713219384532 115.01842508664814 954.329827964759 # Ar
716 716 1 0.0 50.49963663957459 811.4581865409248 427.32518630993576 # Ar
717 717 1 0.0 531.49184845174 584.288807153612 2.5509955198177656 # Ar
718 718 1 0.0 341.5399343745375 317.72406282537565 675.5851198169302 # Ar
719 719 1 0.0 651.7161462872476 457.89237525084536 577.7785983741037 # Ar
720 720 1 0.0 74.81574186250192 29.724525587367843 430.808947784138 # Ar
721 721 1 0.0 907.2043358611827 923.8520115540775 181.7424093826954 # Ar
722 722 1 0.0 914.9781688455976 694.9151957726056 330.42185297651395 # Ar
723 723 1 0.0 1000.6368477309309 410.2268816862202 354.5136995945241 # Ar
724 724 1 0.0 786.0177525777585 98.65690413236608 42.833232667874675 # Ar
725 725 1 0.0 430.1117975643947 368.2367630725853 751.3343250377046 # Ar
726 726 1 0.0 65.91843193977081 265.28112609341804 473.4354626927028 # Ar
727 727 1 0.0 587.6405942429337 667.163944652126 581.1732735985073 # Ar
728 728 1 0.0 208.7263456960963 1000.6564243765216 353.6200284699531 # Ar
729 729 1 0.0 577.2739027266858 833.2955789427635 328.7037530636278 # Ar
730 730 1 0.0 280.73053568345574 671.1796848493099 1021.5665815239529 # Ar
731 731 1 0.0 251.21056502031684 15.326190917848475 469.74098660383027 # Ar
732 732 1 0.0 680.6701636830709 866.3247181348455 272.30014030568424 # Ar
733 733 1 0.0 673.6084655458986 111.85794991148407 429.35882610482344 # Ar
734 734 1 0.0 538.2606865116535 308.8157221090994 1020.2707249729771 # Ar
735 735 1 0.0 803.7567098961702 797.9278333859896 650.6820466392987 # Ar
736 736 1 0.0 69.05767590925674 807.3924943262559 955.5687888863952 # Ar
737 737 1 0.0 54.407824250816134 266.36405275892383 47.04331996765768 # Ar
738 738 1 0.0 951.3754820291413 47.758822955100506 697.1741027564345 # Ar
739 739 1 0.0 102.31150644686879 724.1243671650985 525.644467382121 # Ar
740 740 1 0.0 320.89595070429175 293.884396322509 445.91155977479934 # Ar
741 741 1 0.0 683.4309755130961 716.8906395078156 932.4105187428473 # Ar
742 742 1 0.0 337.7759525796062 1001.4973049378431 178.6049580861867 # Ar
743 743 1 0.0 967.6201827573329 80.95571093120162 291.30383287427446 # Ar
744 744 1 0.0 15.832945009766288 815.8539832668674 580.551399262457 # Ar
745 745 1 0.0 422.36838426754287 344.83162072107064 300.65594393627845 # Ar
746 746 1 0.0 732.3418768635211 782.4178875632914 63.44881843522884 # Ar
747 747 1 0.0 708.0737882062375 198.8835317965937 733.5334204448471 # Ar
748 748 1 0.0 225.14627018271102 400.6377687122756 149.78842387524867 # Ar
749 749 1 0.0 345.65017694915923 5.261072442754398 627.5366824167872 # Ar
750 750 1 0.0 720.2203014593413 341.62501513850253 554.0501448903073 # Ar
751 751 1 0.0 319.1433739108562 224.79148571037595 600.480739655528 # Ar
752 752 1 0.0 813.42616661608 485.99700238410156 538.0796395997443 # Ar
753 753 1 0.0 286.2835332194335 84.78197125862998 287.10253754292347 # Ar
754 754 1 0.0 516.0994366359625 206.21242418431243 804.8376698626678 # Ar
755 755 1 0.0 1017.1374695795023 401.01356764860856 313.00125901115297 # Ar
756 756 1 0.0 449.5208214665531 480.1232261207972 987.4443754899875 # Ar
757 757 1 0.0 753.5098324713623 947.6234261027126 1021.6557356951782 # Ar
758 758 1 0.0 297.49744066399836 912.2641775163452 685.7979952857423 # Ar
759 759 1 0.0 594.8796177033145 638.4166171867519 681.5205744263674 # Ar
760 760 1 0.0 220.03775244353804 689.2616870919295 226.61146078982426 # Ar
761 761 1 0.0 237.12297553254965 1016.3374820785745 560.6069002022894 # Ar
762 762 1 0.0 1002.8938974045697 369.245984510188 560.7092522928057 # Ar
763 763 1 0.0 789.7797996726388 473.23081002396805 1028.9070792555137 # Ar
764 764 1 0.0 842.1447812316815 673.642758431728 443.12825520620356 # Ar
765 765 1 0.0 148.24614338090257 956.2235904719486 887.0946466863878 # Ar
766 766 1 0.0 494.2355437122068 388.23291465232734 293.06138659716237 # Ar
767 767 1 0.0 331.66281446592603 769.4493365463873 597.0871080593733 # Ar
768 768 1 0.0 561.0729681745255 538.1867707328603 480.5351409565985 # Ar
769 769 1 0.0 522.8703077381124 768.5541899769919 909.6928685302262 # Ar
770 770 1 0.0 306.4200774000359 128.2014040655661 514.4249532794431 # Ar
771 771 1 0.0 208.04609520685344 61.63029645849756 117.75301298877943 # Ar
772 772 1 0.0 181.05090596010245 189.03624147410753 1.947029305401988 # Ar
773 773 1 0.0 989.1427427557306 152.18110127553126 156.12809167548195 # Ar
774 774 1 0.0 919.1985843435348 901.054924278905 97.12708216877219 # Ar
775 775 1 0.0 276.00870905554643 378.2616209349093 943.8226930753065 # Ar
776 776 1 0.0 355.5852715892966 316.55024276264965 383.8467753933413 # Ar
777 777 1 0.0 1027.5237358132285 798.552210817723 159.52520650472954 # Ar
778 778 1 0.0 259.5819116918883 522.9539287123124 831.1305275415621 # Ar
779 779 1 0.0 682.6630945529238 50.35761510255558 27.268583216532438 # Ar
780 780 1 0.0 603.7689561323346 653.6662068759323 31.270057040319788 # Ar
781 781 1 0.0 242.71859525246413 661.5372239044583 188.43164022676464 # Ar
782 782 1 0.0 114.4827257415213 585.2127773168936 515.8268391514058 # Ar
783 783 1 0.0 127.14153544248381 418.3964411999509 927.6630278722489 # Ar
784 784 1 0.0 264.58477234364324 386.798933115307 357.5668893757295 # Ar
785 785 1 0.0 9.355623699423147 769.5062029646776 1005.5595647081955 # Ar
786 786 1 0.0 14.014655225278997 450.0098896153154 864.8057453993949 # Ar
787 787 1 0.0 825.457876632402 25.64777246868062 764.6862190467583 # Ar
788 788 1 0.0 681.297344021426 844.9562098918541 72.62345962321221 # Ar
789 789 1 0.0 629.3438880020016 382.6293737647494 34.23930482898397 # Ar
790 790 1 0.0 776.5335117441459 729.6867743936148 1003.5483672670606 # Ar
791 791 1 0.0 979.638018924585 650.1775839935603 634.2414805600305 # Ar
792 792 1 0.0 669.6472936598585 349.34756469240796 990.7303768077328 # Ar
793 793 1 0.0 559.7780901540153 906.3845991530158 773.7337611511209 # Ar
794 794 1 0.0 228.61756511537757 683.290637360986 1011.790343414908 # Ar
795 795 1 0.0 929.4749235636974 790.568261827455 290.3819052692567 # Ar
796 796 1 0.0 243.54838537629894 1006.156052592191 762.5373639027882 # Ar
797 797 1 0.0 656.4126668714904 208.6399217450022 614.1075543224289 # Ar
798 798 1 0.0 824.2422819544203 864.1702398923335 325.0331962267582 # Ar
799 799 1 0.0 849.5051935628505 424.27065051544866 634.5940550489958 # Ar
800 800 1 0.0 666.4843581294638 529.8239341879735 701.4637329602026 # Ar
801 801 1 0.0 736.3197494716333 219.2118839697013 716.1892115205783 # Ar
802 802 1 0.0 617.8480798399397 492.1766370318951 1026.8831086631917 # Ar
803 803 1 0.0 883.118759258284 515.9203095923953 537.7212398034881 # Ar
804 804 1 0.0 560.7486369365741 641.0734918332421 396.564873594454 # Ar
805 805 1 0.0 352.626539960872 404.1031969390438 734.6053364013942 # Ar
806 806 1 0.0 11.013963504770356 822.9599468386427 297.34285994969645 # Ar
807 807 1 0.0 113.99337738873044 637.8498994972327 187.94256617497703 # Ar
808 808 1 0.0 285.13609844627445 423.2846702161246 309.21510622471175 # Ar
809 809 1 0.0 628.1445603849443 109.4446174718829 241.5504673302682 # Ar
810 810 1 0.0 802.4772687193312 285.4203390643174 379.39056653545595 # Ar
811 811 1 0.0 363.08891650194215 394.5313264422854 805.7376514339196 # Ar
812 812 1 0.0 75.75779491921261 286.59117122673837 1012.8313029130405 # Ar
813 813 1 0.0 439.0377887285243 962.9568397605539 3.831842346649457 # Ar
814 814 1 0.0 243.46756017284383 959.6605247096606 77.96631074558782 # Ar
815 815 1 0.0 324.43923796492624 297.09567539426433 228.28773470246026 # Ar
816 816 1 0.0 86.76089596478445 779.5146471956214 952.0429788675137 # Ar
817 817 1 0.0 525.8949251836705 461.0245528974286 328.5120389652467 # Ar
818 818 1 0.0 874.4334556771984 523.3805571552598 750.2503446822047 # Ar
819 819 1 0.0 421.43994482288537 365.53110501812216 346.0654668431495 # Ar
820 820 1 0.0 533.6985440989534 484.1330128276218 119.76075659587772 # Ar
821 821 1 0.0 738.1977316183018 850.0097622831738 600.1377708985848 # Ar
822 822 1 0.0 1020.9915069097904 610.4241906189604 650.4871882608819 # Ar
823 823 1 0.0 951.9540014478628 261.0547707219298 481.14168589596494 # Ar
824 824 1 0.0 485.7611905107304 494.8181028729807 24.39593625262804 # Ar
825 825 1 0.0 219.8529512137347 768.8692549609855 433.8867135222133 # Ar
826 826 1 0.0 162.21390295279906 157.61606908696706 117.20318278282348 # Ar
827 827 1 0.0 119.65359134235278 528.4142644938678 966.8653395614703 # Ar
828 828 1 0.0 842.4045249161444 182.2554703315526 993.0841665077378 # Ar
829 829 1 0.0 33.64834439124229 400.8448167171132 25.623254737910944 # Ar
830 830 1 0.0 980.0925837554795 925.5773403684163 658.8622216194204 # Ar
831 831 1 0.0 1013.6592977862948 188.41647624391462 136.3571477222052 # Ar
832 832 1 0.0 235.52531702968167 692.2399723183327 996.5988324318736 # Ar
833 833 1 0.0 823.0957741753563 464.17081057795457 608.7243960500682 # Ar
834 834 1 0.0 714.6445469448028 222.49592180299143 688.3338803630579 # Ar
835 835 1 0.0 562.6933397834781 65.94662233054989 7.232116556295762 # Ar
836 836 1 0.0 545.4832963008187 790.6463251050664 661.8025165592203 # Ar
837 837 1 0.0 416.43384307079845 370.9653153472658 906.6918036231277 # Ar
838 838 1 0.0 5.026227089374432 899.618721993246 139.8279144322218 # Ar
839 839 1 0.0 132.72566783090176 540.9213254859416 342.36846042311566 # Ar
840 840 1 0.0 486.00300994887857 612.4717521624358 703.8000436439185 # Ar
841 841 1 0.0 561.1316987393327 749.4734742439604 612.3205579488152 # Ar
842 842 1 0.0 298.4502029120226 87.41984231146998 377.0884346751321 # Ar
843 843 1 0.0 454.4408162908122 861.7410476104301 791.2141073917516 # Ar
844 844 1 0.0 692.3397933908454 658.8615874559383 931.3966785100992 # Ar
845 845 1 0.0 366.12656779703224 582.3228128949648 459.36245314981704 # Ar
846 846 1 0.0 616.2292654882611 130.59262627827815 126.70338360547272 # Ar
847 847 1 0.0 364.0754421126277 516.3037768183472 650.016479903378 # Ar
848 848 1 0.0 327.54989808499727 817.3988787509971 786.3339933411733 # Ar
849 849 1 0.0 724.1597732297888 589.2522622390761 288.3568495124058 # Ar
850 850 1 0.0 208.41930664375798 961.2733830707149 404.92890603119747 # Ar
851 851 1 0.0 443.54476342015505 616.8024454310671 249.35954091252387 # Ar
852 852 1 0.0 25.38441544234915 963.0350359735947 115.80824119118009 # Ar
853 853 1 0.0 56.338656321794836 1015.5692622361353 434.65985723445704 # Ar
854 854 1 0.0 527.4814186967693 139.0290332189626 5.814219739789318 # Ar
855 855 1 0.0 176.95452151352512 742.3359415152163 145.69946176484112 # Ar
856 856 1 0.0 584.6283769053938 616.3680012191822 247.8993929396322 # Ar
857 857 1 0.0 191.41821900576514 717.6344729907775 828.6608878128297 # Ar
858 858 1 0.0 767.3479078929997 309.379332478179 491.2519342514119 # Ar
859 859 1 0.0 662.5962543179037 516.1365973354316 610.2424025655735 # Ar
860 860 1 0.0 821.5957589584108 794.390096702667 395.57790243153624 # Ar
861 861 1 0.0 747.8063160630543 134.24196202459277 987.0996445525145 # Ar
862 862 1 0.0 212.87628641636732 495.66592049326744 357.9173902549247 # Ar
863 863 1 0.0 313.83566123988 885.6759876111751 477.4249439757698 # Ar
864 864 1 0.0 823.1035424839249 825.8173237175384 859.4528970479381 # Ar
865 865 1 0.0 444.47513439390656 350.55661520319154 840.3218940074984 # Ar
866 866 1 0.0 273.2777321803565 54.74442957899822 950.4234959106499 # Ar
867 867 1 0.0 151.8661709285601 5.26928173623581 565.2766369177111 # Ar
868 868 1 0.0 233.9797324667121 319.96617253261087 232.7168387395651 # Ar
869 869 1 0.0 741.895118462697 163.81509527211995 387.8940968352357 # Ar
870 870 1 0.0 234.67698087238284 91.070455355578 966.5064017946083 # Ar
871 871 1 0.0 73.20350521029276 375.02167827744796 935.0629536186157 # Ar
872 872 1 0.0 335.3147004404127 380.2562620091489 108.70103695460772 # Ar
873 873 1 0.0 76.04769676295817 916.0700034981965 831.6766146977428 # Ar
874 874 1 0.0 301.4921301924678 951.9223711950453 335.99303093964676 # Ar
875 875 1 0.0 61.296679627801815 278.954473551252 930.8354831220915 # Ar
876 876 1 0.0 988.0896118307131 203.1776061006124 305.76915930096476 # Ar
877 877 1 0.0 320.18157715879295 549.3512307729318 87.89411058101291 # Ar
878 878 1 0.0 533.8677630133228 380.5138625560553 797.4443123903394 # Ar
879 879 1 0.0 527.9578005162688 206.57164935310382 986.478115113002 # Ar
880 880 1 0.0 355.27367287971634 725.0243871525669 379.4159664829381 # Ar
881 881 1 0.0 366.682462927007 923.1546382059126 634.8180498395542 # Ar
882 882 1 0.0 435.5778994850101 202.88740951785832 375.37680508506236 # Ar
883 883 1 0.0 675.7667890184265 871.1487127215712 504.6330711794839 # Ar
884 884 1 0.0 198.98042977811997 587.5889465537224 463.7208778418388 # Ar
885 885 1 0.0 264.7508195272355 116.83214667110761 556.8397683882213 # Ar
886 886 1 0.0 314.52094896996965 92.0007988294608 84.35429116710495 # Ar
887 887 1 0.0 58.32882941567598 634.0529793183214 135.92037385825643 # Ar
888 888 1 0.0 835.85922507919 1027.8631767632837 1017.8518811926615 # Ar
889 889 1 0.0 130.56817167006918 492.09523091554365 115.37660675735415 # Ar
890 890 1 0.0 781.7406426521734 761.5588840907369 279.5583080478044 # Ar
891 891 1 0.0 123.6734678022903 156.13986600751363 213.35989114354618 # Ar
892 892 1 0.0 136.0221878568447 256.6358751446214 253.1039751733508 # Ar
893 893 1 0.0 903.9017039696561 890.7572837631581 733.6092279748625 # Ar
894 894 1 0.0 1018.8309758463274 646.1069539876037 581.4503886871028 # Ar
895 895 1 0.0 78.80499730520356 277.8037730630797 758.3300031648791 # Ar
896 896 1 0.0 175.45038049155875 948.4284697169786 653.1246857856119 # Ar
897 897 1 0.0 85.60129029561139 306.16859315458754 182.15105199327618 # Ar
898 898 1 0.0 857.9617305773236 136.31734144444658 999.0628870583057 # Ar
899 899 1 0.0 415.506651270422 914.5967505284074 91.65660860980049 # Ar
900 900 1 0.0 173.792089897428 986.97509147957 686.1855952001284 # Ar
901 901 1 0.0 46.03980327241833 510.0648823547381 650.9707270218321 # Ar
902 902 1 0.0 333.7864780206288 840.4996872530415 663.1566598146303 # Ar
903 903 1 0.0 155.99838359683312 856.5797219272862 137.7167734935743 # Ar
904 904 1 0.0 242.7660229846856 50.90042605168333 373.3392983668245 # Ar
905 905 1 0.0 319.47188997687545 353.318490817742 539.5728177796644 # Ar
906 906 1 0.0 883.2293723112766 778.7820539369744 176.36361256016863 # Ar
907 907 1 0.0 601.36819679094 782.5475447328529 417.27387266247234 # Ar
908 908 1 0.0 521.6568014046638 948.1661270626417 724.0954629625257 # Ar
909 909 1 0.0 812.9036544625781 837.5725240286368 854.7714813550867 # Ar
910 910 1 0.0 125.80243069925983 707.0317480055447 823.2474334537303 # Ar
911 911 1 0.0 650.9332992767829 157.17045198584717 188.0251670552754 # Ar
912 912 1 0.0 602.3029074108705 222.86803004393903 435.4233115064989 # Ar
913 913 1 0.0 622.7960356105901 288.70093647720364 397.38123434826446 # Ar
914 914 1 0.0 393.93561754819285 458.5886172627589 634.2648579244717 # Ar
915 915 1 0.0 661.7193881259428 221.0673530160916 899.6235782789762 # Ar
916 916 1 0.0 88.51763840499545 245.40780372493293 756.9044586585393 # Ar
917 917 1 0.0 720.9290796420966 53.692216825330235 660.0510974503978 # Ar
918 918 1 0.0 927.2107301329544 315.3678102126017 949.8692026984517 # Ar
919 919 1 0.0 340.70718427144766 581.2979524078202 702.6613592889485 # Ar
920 920 1 0.0 635.3435165477755 414.5456015266197 603.0223644440617 # Ar
921 921 1 0.0 455.7496701857318 164.4191942651954 103.60418791725252 # Ar
922 922 1 0.0 280.07153197526605 820.2031511770311 246.52098134006854 # Ar
923 923 1 0.0 366.6175150697971 845.247633895313 70.72234763184649 # Ar
924 924 1 0.0 169.34979455931892 590.5050090958607 450.4336090297974 # Ar
925 925 1 0.0 620.3088729574974 467.6785404708252 658.2533074749546 # Ar
926 926 1 0.0 143.85273681694838 541.9378692904705 50.35545762857738 # Ar
927 927 1 0.0 956.6250484495097 902.4850289475066 771.0071585118959 # Ar
928 928 1 0.0 437.41606579398365 822.0472975487281 481.4582479304955 # Ar
929 929 1 0.0 447.75900511187024 598.467245016617 620.6149133997892 # Ar
930 930 1 0.0 211.23063661865243 820.7323391245862 580.0894600282883 # Ar
931 931 1 0.0 303.81971925103886 825.3563005108927 458.99116840107206 # Ar
932 932 1 0.0 746.0863720279675 660.1968156385262 765.5123377831325 # Ar
933 933 1 0.0 382.79460097559576 161.11297497917872 803.2175457284789 # Ar
934 934 1 0.0 561.6891786324899 695.7010497548684 770.0744670271245 # Ar
935 935 1 0.0 192.01252338779133 998.8173163058159 718.3717427538948 # Ar
936 936 1 0.0 887.3356457981773 657.9905400438205 798.313261833344 # Ar
937 937 1 0.0 151.78220010889746 791.6997891799332 147.6515199189436 # Ar
938 938 1 0.0 278.9011144645543 996.0081795809381 456.6413739356017 # Ar
939 939 1 0.0 16.405254756190683 702.5947944991038 708.8782036528754 # Ar
940 940 1 0.0 670.3011262454633 723.2271322013547 615.398285925526 # Ar
941 941 1 0.0 368.5901910712296 923.9976980958638 578.4537749319843 # Ar
942 942 1 0.0 128.03576989450053 891.2581776076274 176.274564221214 # Ar
943 943 1 0.0 348.26502163592977 268.3279243516871 775.5652826370967 # Ar
944 944 1 0.0 587.1092965647376 615.5151928295609 528.0692635506988 # Ar
945 945 1 0.0 137.8273756915545 265.2570049597361 297.7394443770945 # Ar
946 946 1 0.0 863.9882369300741 843.2088934655902 555.3367003951868 # Ar
947 947 1 0.0 902.775697413232 585.6250901670446 707.0418438687219 # Ar
948 948 1 0.0 277.39610463926107 421.90592053254215 291.0211850672935 # Ar
949 949 1 0.0 691.8561464849104 826.9905094520885 137.4119475629433 # Ar
950 950 1 0.0 382.7104881640934 379.8837397519431 326.045355614983 # Ar
951 951 1 0.0 964.9499286968902 849.9471072345016 857.4135884054184 # Ar
952 952 1 0.0 95.01472035413883 300.6273964886948 651.9536149396037 # Ar
953 953 1 0.0 962.3529359191003 396.8906935297482 574.0337914342075 # Ar
954 954 1 0.0 448.97919607187873 190.47222409744242 539.8614559225863 # Ar
955 955 1 0.0 491.5151414614954 978.3745622165136 247.32236702534092 # Ar
956 956 1 0.0 724.2587986131974 574.1375443281148 195.99928686467356 # Ar
957 957 1 0.0 127.54861429377807 723.9590401819695 1003.0828481756588 # Ar
958 958 1 0.0 11.358612331631514 169.27280935912384 940.6448960218278 # Ar
959 959 1 0.0 822.6630699059309 358.3774552647773 217.57153374464522 # Ar
960 960 1 0.0 613.1367353780876 241.24930191718715 436.9350411120901 # Ar
961 961 1 0.0 37.74178775630743 644.5493587091518 442.0667186700366 # Ar
962 962 1 0.0 259.17918452369446 627.3900798880107 86.02746817404709 # Ar
963 963 1 0.0 282.32069650080564 712.2968205941519 520.1788095111716 # Ar
964 964 1 0.0 43.59866604030886 365.3134329153798 382.8023670489781 # Ar
965 965 1 0.0 281.12541956949946 139.0807686577161 101.06778477513316 # Ar
966 966 1 0.0 535.4012925531813 1027.174710929646 229.34354469409783 # Ar
967 967 1 0.0 12.888844694672818 887.7821173261387 502.42927280529227 # Ar
968 968 1 0.0 123.67879493598981 778.3005293915157 347.95131639670115 # Ar
969 969 1 0.0 180.5656355957483 899.5303870967833 709.7951526402 # Ar
970 970 1 0.0 838.1765311592688 687.8595505229893 931.502177444183 # Ar
971 971 1 0.0 472.11771828695214 762.2870396931644 948.4589674299082 # Ar
972 972 1 0.0 595.0116795007716 83.0923575909996 67.69830334627038 # Ar
973 973 1 0.0 103.42401454806117 850.1479062814708 632.90701899402 # Ar
974 974 1 0.0 440.75610942487066 855.7709485923262 542.511118347465 # Ar
975 975 1 0.0 820.6450425747424 90.55560502793973 71.88158858354207 # Ar
976 976 1 0.0 807.5514285433401 980.4419416540271 927.8572512547323 # Ar
977 977 1 0.0 643.3121454197475 123.68429938659003 233.4375994409493 # Ar
978 978 1 0.0 792.3650298546838 614.4016975101172 621.760652047413 # Ar
979 979 1 0.0 464.64038315578216 65.9635349414437 697.9370327474567 # Ar
980 980 1 0.0 192.87694652807275 767.2658783110182 851.2294725354592 # Ar
981 981 1 0.0 549.812723931338 962.3151206049362 50.980194110679655 # Ar
982 982 1 0.0 495.894460208915 665.9841013434393 572.5962846918613 # Ar
983 983 1 0.0 945.11506419576 56.285978637958856 263.96279690556355 # Ar
984 984 1 0.0 484.3664089513481 269.80953919513286 584.2634879375994 # Ar
985 985 1 0.0 924.0865009219915 289.1428495764222 408.49381720191974 # Ar
986 986 1 0.0 789.509354057789 976.7430929928784 294.1401819448057 # Ar
987 987 1 0.0 519.567886885573 206.32391277166158 758.3409248844036 # Ar
988 988 1 0.0 610.3522256836585 764.570427195449 904.2205905956914 # Ar
989 989 1 0.0 819.4459614844343 60.077217062402944 222.07313933516681 # Ar
990 990 1 0.0 227.657654452017 314.25396340297334 727.6048916159095 # Ar
991 991 1 0.0 655.0116580885457 988.1228915966365 520.1354342519961 # Ar
992 992 1 0.0 97.74789821195952 546.8465527589815 818.3248547234818 # Ar
993 993 1 0.0 103.17211763710404 601.5005753759285 686.2042966912938 # Ar
994 994 1 0.0 636.8813292289531 276.70799505299163 1025.2815989461767 # Ar
995 995 1 0.0 241.81476494143942 863.9745959531858 914.316527866034 # Ar
996 996 1 0.0 104.23941541160585 88.74957698932442 978.8439680223174 # Ar
997 997 1 0.0 501.5338517849544 373.48333105673225 804.9175141779518 # Ar
998 998 1 0.0 114.92028822176438 576.4707727964678 146.13186349524378 # Ar
999 999 1 0.0 627.6520683331886 137.1015397332699 185.53223307801562 # Ar
1000 1000 1 0.0 140.72471715184037 67.09941940832589 598.3317657753189 # Ar
1001 1001 1 0.0 682.3551267712801 773.6716965716272 1019.6560700530355 # Ar
1002 1002 1 0.0 333.5029227968129 525.2204192074757 26.49131360793605 # Ar
1003 1003 1 0.0 715.9739803184601 584.3913006079265 345.92673115589696 # Ar
1004 1004 1 0.0 429.9063715413108 812.5838285276845 956.5949526047884 # Ar
1005 1005 1 0.0 842.9749356627613 835.6377817705679 331.268799931436 # Ar
1006 1006 1 0.0 692.5567711303943 385.2480520989431 565.7449934263401 # Ar
1007 1007 1 0.0 148.33501454861775 147.3487632888209 478.187103922288 # Ar
1008 1008 1 0.0 487.18995720838785 460.8518506503026 414.3671921287642 # Ar
1009 1009 1 0.0 955.0027030067458 321.98586941420075 833.5806389584634 # Ar
1010 1010 1 0.0 496.8768207231181 365.70445948233265 148.03910573425938 # Ar
1011 1011 1 0.0 297.39579813001444 891.4824795219104 520.7005135887363 # Ar
1012 1012 1 0.0 342.37618198488946 932.2016327915642 280.0732810212558 # Ar
1013 1013 1 0.0 786.3230619473449 942.5566681295967 697.7909381333262 # Ar
1014 1014 1 0.0 855.0241894009453 396.431576335609 54.799861697917464 # Ar
1015 1015 1 0.0 3.9009791873816857 744.6061450278913 763.9272703939664 # Ar
1016 1016 1 0.0 33.320770004818385 57.20343759734831 315.6167972054836 # Ar
1017 1017 1 0.0 499.6218377121746 524.8143213402233 257.8148872165993 # Ar
1018 1018 1 0.0 189.24834853258395 476.5717861344964 396.5374449757283 # Ar
1019 1019 1 0.0 768.8550061704896 200.5680909905766 55.5901360184458 # Ar
1020 1020 1 0.0 764.2122919067923 222.6609038446165 579.8383508230091 # Ar
1021 1021 1 0.0 902.1929103764141 846.7402990183496 977.7912627057276 # Ar
1022 1022 1 0.0 471.59982502862465 358.9376988483874 364.16448808893136 # Ar
1023 1023 1 0.0 243.1005968579764 470.1518817386077 495.7897981608394 # Ar
1024 1024 1 0.0 557.2022569882862 262.32797026225205 282.00908490644525 # Ar
1025 1025 1 0.0 135.53707768974058 462.4488627031872 9.66148543472803 # Ar
1026 1026 1 0.0 253.67240020075116 628.5729816461624 519.9612861178102 # Ar
1027 1027 1 0.0 770.8066330192673 922.6647477302974 181.39032842412692 # Ar
1028 1028 1 0.0 911.5808795419647 694.299718527643 35.471284858259835 # Ar
1029 1029 1 0.0 785.8100686037943 717.4486788394041 820.3840348228345 # Ar
1030 1030 1 0.0 627.1555938011992 696.1102803922952 807.9052123481065 # Ar
1031 1031 1 0.0 746.8594292338229 948.7248048028164 13.437382477295118 # Ar
1032 1032 1 0.0 80.82692664096999 164.28251343323515 909.4478188439059 # Ar
1033 1033 1 0.0 501.4682058914457 884.4247089567166 354.7093775594404 # Ar
1034 1034 1 0.0 307.2215075899139 169.82408287064357 94.82888035043239 # Ar
1035 1035 1 0.0 951.4951413266007 531.2166792291047 1027.3888656470124 # Ar
1036 1036 1 0.0 23.121210644718467 996.0723570839267 621.180857772587 # Ar
1037 1037 1 0.0 908.1726354180967 966.5221355737675 902.6924617271111 # Ar
1038 1038 1 0.0 832.6029549347239 546.6702967724428 87.4925834347802 # Ar
1039 1039 1 0.0 692.4862450673982 137.4819216079551 696.120318506706 # Ar
1040 1040 1 0.0 86.18809331703943 348.63312931323065 560.5866563073029 # Ar
1041 1041 1 0.0 639.1568807522642 660.1426927658218 230.82622207023033 # Ar
1042 1042 1 0.0 156.30833259874998 749.669332102207 702.6935104169936 # Ar
1043 1043 1 0.0 162.6706167610652 449.07705678079185 986.2576479410399 # Ar
1044 1044 1 0.0 598.3615143720535 479.182408180365 968.462269501237 # Ar
1045 1045 1 0.0 828.1848465955574 265.66975473055174 1020.2400408028312 # Ar
1046 1046 1 0.0 529.7830985605395 406.68927244522666 672.6826537228108 # Ar
1047 1047 1 0.0 925.7585555933543 290.5511648030822 711.918340010802 # Ar
1048 1048 1 0.0 242.56030741924886 986.0611445273845 298.2929947294495 # Ar
1049 1049 1 0.0 805.9069288008737 307.5746906666675 9.813070539684933 # Ar
1050 1050 1 0.0 339.5714310882522 486.06373239623827 13.161231465140261 # Ar
1051 1051 1 0.0 737.8912617394928 261.00427217254287 383.0507516138136 # Ar
1052 1052 1 0.0 166.40413186256023 210.5368733330145 996.0751950403096 # Ar
1053 1053 1 0.0 111.06080529939145 704.1341285869568 24.047815706614845 # Ar
1054 1054 1 0.0 929.0686316006537 275.8699329760083 479.3954810535162 # Ar
1055 1055 1 0.0 119.8877413146062 1006.2851473414999 30.353015158723487 # Ar
1056 1056 1 0.0 745.2368415772 970.2459524545982 164.70201536637654 # Ar
1057 1057 1 0.0 500.38706412135656 127.32025923466362 829.8329883544105 # Ar
1058 1058 1 0.0 740.2903719705988 474.54346128689264 124.84289412296593 # Ar
1059 1059 1 0.0 1016.6401351065398 922.550364180091 485.3390205790632 # Ar
1060 1060 1 0.0 950.6654804152644 775.1666056634903 283.3119889974846 # Ar
1061 1061 1 0.0 980.3163715117802 416.60549582875365 304.4789838357837 # Ar
1062 1062 1 0.0 836.8747690543227 5.867848903671365 191.8856767603025 # Ar
1063 1063 1 0.0 352.92342175225576 104.98228957279656 123.70720625295324 # Ar
1064 1064 1 0.0 649.6673975207773 938.8880724112472 376.8957750232208 # Ar
1065 1065 1 0.0 864.6073401861215 248.39714270512664 708.7010540002788 # Ar
1066 1066 1 0.0 626.7651792534976 518.1624330334389 858.6945251753166 # Ar
1067 1067 1 0.0 565.6774051876858 271.94930969931863 816.981117563178 # Ar
1068 1068 1 0.0 598.4972956069565 253.08653185571953 465.9995251088992 # Ar
1069 1069 1 0.0 380.40784335856193 442.23894809215005 765.219967081776 # Ar
1070 1070 1 0.0 507.37857557887844 418.1957624817713 914.0750400063649 # Ar
1071 1071 1 0.0 224.82166692746796 72.28885127017888 320.6301348741316 # Ar
1072 1072 1 0.0 529.143970117915 502.2691678958953 126.94832562291981 # Ar
1073 1073 1 0.0 519.0657165040806 741.0229954413682 571.1505837998955 # Ar
1074 1074 1 0.0 430.85942642967893 937.1126963044674 758.2706591520744 # Ar
1075 1075 1 0.0 864.1689051293546 356.938834636676 292.17805606727825 # Ar
1076 1076 1 0.0 965.0973260377677 832.9946367788945 132.56817967515858 # Ar
1077 1077 1 0.0 102.93814033117468 638.6358723831141 555.1110958787903 # Ar
1078 1078 1 0.0 958.7944491179409 662.5076163526417 445.978265403908 # Ar
1079 1079 1 0.0 104.73410089237817 786.324444451767 500.0838094853377 # Ar
1080 1080 1 0.0 722.8905826828433 70.43473348384344 926.7997817125392 # Ar
1081 1081 1 0.0 387.7583310187157 1019.0647710234006 688.4835196812809 # Ar
1082 1082 1 0.0 274.6957726769569 706.3756379706 996.606511969744 # Ar
1083 1083 1 0.0 634.0278003066697 89.55244778320059 995.6982325137329 # Ar
1084 1084 1 0.0 698.7268894490262 851.2099928728629 77.83282395652498 # Ar
1085 1085 1 0.0 392.2548417535937 301.48273206545974 632.9328661877624 # Ar
1086 1086 1 0.0 826.4466302678718 466.2427793908539 1.0157566010382555 # Ar
1087 1087 1 0.0 61.62315914116451 459.6843958570769 479.0265275327516 # Ar
1088 1088 1 0.0 712.4453074786303 957.1120501654893 635.2618329218294 # Ar
1089 1089 1 0.0 78.68663832984025 517.7066500910458 610.9224222748903 # Ar
1090 1090 1 0.0 837.9178385280459 447.36136990202044 747.7444172033751 # Ar
1091 1091 1 0.0 79.59982573788638 896.9395557311285 1005.4510548652501 # Ar
1092 1092 1 0.0 408.16237365245206 92.70152696417091 185.59422163589238 # Ar
1093 1093 1 0.0 844.2526142570733 110.96530628385594 347.4399482307823 # Ar
1094 1094 1 0.0 566.3004702185158 557.7971684240448 43.66492914896657 # Ar
1095 1095 1 0.0 232.93551778535985 305.19964382140785 193.18806521631893 # Ar
1096 1096 1 0.0 179.629414017298 515.7709398561036 269.7734557999465 # Ar
1097 1097 1 0.0 770.6806101989607 1017.3461702125002 7.132673465224159 # Ar
1098 1098 1 0.0 992.1727650589496 990.0602542502367 793.6237103957252 # Ar
1099 1099 1 0.0 74.08467416298576 806.6147057516305 733.5417779292029 # Ar
1100 1100 1 0.0 903.402879948271 27.009082654860958 641.5902302047275 # Ar
1101 1101 1 0.0 225.4676521212833 806.6986031777815 720.4739521751466 # Ar
1102 1102 1 0.0 699.6438386710798 897.6458880619855 501.39206474867086 # Ar
1103 1103 1 0.0 45.09642779848739 53.34188800240023 11.023929556506875 # Ar
1104 1104 1 0.0 169.40689281844152 24.880625215411005 497.0488368436414 # Ar
1105 1105 1 0.0 536.5907389372901 910.4336051634807 558.31620129408 # Ar
1106 1106 1 0.0 70.91692100112175 512.8048929078324 846.9145775492633 # Ar
1107 1107 1 0.0 606.4238052098127 186.02137665962147 97.38356361900873 # Ar
1108 1108 1 0.0 894.6942460842935 394.61950075046695 947.5314622946275 # Ar
1109 1109 1 0.0 260.25520449247944 972.682843128267 1022.2896625994583 # Ar
1110 1110 1 0.0 928.7306814749105 679.1764418143372 235.61295608774685 # Ar
1111 1111 1 0.0 181.22439107714087 861.9074301088954 867.7016560945357 # Ar
1112 1112 1 0.0 814.4721750141642 584.7554384594583 580.1408990910797 # Ar
1113 1113 1 0.0 280.024847844063 31.277377366344854 96.10894125776572 # Ar
1114 1114 1 0.0 333.1625254793848 658.6686340930729 30.992061925405583 # Ar
1115 1115 1 0.0 875.9593206743139 185.3859124451519 1016.2212899048628 # Ar
1116 1116 1 0.0 724.8491636373783 46.7554151377345 709.6803544371116 # Ar
1117 1117 1 0.0 79.78445710558452 435.83263741070675 240.56183296652716 # Ar
1118 1118 1 0.0 104.6957763869039 774.2639063278622 751.4899764218429 # Ar
1119 1119 1 0.0 96.58070327291932 250.67657886422205 442.9095235879374 # Ar
1120 1120 1 0.0 783.9691450921129 595.8846001176676 707.0636140171804 # Ar
1121 1121 1 0.0 331.1198865561583 180.69247450229813 1004.1852340347579 # Ar
1122 1122 1 0.0 895.5082263973941 813.2954640960004 386.38566409382094 # Ar
1123 1123 1 0.0 774.5571998962789 650.1260440288916 890.8215725474425 # Ar
1124 1124 1 0.0 221.99718856101322 276.1962947106379 124.8167013539811 # Ar
1125 1125 1 0.0 772.8378488019441 206.23744678977644 551.2200366473857 # Ar
1126 1126 1 0.0 556.0105682314626 521.9520518475581 155.9021004617055 # Ar
1127 1127 1 0.0 224.72480181990807 591.5670975692768 251.44361780020768 # Ar
1128 1128 1 0.0 972.4390103157449 177.7143093105918 96.19812921225031 # Ar
1129 1129 1 0.0 94.53693620874861 405.787169364162 334.0870121472381 # Ar
1130 1130 1 0.0 227.38472318760267 226.5516924889803 114.98717431190705 # Ar
1131 1131 1 0.0 892.9887300525706 900.6507983682012 17.52464432845002 # Ar
1132 1132 1 0.0 335.6623335517964 842.0258764771241 32.46401892042478 # Ar
1133 1133 1 0.0 556.7623940415376 457.4431337602261 230.462662644938 # Ar
1134 1134 1 0.0 108.81544759849056 161.82010737675498 709.5808740026853 # Ar
1135 1135 1 0.0 370.7304742028006 436.3415456284465 706.2898484775052 # Ar
1136 1136 1 0.0 92.4024477743958 714.3234310836325 484.3316235111423 # Ar
1137 1137 1 0.0 521.6996251947833 160.4968321128346 575.0531599151084 # Ar
1138 1138 1 0.0 445.8623240385671 405.6350184176138 959.7539757468005 # Ar
1139 1139 1 0.0 1018.9665595944638 199.16590695759152 774.5956191471644 # Ar
1140 1140 1 0.0 563.1542699109161 331.7566993878119 478.6935460724352 # Ar
1141 1141 1 0.0 853.8953894081753 388.547754346161 1008.205135914451 # Ar
1142 1142 1 0.0 674.1792642455504 778.5742223440232 187.95820198127805 # Ar
1143 1143 1 0.0 348.7375204661092 579.8041299633579 528.5958385259879 # Ar
1144 1144 1 0.0 841.9808017697403 854.0112283274575 254.0003406827781 # Ar
1145 1145 1 0.0 1000.15015301769 100.6576835374363 28.32574615814014 # Ar
1146 1146 1 0.0 719.787223222061 29.226609146178966 835.6770009564796 # Ar
1147 1147 1 0.0 929.4152120601119 476.5032631442558 64.44034188333707 # Ar
1148 1148 1 0.0 46.11968623291131 862.8858807155095 410.3190430935592 # Ar
1149 1149 1 0.0 724.921975225325 397.72436771849834 466.2286295628735 # Ar
1150 1150 1 0.0 755.6468432187818 926.0598631564194 401.9921625594975 # Ar
1151 1151 1 0.0 498.1107428176631 591.7230617603262 882.5818777287835 # Ar
1152 1152 1 0.0 277.4102103529996 629.7609060579305 620.815522384051 # Ar
1153 1153 1 0.0 631.1423075180425 703.9274811364236 465.3922852232094 # Ar
1154 1154 1 0.0 1015.8998055368417 659.5868454091922 789.5591049171055 # Ar
1155 1155 1 0.0 527.0017432899713 134.22210183946058 758.0139762403327 # Ar
1156 1156 1 0.0 286.69243934341443 581.0457833263538 409.61525669816723 # Ar
1157 1157 1 0.0 25.278559943628224 56.14434048990375 908.9341476276713 # Ar
1158 1158 1 0.0 948.1652495482049 839.8446013180899 756.3025943551877 # Ar
1159 1159 1 0.0 490.7915827089486 503.7820524699438 181.4328687469256 # Ar
1160 1160 1 0.0 928.0887515619672 378.22611335128613 779.501007707664 # Ar
1161 1161 1 0.0 386.9243890013357 438.6713765498387 566.0255312438197 # Ar
1162 1162 1 0.0 28.744791813253094 863.9060927601311 121.1606495832897 # Ar
1163 1163 1 0.0 878.3642860464557 116.58699931633632 601.7495347502465 # Ar
1164 1164 1 0.0 366.6196662108329 902.6094384883129 390.28594310575596 # Ar
1165 1165 1 0.0 191.60959865938176 628.0246652630182 564.2285823589607 # Ar
1166 1166 1 0.0 332.308161181251 7.4876021306483045 958.5853507194606 # Ar
1167 1167 1 0.0 542.2751578689855 903.4559814105755 910.2019807937293 # Ar
1168 1168 1 0.0 766.4057212141764 441.11164885762173 222.3559099366295 # Ar
1169 1169 1 0.0 464.75058706611384 50.28369294066041 287.1005239827437 # Ar
1170 1170 1 0.0 970.9761852787525 22.77593554102953 833.5494987886643 # Ar
1171 1171 1 0.0 643.7480816744139 845.7813866989183 724.543271244073 # Ar
1172 1172 1 0.0 587.9727313851315 967.130732034654 69.398780882401 # Ar
1173 1173 1 0.0 542.7884588163906 94.65247525684953 95.52392578486872 # Ar
1174 1174 1 0.0 11.525196560290386 599.4699084788246 749.0820194637639 # Ar
1175 1175 1 0.0 874.4098282547064 964.8607998989187 799.4577709758264 # Ar
1176 1176 1 0.0 515.0561013683179 841.9118894783954 164.03265151128454 # Ar
1177 1177 1 0.0 660.1252665921046 277.4715479553996 223.60347298144674 # Ar
1178 1178 1 0.0 319.3548501672736 783.7791151027308 171.38081687511408 # Ar
1179 1179 1 0.0 130.70251181705714 347.2485719665255 729.0009895296787 # Ar
1180 1180 1 0.0 50.277618589920834 521.9743835879408 89.4276354750236 # Ar
1181 1181 1 0.0 986.3031312214514 692.1764553797916 915.49348791032 # Ar
1182 1182 1 0.0 757.8943142170808 354.61234027047556 872.0729477817441 # Ar
1183 1183 1 0.0 77.31438108430198 372.72840514106105 818.8111270732137 # Ar
1184 1184 1 0.0 72.66351945099743 985.3397424883419 4.129254545796873 # Ar
1185 1185 1 0.0 245.94224738669328 748.6415030465181 190.29716406541718 # Ar
1186 1186 1 0.0 994.0184104807081 381.3512350384729 82.39505889467326 # Ar
1187 1187 1 0.0 945.10326225916 471.0831364621521 426.30304580230916 # Ar
1188 1188 1 0.0 812.486045903714 354.56143903951937 411.30622193024107 # Ar
1189 1189 1 0.0 632.763551426761 742.2099443787421 396.12008553782886 # Ar
1190 1190 1 0.0 20.693861612918134 932.7869027717621 379.199866705843 # Ar
1191 1191 1 0.0 442.69026257700676 252.8273365134704 833.258765685232 # Ar
1192 1192 1 0.0 401.8223894160043 796.1110424924424 255.28009513121842 # Ar
1193 1193 1 0.0 646.5266246458847 740.2567159848599 640.3740935562647 # Ar
1194 1194 1 0.0 745.654507777843 650.7419487532454 765.9347848629477 # Ar
1195 1195 1 0.0 547.783873448315 87.17074600899618 635.6517132375764 # Ar
1196 1196 1 0.0 669.3919516264872 780.0579042184139 647.6886808971113 # Ar
1197 1197 1 0.0 799.1601472318354 733.2075429317422 136.20769733785556 # Ar
1198 1198 1 0.0 570.5948166017253 827.0754965639617 223.11827998860878 # Ar
1199 1199 1 0.0 911.7013377712639 264.45942812776013 899.6686555954424 # Ar
1200 1200 1 0.0 502.6798793421321 72.80757533547337 471.78236909423583 # Ar
1201 1201 1 0.0 610.7168778496222 710.9809152235398 277.35079610513463 # Ar
1202 1202 1 0.0 282.17925813226725 525.09525164973 128.24803303532843 # Ar
1203 1203 1 0.0 431.6511184628101 113.3766434705626 169.15656928109885 # Ar
1204 1204 1 0.0 556.2518848481627 18.921946088345464 356.80942613976777 # Ar
1205 1205 1 0.0 605.4419283164643 881.637433505211 425.81299744294313 # Ar
1206 1206 1 0.0 717.7051266907972 352.58949731668065 213.03571255067698 # Ar
1207 1207 1 0.0 883.9940615758481 1027.0748766587928 684.2116020841597 # Ar
1208 1208 1 0.0 54.35796188523682 699.2823252898113 278.8159201078337 # Ar
1209 1209 1 0.0 860.5622244908785 326.01224483672064 48.202210241738044 # Ar
1210 1210 1 0.0 340.6930833941531 502.46686898292035 655.678204860729 # Ar
1211 1211 1 0.0 846.5204814525819 595.3238581993991 475.46442388769873 # Ar
1212 1212 1 0.0 179.8365488507207 635.7740278673889 707.7921646085045 # Ar
1213 1213 1 0.0 431.5835061720313 286.3903574586014 760.098589770249 # Ar
1214 1214 1 0.0 259.9142735745768 359.1777113525149 259.5981032936297 # Ar
1215 1215 1 0.0 913.4368350381378 295.092914914514 304.6184141847512 # Ar
1216 1216 1 0.0 189.49462967666764 963.7121417131459 383.5701330241047 # Ar
1217 1217 1 0.0 965.0107381589229 481.3397069002151 23.325955703580007 # Ar
1218 1218 1 0.0 427.4992245392275 736.270044311227 259.61662795862173 # Ar
1219 1219 1 0.0 192.64364172263245 127.37539632956934 703.0815739219213 # Ar
1220 1220 1 0.0 944.2412561065395 671.8240256192674 141.54110466359356 # Ar
1221 1221 1 0.0 16.137660084895458 710.0576349786845 719.6297587828152 # Ar
1222 1222 1 0.0 150.06752463514286 251.2542021355457 982.0571716003387 # Ar
1223 1223 1 0.0 691.0474265414504 1024.1873414323898 149.31842145215313 # Ar
1224 1224 1 0.0 518.1329124969116 610.9879861988966 607.2911273209096 # Ar
1225 1225 1 0.0 87.03008078272167 186.15103439014044 946.2846499692034 # Ar
1226 1226 1 0.0 935.0691904237176 1004.9929772887642 60.25448512375913 # Ar
1227 1227 1 0.0 82.62403676539806 571.0114003798554 21.478773170741878 # Ar
1228 1228 1 0.0 622.482396476569 144.09992799727058 358.9496688641 # Ar
1229 1229 1 0.0 644.8419432531277 232.3761012071106 736.1061731780591 # Ar
1230 1230 1 0.0 838.0054553193155 156.2976467116587 441.98373806103433 # Ar
1231 1231 1 0.0 117.23514509780009 43.526241813646145 449.7747451536305 # Ar
1232 1232 1 0.0 674.9611218273861 948.1080599853622 306.65317387002807 # Ar
1233 1233 1 0.0 147.10494212318116 938.3789870273898 1027.891543747696 # Ar
1234 1234 1 0.0 908.6904768008766 763.547496612982 957.964189154271 # Ar
1235 1235 1 0.0 1028.2719716411605 294.34912904027584 421.43059144377264 # Ar
1236 1236 1 0.0 247.43621353232433 566.8430909439076 254.91660714636396 # Ar
1237 1237 1 0.0 631.2727565267504 659.628415300563 555.7521931175575 # Ar
1238 1238 1 0.0 894.5204743389461 296.1716156940337 361.9219980567647 # Ar
1239 1239 1 0.0 994.2032005743334 833.948125453539 943.6748171215418 # Ar
1240 1240 1 0.0 666.2198235144305 621.104018611628 90.13724597794354 # Ar
1241 1241 1 0.0 267.0614416742774 332.71514772657986 380.8358161886523 # Ar
1242 1242 1 0.0 752.083895839216 366.33719426617245 616.2216350189886 # Ar
1243 1243 1 0.0 351.13088182883774 347.6436100936678 38.7816663425827 # Ar
1244 1244 1 0.0 716.9858472666594 342.4003829206072 612.4073558420623 # Ar
1245 1245 1 0.0 218.76153384486588 890.6759410243935 299.8640659479304 # Ar
1246 1246 1 0.0 82.9323049574498 700.7759575078135 687.4890825463932 # Ar
1247 1247 1 0.0 418.1551866218478 426.94567462268685 784.5765305530156 # Ar
1248 1248 1 0.0 284.3794897970437 52.03769302004238 566.329710113835 # Ar
1249 1249 1 0.0 602.4447764027797 496.62123924559296 133.8603699177858 # Ar
1250 1250 1 0.0 225.4191481879342 553.8383772564465 346.29769253158577 # Ar
1251 1251 1 0.0 719.5173089718627 734.3676728301919 664.172575251314 # Ar
1252 1252 1 0.0 109.58871232380588 714.3288325696029 139.0407887776648 # Ar
1253 1253 1 0.0 240.1810010630308 199.0691827858866 566.7876787128635 # Ar
1254 1254 1 0.0 414.2064857304083 314.49227672679325 508.57242576747717 # Ar
1255 1255 1 0.0 128.42017315742854 286.50401171640476 534.711925946725 # Ar
1256 1256 1 0.0 478.4334288121381 581.3426338329267 132.46117450473386 # Ar
1257 1257 1 0.0 752.0064025809351 304.6295369483667 439.7483629419097 # Ar
1258 1258 1 0.0 547.7868180457644 806.1796211424893 669.0504685709263 # Ar
1259 1259 1 0.0 79.47490642412438 540.6054350329866 636.4710700290882 # Ar
1260 1260 1 0.0 90.18292132531319 913.5057256703651 507.12119181920303 # Ar
1261 1261 1 0.0 708.4364993190973 874.6529861899162 167.0820198694059 # Ar
1262 1262 1 0.0 65.94001286795718 376.1580267585802 323.6687412074885 # Ar
1263 1263 1 0.0 339.15296506618495 998.6209788041081 930.094735329461 # Ar
1264 1264 1 0.0 619.7028115332639 960.4313748754964 67.58480052258125 # Ar
1265 1265 1 0.0 509.36085168676675 644.8448637412876 746.3288694707862 # Ar
1266 1266 1 0.0 107.34108255573719 297.8752464802078 519.5741172328636 # Ar
1267 1267 1 0.0 355.7404069791406 244.67152756001244 570.8574561616858 # Ar
1268 1268 1 0.0 627.108787500374 975.0463897649965 357.7774792288518 # Ar
1269 1269 1 0.0 503.42305938475164 901.3188067784394 131.6645582316298 # Ar
1270 1270 1 0.0 795.9023227311349 688.2535649422833 259.11272134164983 # Ar
1271 1271 1 0.0 603.0748621806229 826.4624532292437 974.7001925813039 # Ar
1272 1272 1 0.0 363.3975685125908 263.60209032897336 184.35026886444396 # Ar
1273 1273 1 0.0 81.83553929554938 152.03724359560664 39.32015963279499 # Ar
1274 1274 1 0.0 936.1483255439296 16.481550816952197 206.1437614544548 # Ar
1275 1275 1 0.0 518.8131334462926 604.0249212215906 879.9775200464853 # Ar
1276 1276 1 0.0 625.5054549804419 249.5664242303322 576.3745658234926 # Ar
1277 1277 1 0.0 647.9301831845207 402.6084234874285 727.2122759182922 # Ar
1278 1278 1 0.0 61.178551943533485 952.1401440532723 638.7272472559553 # Ar
1279 1279 1 0.0 952.218910444583 661.5296508765244 889.3297500757168 # Ar
1280 1280 1 0.0 852.4745997431462 753.0009833031471 568.0951880022086 # Ar
1281 1281 1 0.0 437.52822485506994 44.80966996487566 756.3037221486275 # Ar
1282 1282 1 0.0 630.0897551649005 428.489433854584 1003.1338975219034 # Ar
1283 1283 1 0.0 1022.4938510737626 169.13725402051224 416.79817544449384 # Ar
1284 1284 1 0.0 744.2276923843841 881.3805040545682 306.8227622108715 # Ar
1285 1285 1 0.0 557.8983342035592 104.8477779495811 342.95612068785414 # Ar
1286 1286 1 0.0 75.81207886573766 271.07545892802233 146.05652214670957 # Ar
1287 1287 1 0.0 370.01495402602256 432.88548258453767 431.67783834350166 # Ar
1288 1288 1 0.0 937.7512727425723 491.5321404698432 673.8306342573953 # Ar
1289 1289 1 0.0 199.2272807128011 208.81953816534906 756.6090563011962 # Ar
1290 1290 1 0.0 611.1282170667322 109.92718113294306 863.1596134109067 # Ar
1291 1291 1 0.0 422.8660274445305 975.1096285830283 693.9556615750529 # Ar
1292 1292 1 0.0 963.3285400452448 645.1872943304213 408.98281055336787 # Ar
1293 1293 1 0.0 244.3871422412179 99.98026471409926 668.8651293400895 # Ar
1294 1294 1 0.0 615.7005419584672 683.5334306948617 243.78390917634385 # Ar
1295 1295 1 0.0 647.4560037799662 589.7013948931926 314.956324385083 # Ar
1296 1296 1 0.0 783.9941751763529 178.91429162082042 578.9356090071524 # Ar
1297 1297 1 0.0 44.30055837015576 582.5519561035678 507.07996186199 # Ar
1298 1298 1 0.0 235.2946881725352 541.0111872647749 997.6120849329767 # Ar
1299 1299 1 0.0 890.0895351674418 883.0089848833675 304.69328132982656 # Ar
1300 1300 1 0.0 860.615495374632 966.2099512982559 44.693740863822256 # Ar
1301 1301 1 0.0 786.226841178523 220.05350505125054 88.11375218956672 # Ar
1302 1302 1 0.0 967.5769258677773 930.8636013840925 762.5395909864365 # Ar
1303 1303 1 0.0 646.5644572295104 96.96110728111637 437.7425272010922 # Ar
1304 1304 1 0.0 323.8829261323418 650.534047439689 217.41042142366183 # Ar
1305 1305 1 0.0 486.2918390503086 5.871334347224678 919.3148224011596 # Ar
1306 1306 1 0.0 199.28135904341073 617.8967173103661 91.82525082102475 # Ar
1307 1307 1 0.0 644.4499308425926 975.5606284924113 901.4360843613051 # Ar
1308 1308 1 0.0 496.90225095155216 726.6214760124384 977.4973835379537 # Ar
1309 1309 1 0.0 620.8308067698213 360.7502779097219 695.5072082595553 # Ar
1310 1310 1 0.0 285.8052163839212 697.2566719256246 857.7963323736975 # Ar
1311 1311 1 0.0 628.146425797317 478.1080567835391 168.61596940165904 # Ar
1312 1312 1 0.0 576.6573886568838 415.2212501040597 798.4829168013081 # Ar
1313 1313 1 0.0 693.4069084849901 582.0541108825876 900.2661754301921 # Ar
1314 1314 1 0.0 381.3620897916545 272.6213507268194 609.6667597915714 # Ar
1315 1315 1 0.0 219.56845221955393 266.9946311239011 989.7217250944353 # Ar
1316 1316 1 0.0 924.5103884485064 995.930620889509 170.64762635339287 # Ar
1317 1317 1 0.0 628.3112863451364 505.2586582088157 185.14890831774164 # Ar
1318 1318 1 0.0 518.8873867536747 730.7993268502275 236.94092747365707 # Ar
1319 1319 1 0.0 1013.1598508855842 579.230336251594 365.45485047133906 # Ar
1320 1320 1 0.0 212.15913390725876 21.640826009948114 218.75064389144413 # Ar
1321 1321 1 0.0 75.23850783301123 85.04676079648783 197.73593943621867 # Ar
1322 1322 1 0.0 727.9472433669763 375.4660285034316 967.8246511735248 # Ar
1323 1323 1 0.0 29.97191331794564 485.94515425870947 278.6010290097397 # Ar
1324 1324 1 0.0 242.08071153522545 205.92723802483138 150.67381382883735 # Ar
1325 1325 1 0.0 314.9282284579465 959.0252510673064 58.257924582887824 # Ar
1326 1326 1 0.0 334.46532702740683 580.3715301804208 746.950921043108 # Ar
1327 1327 1 0.0 256.8058082408027 423.4211741578487 540.0995524371992 # Ar
1328 1328 1 0.0 411.14804381055944 569.7101350417356 925.6783187380313 # Ar
1329 1329 1 0.0 195.9084058192552 98.572540356027 316.34996177806175 # Ar
1330 1330 1 0.0 515.744142649017 468.384015012099 235.06772091132927 # Ar
1331 1331 1 0.0 74.78036238183745 430.64217826419275 672.1425204958235 # Ar
1332 1332 1 0.0 55.79831982216412 574.0270481517913 491.08141249584867 # Ar
1333 1333 1 0.0 293.8893624862419 364.8932772661948 462.29202373046223 # Ar
1334 1334 1 0.0 978.4029489780795 674.2068933181089 976.797181930874 # Ar
1335 1335 1 0.0 408.38942913578165 564.9816925805975 150.0425761162146 # Ar
1336 1336 1 0.0 257.47030918238903 301.194767620083 213.92616216117 # Ar
1337 1337 1 0.0 932.4479003409591 569.5738963645191 160.1408554568774 # Ar
1338 1338 1 0.0 952.4779873757335 910.745932090166 423.8009559917672 # Ar
1339 1339 1 0.0 515.75620928846 462.11534823765874 690.1460205459979 # Ar
1340 1340 1 0.0 891.5619071347265 189.90642736054568 866.5757971714062 # Ar
1341 1341 1 0.0 141.1037247058688 959.7574138351906 878.7222280608513 # Ar
1342 1342 1 0.0 455.6443002318945 291.8345156195862 539.7498776860093 # Ar
1343 1343 1 0.0 257.6235190976743 243.85908263045118 876.3549464431219 # Ar
1344 1344 1 0.0 257.61846606144945 291.6857352716935 213.82128307247297 # Ar
1345 1345 1 0.0 209.18184668087758 146.32958228287185 302.8655585649783 # Ar
1346 1346 1 0.0 512.6418622077458 1013.9404085760073 789.8806688830205 # Ar
1347 1347 1 0.0 671.8172247003773 157.6680229263273 95.95971842624472 # Ar
1348 1348 1 0.0 231.86593035684075 989.3295180276801 1028.737515601502 # Ar
1349 1349 1 0.0 607.2024656914584 269.0155959032287 176.96899482416546 # Ar
1350 1350 1 0.0 204.4828813012632 737.081923262024 173.2207815313228 # Ar
1351 1351 1 0.0 581.6790959787684 93.84067648174269 249.72663329952138 # Ar
1352 1352 1 0.0 870.7720125265943 594.3510561664951 613.5920841294173 # Ar
1353 1353 1 0.0 380.38468368983706 862.3810315618268 299.5715285977758 # Ar
1354 1354 1 0.0 434.98775785895134 834.9119021820894 272.6553781807325 # Ar
1355 1355 1 0.0 881.5202722688631 856.8858999175927 283.16730288621306 # Ar
1356 1356 1 0.0 536.6111521489887 645.9247912660015 530.114958085015 # Ar
1357 1357 1 0.0 748.7033286957148 691.441317652478 257.6035210755297 # Ar
1358 1358 1 0.0 363.3695578761413 914.2341990378167 287.34082081050366 # Ar
1359 1359 1 0.0 281.5131078892044 429.5077097878833 163.64677789423976 # Ar
1360 1360 1 0.0 659.457958460287 510.84542479929144 345.6673189226333 # Ar
1361 1361 1 0.0 669.8543094906726 749.309643507179 131.23079978195275 # Ar
1362 1362 1 0.0 898.6983586186763 279.2240623393825 857.1938250414806 # Ar
1363 1363 1 0.0 809.5557641723648 268.4751827298925 995.2893435130226 # Ar
1364 1364 1 0.0 294.68092004987153 92.05092101531885 542.8203913404695 # Ar
1365 1365 1 0.0 988.2449831765507 838.0953093642745 607.638213116894 # Ar
1366 1366 1 0.0 822.5115091103685 656.3988741564958 185.920852434973 # Ar
1367 1367 1 0.0 887.1243136692366 208.39433180054993 478.3360598360843 # Ar
1368 1368 1 0.0 937.3636000709259 277.24664240913677 864.948596984086 # Ar
1369 1369 1 0.0 239.28355131017815 990.5939883099174 698.7116789678586 # Ar
1370 1370 1 0.0 588.2394176563706 846.1920090455833 488.24105360921914 # Ar
1371 1371 1 0.0 205.77204618256056 319.0074461941575 51.081521414339285 # Ar
1372 1372 1 0.0 431.6056209694497 1017.2712830193451 235.6261010422163 # Ar
1373 1373 1 0.0 867.8965715414679 407.34906686909466 235.31390071827713 # Ar
1374 1374 1 0.0 523.4652287089298 629.515103285577 144.65422688222608 # Ar
1375 1375 1 0.0 66.00953125898185 975.5961078345854 656.8256939393317 # Ar
1376 1376 1 0.0 858.529489291815 911.8939578734205 991.583485100768 # Ar
1377 1377 1 0.0 443.2545187552548 216.79743995454754 886.9674048447408 # Ar
1378 1378 1 0.0 1022.9656855576739 92.89865179493057 746.6064393607305 # Ar
1379 1379 1 0.0 549.5319496906801 120.51315870869352 763.9209638428756 # Ar
1380 1380 1 0.0 657.496936696478 887.1105478996432 792.0590606352458 # Ar
1381 1381 1 0.0 655.0820466995804 479.07000448185494 275.3796343225293 # Ar
1382 1382 1 0.0 518.6331819507334 145.98280206573713 931.2031783626637 # Ar
1383 1383 1 0.0 607.8544632284782 481.6974070855616 915.7242366841491 # Ar
1384 1384 1 0.0 70.18154509977515 356.986947164068 424.92033586811516 # Ar
1385 1385 1 0.0 695.3379745852661 692.3072199580115 415.99441301543163 # Ar
1386 1386 1 0.0 524.3070334002917 507.8030378730735 839.6562875447098 # Ar
1387 1387 1 0.0 923.152362809786 750.2976968061425 336.7265207145745 # Ar
1388 1388 1 0.0 821.102830023604 915.9469323116705 430.7459314637291 # Ar
1389 1389 1 0.0 336.5600682382557 919.2361259344724 294.64500106148273 # Ar
1390 1390 1 0.0 914.9299397190715 598.5400404893093 400.946778115595 # Ar
1391 1391 1 0.0 298.42497052364496 344.0857680202675 630.6886416750901 # Ar
1392 1392 1 0.0 270.9288123260851 522.1307068221713 674.5197058626259 # Ar
1393 1393 1 0.0 837.9390118776166 510.31370934521516 16.215478210391613 # Ar
1394 1394 1 0.0 457.8818517810162 320.47185299780665 439.47102767205934 # Ar
1395 1395 1 0.0 342.84158235719065 715.2240305938886 45.71079543061878 # Ar
1396 1396 1 0.0 795.609298558828 551.8087859330718 764.011446117331 # Ar
1397 1397 1 0.0 744.3447450389067 450.61536367079725 210.45989902921724 # Ar
1398 1398 1 0.0 392.5848386855765 343.0521088966814 556.5685315375022 # Ar
1399 1399 1 0.0 308.44149368991714 318.92997063067287 380.594212039103 # Ar
1400 1400 1 0.0 953.8673936096196 244.09356830988705 179.4250626151333 # Ar
1401 1401 1 0.0 365.1700153175171 568.2033234197903 516.6908564684583 # Ar
1402 1402 1 0.0 995.1100785294008 243.71881996473866 956.9468758147032 # Ar
1403 1403 1 0.0 799.7327599958171 258.0759839681844 980.6775591312978 # Ar
1404 1404 1 0.0 169.25388224574328 510.76330277508674 556.0318215153679 # Ar
1405 1405 1 0.0 381.75392784217263 324.60903427167574 731.7176391559079 # Ar
1406 1406 1 0.0 802.2367293832798 660.8063763132731 2.0584227619878983 # Ar
1407 1407 1 0.0 185.3079292731917 46.2550920228803 664.3825468762024 # Ar
1408 1408 1 0.0 686.5495186838854 332.2824864426129 873.290391317485 # Ar
1409 1409 1 0.0 476.98350543959606 897.0204662871301 625.2805301966497 # Ar
1410 1410 1 0.0 622.2001809422937 1018.324471938608 737.2394415830175 # Ar
1411 1411 1 0.0 293.6505240447212 373.7659584940756 745.7253810846447 # Ar
1412 1412 1 0.0 560.3194042556935 888.1252795800879 16.922380857681738 # Ar
1413 1413 1 0.0 158.7637938870302 805.9555843636438 766.1428134666058 # Ar
1414 1414 1 0.0 222.1584861514091 671.9333313596628 977.9447328481926 # Ar
1415 1415 1 0.0 859.4813023494039 832.6168280577127 392.8805506267518 # Ar
1416 1416 1 0.0 929.4513025524468 406.66564291657414 225.65919908237103 # Ar
1417 1417 1 0.0 391.68688509213837 417.8398116693485 621.3396533911207 # Ar
1418 1418 1 0.0 975.1625674232246 276.2872705860719 155.22266885865025 # Ar
1419 1419 1 0.0 907.831946729655 621.7037765085119 846.8492807047481 # Ar
1420 1420 1 0.0 422.7581282606865 7.338819258186167 799.9838803593552 # Ar
1421 1421 1 0.0 600.6573087015498 680.5792767215207 225.06233788226646 # Ar
1422 1422 1 0.0 241.56642238951756 493.72515317598925 539.8463024419631 # Ar
1423 1423 1 0.0 100.09633425071064 423.3302254740452 697.7946099583119 # Ar
1424 1424 1 0.0 900.6504792732964 371.42798018178377 787.4417818836764 # Ar
1425 1425 1 0.0 722.4308494919736 1015.1354766848604 429.11521357436413 # Ar
1426 1426 1 0.0 268.9742882715633 677.7031979363861 970.9296652562989 # Ar
1427 1427 1 0.0 231.81464562273163 104.69004753248363 513.1976647530045 # Ar
1428 1428 1 0.0 555.2480317373472 250.65884248787907 385.19153070462306 # Ar
1429 1429 1 0.0 165.49091299665469 849.7679968625528 1016.8505822281071 # Ar
1430 1430 1 0.0 629.5170345744534 708.6617850529428 466.52035726380393 # Ar
1431 1431 1 0.0 132.07540511417636 392.46224690927096 309.24846556858114 # Ar
1432 1432 1 0.0 604.5946563207918 100.60781946724099 138.2757108845602 # Ar
1433 1433 1 0.0 626.7235203462603 523.3683697686048 92.55001645179968 # Ar
1434 1434 1 0.0 152.6626353735482 458.1989578607711 576.6731232610712 # Ar
1435 1435 1 0.0 330.1691463767268 623.5846311589657 987.4617806098545 # Ar
1436 1436 1 0.0 286.8169620253908 406.38766665893115 905.0864240776903 # Ar
1437 1437 1 0.0 205.2628934701225 187.1796746900033 585.8623003651508 # Ar
1438 1438 1 0.0 249.60642326266833 84.09457372880205 164.23160503483064 # Ar
1439 1439 1 0.0 931.915285113639 487.28165034495555 63.146647195910155 # Ar
1440 1440 1 0.0 938.4259690446336 776.5858755646989 553.7519815054084 # Ar
1441 1441 1 0.0 86.18007002397128 788.9344717223983 57.00291488322565 # Ar
1442 1442 1 0.0 567.4982064780838 413.33045138143257 588.5432555333465 # Ar
1443 1443 1 0.0 399.9913399842695 199.01111875320817 27.16989614011905 # Ar
1444 1444 1 0.0 834.3601955602746 747.7648737502344 218.56120284604495 # Ar
1445 1445 1 0.0 989.7588149815272 862.1235338443073 421.32376333561416 # Ar
1446 1446 1 0.0 177.05247172442745 99.38447200645427 194.78944426976236 # Ar
1447 1447 1 0.0 838.9484679983432 1004.1878464204732 26.026920546891173 # Ar
1448 1448 1 0.0 737.6027228155576 319.39961811267324 545.7835198211783 # Ar
1449 1449 1 0.0 1018.70964566313 902.4683502492173 104.90714580133378 # Ar
1450 1450 1 0.0 785.462716002965 711.4403853004669 844.8217322406609 # Ar
1451 1451 1 0.0 696.8469253293702 985.5525547793835 234.4083936841761 # Ar
1452 1452 1 0.0 19.432659330799954 904.0982402355734 882.7442961236172 # Ar
1453 1453 1 0.0 760.6428503255261 664.3000414322016 389.4951791152085 # Ar
1454 1454 1 0.0 88.07581620816009 768.5201164528328 570.430548127533 # Ar
1455 1455 1 0.0 98.73907993986559 82.8827157085551 5.217864818951706 # Ar
1456 1456 1 0.0 999.6149642135666 708.1812990847143 964.0213697166164 # Ar
1457 1457 1 0.0 145.63811239577961 698.9963115684806 340.2050668450474 # Ar
1458 1458 1 0.0 111.9219500044969 286.5365778173059 617.5067844608633 # Ar
1459 1459 1 0.0 720.7429803310508 183.06292199024304 178.00759507078834 # Ar
1460 1460 1 0.0 108.50299058871487 781.307686028757 918.0763059865881 # Ar
1461 1461 1 0.0 611.7383251253498 794.2623616757589 155.21766360250803 # Ar
1462 1462 1 0.0 301.39282153051073 45.10926529433105 945.1718668783642 # Ar
1463 1463 1 0.0 152.65511036649679 51.67218524135253 604.9600308226198 # Ar
1464 1464 1 0.0 412.05240364782384 451.8758918650803 29.241435083110527 # Ar
1465 1465 1 0.0 918.6876104002376 872.7922960021082 934.3360199311544 # Ar
1466 1466 1 0.0 294.77217948008644 508.8332091781262 303.8950774119027 # Ar
1467 1467 1 0.0 577.0142375741149 935.313790320872 276.1104559470789 # Ar
1468 1468 1 0.0 880.1117142780569 497.14439215383806 781.7308878840524 # Ar
1469 1469 1 0.0 572.1358903855684 598.3358436065199 82.01188126815462 # Ar
1470 1470 1 0.0 155.9260392112076 120.09905604038299 434.04678074099354 # Ar
1471 1471 1 0.0 731.0672543099603 672.7821956166927 163.59316595560188 # Ar
1472 1472 1 0.0 718.2299539955922 530.961290355202 99.49741421412897 # Ar
1473 1473 1 0.0 721.2269308423072 850.9740311916984 393.5498529107613 # Ar
1474 1474 1 0.0 394.32398554229104 134.26824690251212 394.71075507382596 # Ar
1475 1475 1 0.0 406.35817941410784 688.6906894462622 808.7483686098356 # Ar
1476 1476 1 0.0 404.933403602718 141.54179139967252 527.0158749845987 # Ar
1477 1477 1 0.0 129.9909989056002 537.0156266127666 205.6167005058137 # Ar
1478 1478 1 0.0 320.6788340141085 9.5085740574109 535.2607796186152 # Ar
1479 1479 1 0.0 808.7826933184067 37.97333010541699 828.9951081253979 # Ar
1480 1480 1 0.0 255.7986864554111 115.35801537192621 676.8620643789935 # Ar
1481 1481 1 0.0 23.277511152448852 126.54266741774664 978.7535268947304 # Ar
1482 1482 1 0.0 411.02850665457487 829.6776360304267 984.5919765765684 # Ar
1483 1483 1 0.0 372.4051217445442 928.818475385121 48.38675053867954 # Ar
1484 1484 1 0.0 175.0709307368875 685.3730405539844 852.2408475379361 # Ar
1485 1485 1 0.0 513.5514802260727 223.15629614774787 585.2517141360235 # Ar
1486 1486 1 0.0 509.0395366677181 414.6026705391459 328.752155030155 # Ar
1487 1487 1 0.0 94.41796473289908 683.4049801168773 664.7861132517114 # Ar
1488 1488 1 0.0 272.1130358309062 580.3252146866575 444.05697510053557 # Ar
1489 1489 1 0.0 759.7270024222321 970.7815605666026 564.1480936208553 # Ar
1490 1490 1 0.0 242.7434823081424 503.7731179669927 776.1654710999004 # Ar
1491 1491 1 0.0 73.7654047539821 253.69877491470973 1013.9233909679239 # Ar
1492 1492 1 0.0 246.611371396735 239.8665018291939 699.9932939723737 # Ar
1493 1493 1 0.0 938.5288671310522 462.1830420033659 820.1863675611376 # Ar
1494 1494 1 0.0 158.1593583360685 783.4676599328667 60.30595700781039 # Ar
1495 1495 1 0.0 379.8842563952393 360.37957188874856 873.3365793307839 # Ar
1496 1496 1 0.0 753.1432112778349 378.18198561713757 14.849900008085397 # Ar
1497 1497 1 0.0 642.0106827490243 844.8252084729469 941.1299994467232 # Ar
1498 1498 1 0.0 675.2725126521384 583.9715270013369 675.7021587998553 # Ar
1499 1499 1 0.0 125.43103044794992 435.2961126218727 706.1613128200944 # Ar
1500 1500 1 0.0 267.4318159520274 117.57465816379315 5.210148406496901 # Ar
1501 1501 1 0.0 691.6553031712793 265.67003103851033 183.7775673906349 # Ar
1502 1502 1 0.0 257.5547014865429 894.6462035348451 152.9862874465509 # Ar
1503 1503 1 0.0 996.7563408307119 166.87290118072903 137.2620312626003 # Ar
1504 1504 1 0.0 542.5101646782845 212.57470620387426 984.4359820088575 # Ar
1505 1505 1 0.0 656.8777237080616 696.4111410632123 61.939194309317855 # Ar
1506 1506 1 0.0 3.7437498624742704 170.3688348169003 307.6040387281316 # Ar
1507 1507 1 0.0 889.6643155544178 121.19839505786743 956.2060220777707 # Ar
1508 1508 1 0.0 752.1304103269947 854.8471022160828 466.257341902893 # Ar
1509 1509 1 0.0 210.45809176932275 672.5974840770913 675.0745469507294 # Ar
1510 1510 1 0.0 524.2245945794177 23.049709677885634 821.2546946215398 # Ar
1511 1511 1 0.0 18.13727558933624 415.8462378710238 138.64794432341915 # Ar
1512 1512 1 0.0 938.9796876179116 226.77473506675503 218.56793428011824 # Ar
1513 1513 1 0.0 130.459457050436 1018.897102616484 610.4869107757665 # Ar
1514 1514 1 0.0 725.368342046661 527.2395023521932 51.50668089495976 # Ar
1515 1515 1 0.0 133.03335356252774 865.3281420952272 993.4881430523297 # Ar
1516 1516 1 0.0 503.62572475415135 850.7083517112904 307.34674763815957 # Ar
1517 1517 1 0.0 20.05754582445992 810.5594689602491 808.6844880530435 # Ar
1518 1518 1 0.0 640.7151940246983 592.583548956308 956.946811262378 # Ar
1519 1519 1 0.0 851.1708956768504 605.9997880385092 262.7437495472416 # Ar
1520 1520 1 0.0 836.332416730765 739.0234944425946 164.08825909010406 # Ar
1521 1521 1 0.0 750.35070107496 580.399102414546 530.085998110662 # Ar
1522 1522 1 0.0 149.83391180147294 946.2648944314693 555.3081094813397 # Ar
1523 1523 1 0.0 41.834088017193494 876.878224968483 144.78541556519994 # Ar
1524 1524 1 0.0 438.41691463110584 889.0358101064191 1018.3145677932876 # Ar
1525 1525 1 0.0 933.6489838382586 940.4028212154973 292.89127240753254 # Ar
1526 1526 1 0.0 17.752506700142415 8.36013968784907 646.7307578425261 # Ar
1527 1527 1 0.0 836.4075165953933 398.98702597192676 254.02829024251096 # Ar
1528 1528 1 0.0 738.4266228464473 756.8215733345586 262.8342618336368 # Ar
1529 1529 1 0.0 854.5788722935189 571.9300960325957 947.3145458514025 # Ar
1530 1530 1 0.0 634.2223548083393 578.3162110942991 204.33239788108932 # Ar
1531 1531 1 0.0 149.854759312713 107.98634081689403 148.79384988207488 # Ar
1532 1532 1 0.0 266.1780253845381 265.511924284324 587.2563196705028 # Ar
1533 1533 1 0.0 988.3484021228448 88.19527761813546 747.1047280870143 # Ar
1534 1534 1 0.0 482.11622217092594 21.91927235884032 734.4753995332914 # Ar
1535 1535 1 0.0 68.01770316014361 699.7553976746667 826.2444859149832 # Ar
1536 1536 1 0.0 428.77050485518475 507.4782010305755 942.5305077914794 # Ar
1537 1537 1 0.0 51.41078780099864 764.4311047015939 93.53841543361362 # Ar
1538 1538 1 0.0 868.5809758301853 162.82951136506654 391.451155062632 # Ar
1539 1539 1 0.0 408.80623900675414 1.6794859682128949 106.25039516904428 # Ar
1540 1540 1 0.0 43.65663145649638 802.8496337319593 509.99847719590787 # Ar
1541 1541 1 0.0 667.9065915228209 856.81823304714 553.3442339963074 # Ar
1542 1542 1 0.0 618.6133932621011 120.3140283475061 105.9268758267018 # Ar
1543 1543 1 0.0 119.75167281405662 562.8922693886143 223.57300243529488 # Ar
1544 1544 1 0.0 100.6569832289695 41.08742510675564 529.4781037529106 # Ar
1545 1545 1 0.0 362.4138264699397 1003.5804008699325 495.11599480910456 # Ar
1546 1546 1 0.0 529.622354385314 458.61489937689953 246.8706750972829 # Ar
1547 1547 1 0.0 451.93868352061395 628.6825184908267 861.4024927762702 # Ar
1548 1548 1 0.0 672.1010240022648 544.2656564403013 683.6359136358095 # Ar
1549 1549 1 0.0 130.10032652067915 145.34265974294507 189.40593570771478 # Ar
1550 1550 1 0.0 372.63563764157044 922.7009759203274 266.1015383293239 # Ar
1551 1551 1 0.0 226.51192708036302 556.3990876369098 71.3326811082933 # Ar
1552 1552 1 0.0 858.0849472346746 188.38205536391794 850.4699646445308 # Ar
1553 1553 1 0.0 545.3141516322585 405.6410015184714 769.7722666382368 # Ar
1554 1554 1 0.0 125.94750193855093 461.98259998767253 987.1796321882964 # Ar
1555 1555 1 0.0 839.4703911867289 1025.4194016081367 660.953800365413 # Ar
1556 1556 1 0.0 563.8765761094446 102.05849446551713 633.0036157863007 # Ar
1557 1557 1 0.0 173.27606169233653 356.7516119976148 639.0198358654469 # Ar
1558 1558 1 0.0 964.1816022668879 31.14309665915074 136.9553178669531 # Ar
1559 1559 1 0.0 11.183507652059506 928.8316202978484 428.24964770457996 # Ar
1560 1560 1 0.0 393.1640650093395 278.33869644067516 263.0402494062627 # Ar
1561 1561 1 0.0 420.949896296479 598.3210298740931 447.9068323098162 # Ar
1562 1562 1 0.0 599.6923598241091 145.34079876470193 844.655934667508 # Ar
1563 1563 1 0.0 245.9882144164247 295.49025830826264 156.39687362414327 # Ar
1564 1564 1 0.0 91.0357937154024 379.7766663590078 753.4959137465526 # Ar
1565 1565 1 0.0 733.4033392260075 498.41505653576615 819.1840257010745 # Ar
1566 1566 1 0.0 445.5321994702769 848.5682476861008 613.7445996394296 # Ar
1567 1567 1 0.0 950.2768370494202 677.4692389761584 998.6774547736075 # Ar
1568 1568 1 0.0 373.77575537486877 12.573171743410029 298.5680204301449 # Ar
1569 1569 1 0.0 391.6605622063337 128.72697092254472 598.4376722070145 # Ar
1570 1570 1 0.0 800.118156407829 912.4843249445717 34.564176541623574 # Ar
1571 1571 1 0.0 154.23545811230372 128.26852647488707 825.9716831006336 # Ar
1572 1572 1 0.0 380.3476215004443 593.9571036165547 491.2043557977041 # Ar
1573 1573 1 0.0 5.680070890146168 586.5383594245495 1006.619209650298 # Ar
1574 1574 1 0.0 270.78969620824677 398.9427813905078 64.29418174644812 # Ar
1575 1575 1 0.0 618.5798110773482 978.4762090493607 475.64544169017944 # Ar
1576 1576 1 0.0 883.7097804548257 152.4595349181517 272.01107762140265 # Ar
1577 1577 1 0.0 629.5862404078129 43.823904824051695 288.92093853414883 # Ar
1578 1578 1 0.0 603.3646557985803 367.86805665537406 616.9281615941405 # Ar
1579 1579 1 0.0 593.2295639125684 681.7223893959635 223.2209668016144 # Ar
1580 1580 1 0.0 357.91975214758804 207.1302692515791 971.9742932102856 # Ar
1581 1581 1 0.0 58.31195123855308 676.199341165572 29.182742769321564 # Ar
1582 1582 1 0.0 205.4124020922637 841.2291462509262 256.02924237286015 # Ar
1583 1583 1 0.0 972.3905030743372 622.3084785557155 396.52682339816573 # Ar
1584 1584 1 0.0 701.0197774089477 463.33821455680095 48.157542673986 # Ar
1585 1585 1 0.0 345.2221752747701 567.7304370829085 536.0094336169064 # Ar
1586 1586 1 0.0 628.7244488875091 735.7962767596485 1001.7910753262714 # Ar
1587 1587 1 0.0 821.8078980910547 271.4021788245897 816.1788248145127 # Ar
1588 1588 1 0.0 209.40665576868534 591.8621935788641 634.4622429441881 # Ar
1589 1589 1 0.0 318.7889423028284 415.01082218743653 733.7367424002437 # Ar
1590 1590 1 0.0 23.071035492049916 1013.5353530244198 895.1745753539536 # Ar
1591 1591 1 0.0 320.97759926012054 118.7405586776445 810.6123345485769 # Ar
1592 1592 1 0.0 649.1625997772521 808.7212764298612 675.8228000276679 # Ar
1593 1593 1 0.0 443.3052148248297 256.18013427306227 239.66159261291494 # Ar
1594 1594 1 0.0 258.5832861667647 48.258121551520865 494.2518380919903 # Ar
1595 1595 1 0.0 954.6480028572803 82.39695742888368 308.3535205632049 # Ar
1596 1596 1 0.0 643.296640474794 6.790158056343188 523.9555357147304 # Ar
1597 1597 1 0.0 331.17126179159936 569.9638854863732 611.8041775573258 # Ar
1598 1598 1 0.0 686.1549146520499 150.8322505940287 641.8371607701029 # Ar
1599 1599 1 0.0 1022.0541231140427 236.072261685555 859.254668947133 # Ar
1600 1600 1 0.0 361.51379885203255 977.4867627110464 143.26787944936356 # Ar
1601 1601 1 0.0 781.1467884731156 877.7420313630272 71.19288678082586 # Ar
1602 1602 1 0.0 454.1629256708117 799.0394113583435 671.0560957043284 # Ar
1603 1603 1 0.0 633.0238191950712 81.62493076202819 104.94812068994639 # Ar
1604 1604 1 0.0 545.008164444784 521.5212631065658 262.3309035119349 # Ar
1605 1605 1 0.0 563.7713873857639 188.39266163542277 954.2104744944153 # Ar
1606 1606 1 0.0 304.84355657221556 694.9951317166306 241.05436039321444 # Ar
1607 1607 1 0.0 106.99281526161091 881.904214248454 758.6055073806551 # Ar
1608 1608 1 0.0 84.30274787621248 628.5161986316199 25.566938229603135 # Ar
1609 1609 1 0.0 22.976852346416912 138.38216641155063 490.1298498121258 # Ar
1610 1610 1 0.0 924.8855443365226 24.789185737113794 524.3330881102912 # Ar
1611 1611 1 0.0 416.93750140531944 467.86170336323136 941.0601788019491 # Ar
1612 1612 1 0.0 724.9604435708459 809.3321705909749 149.14265594699978 # Ar
1613 1613 1 0.0 752.9279251995786 783.371892832433 264.7082520172902 # Ar
1614 1614 1 0.0 965.416491909407 824.729111485052 714.6183657006751 # Ar
1615 1615 1 0.0 444.1856030088894 789.5506031624271 668.671849104703 # Ar
1616 1616 1 0.0 253.3517847206098 898.7687060590108 778.8093813738338 # Ar
1617 1617 1 0.0 48.08894140565897 959.9648315066331 779.7763222862632 # Ar
1618 1618 1 0.0 261.99493971343526 629.8165961242049 358.5096401961615 # Ar
1619 1619 1 0.0 806.0958650330327 365.22246750820347 812.6272263547562 # Ar
1620 1620 1 0.0 496.8037107677894 262.8145298355054 338.87580818087554 # Ar
1621 1621 1 0.0 633.8063367074401 95.62004544478916 771.8091676671486 # Ar
1622 1622 1 0.0 548.1868866621087 979.0677362669758 161.11465119196916 # Ar
1623 1623 1 0.0 845.0745294945675 289.4097276767636 590.4532061852275 # Ar
1624 1624 1 0.0 64.61624458182297 157.8286456089533 128.76796018694054 # Ar
1625 1625 1 0.0 970.2214536714 324.1498218728973 78.80130694796605 # Ar
1626 1626 1 0.0 94.17448091643064 397.00891124838984 776.7192594988951 # Ar
1627 1627 1 0.0 453.18789197323076 602.9285586586449 599.229725352846 # Ar
1628 1628 1 0.0 162.1283418230568 9.760495139398165 160.53377674702259 # Ar
1629 1629 1 0.0 914.0430604750653 347.7299663736258 679.4482129300857 # Ar
1630 1630 1 0.0 932.8073691962535 995.5443752953006 475.8615004709341 # Ar
1631 1631 1 0.0 758.9736518663938 744.8335271460032 667.945400471143 # Ar
1632 1632 1 0.0 944.299803333412 493.8247551991119 359.5381183651286 # Ar
1633 1633 1 0.0 26.402385863122916 486.1662443021258 568.2931492594672 # Ar
1634 1634 1 0.0 214.31249107308582 312.879481694975 225.24553590419964 # Ar
1635 1635 1 0.0 290.42029417482007 481.5399029112189 642.687845494468 # Ar
1636 1636 1 0.0 494.37537553050254 929.1929522893581 523.0826651359673 # Ar
1637 1637 1 0.0 467.1329255125139 223.7641560724728 516.2064819149567 # Ar
1638 1638 1 0.0 966.2028530274051 918.2464401828481 498.5285800444188 # Ar
1639 1639 1 0.0 309.49106254737177 510.847246582537 450.51114475442154 # Ar
1640 1640 1 0.0 432.65714682996645 131.22980664169575 486.2524417802561 # Ar
1641 1641 1 0.0 1008.8655895067201 575.5703877865973 906.3836692592481 # Ar
1642 1642 1 0.0 828.122341910124 898.6364194274009 647.654897307905 # Ar
1643 1643 1 0.0 940.8661415924561 318.92761305438603 265.989138209182 # Ar
1644 1644 1 0.0 329.6034814352277 841.4603711123686 7.519254239464807 # Ar
1645 1645 1 0.0 77.18696371975444 869.5926210422991 940.7334933336592 # Ar
1646 1646 1 0.0 881.1279411345232 733.093809431071 896.3784494297005 # Ar
1647 1647 1 0.0 1026.5478677468473 171.74056103721517 621.2764452787751 # Ar
1648 1648 1 0.0 876.0168835084568 229.7959596786496 698.3797936507558 # Ar
1649 1649 1 0.0 983.0172350599811 77.18794800622825 665.104711266794 # Ar
1650 1650 1 0.0 346.9822590938369 1001.9692645311287 493.1547769503646 # Ar
1651 1651 1 0.0 779.6665395686767 126.34449240345147 797.5776098138471 # Ar
1652 1652 1 0.0 30.504820681885473 529.9155506960491 16.502421614915715 # Ar
1653 1653 1 0.0 1015.3223095724893 136.20422425658552 87.60400711639718 # Ar
1654 1654 1 0.0 174.62173913008152 75.8723379305054 447.9303977927851 # Ar
1655 1655 1 0.0 440.43137913565096 261.8690231458763 54.24751309281447 # Ar
1656 1656 1 0.0 632.4418464516529 978.4293171655095 333.74025937858625 # Ar
1657 1657 1 0.0 725.9781571308348 652.7801325889524 1017.2826993656685 # Ar
1658 1658 1 0.0 606.3892530918657 225.27221858218834 725.5028658562319 # Ar
1659 1659 1 0.0 646.788757912461 412.53828727391465 1028.174122554612 # Ar
1660 1660 1 0.0 565.3474869514235 948.2156665689799 429.9266351210834 # Ar
1661 1661 1 0.0 245.34499321351944 886.8551690140139 919.3985051010534 # Ar
1662 1662 1 0.0 274.70155666055615 768.3310450840617 972.1816910954462 # Ar
1663 1663 1 0.0 973.9165698187912 284.32683197990644 802.6519622139448 # Ar
1664 1664 1 0.0 740.6635506303504 584.729472023255 668.0800198299586 # Ar
1665 1665 1 0.0 911.1188431153591 902.0841991404022 191.18082125352984 # Ar
1666 1666 1 0.0 198.52392917281767 336.0364744228173 535.5146115782372 # Ar
1667 1667 1 0.0 648.3141288941869 250.17270868642325 790.7870008592229 # Ar
1668 1668 1 0.0 849.2032411581854 754.5043720863187 751.8210557000402 # Ar
1669 1669 1 0.0 536.8025888018813 783.7809697322386 757.3360205126819 # Ar
1670 1670 1 0.0 583.2796014919805 333.1075686843228 238.90682851107067 # Ar
1671 1671 1 0.0 50.820058605091525 160.02747952790148 453.2054791628913 # Ar
1672 1672 1 0.0 138.80240192503203 644.219159372245 142.18177035390903 # Ar
1673 1673 1 0.0 20.896827031556167 429.13212796200315 921.4113139780628 # Ar
1674 1674 1 0.0 785.8909970337864 728.4445653029077 380.8035796447773 # Ar
1675 1675 1 0.0 926.0510708199555 165.00065272848946 349.04766916286377 # Ar
1676 1676 1 0.0 286.8110773363698 824.9121716030626 322.6502724882309 # Ar
1677 1677 1 0.0 163.1878937055153 192.6110581577241 665.5775234571721 # Ar
1678 1678 1 0.0 455.018567245568 797.2523412689409 177.89386784886156 # Ar
1679 1679 1 0.0 519.9973755580719 793.449160922938 670.4213039916441 # Ar
1680 1680 1 0.0 185.96975215277274 241.19918771822657 188.17732497699583 # Ar
1681 1681 1 0.0 970.5254703378185 951.2991030594646 457.6139557410396 # Ar
1682 1682 1 0.0 842.7324081892284 1002.2421494150808 490.5791283371501 # Ar
1683 1683 1 0.0 1024.2804915477282 263.92157022089896 424.5245470946434 # Ar
1684 1684 1 0.0 229.2276161389337 349.58571921512424 798.196331262739 # Ar
1685 1685 1 0.0 826.4213195456766 56.55408276475698 475.0510607262156 # Ar
1686 1686 1 0.0 643.3818095763996 235.5505960029642 271.1234769784473 # Ar
1687 1687 1 0.0 537.9414013984357 972.0639099037567 307.412212114375 # Ar
1688 1688 1 0.0 241.6651471385028 531.4040452039114 346.4941662664887 # Ar
1689 1689 1 0.0 416.89087101347076 346.8771305106161 147.22207913679725 # Ar
1690 1690 1 0.0 480.23101118360046 527.9169539005775 324.683463202038 # Ar
1691 1691 1 0.0 745.9303693661186 26.43142076810728 617.4888455852913 # Ar
1692 1692 1 0.0 583.3471380474996 777.2994452568684 880.5298729482105 # Ar
1693 1693 1 0.0 1010.058847816738 860.1650368869346 835.8966338075503 # Ar
1694 1694 1 0.0 44.59218209421997 35.73176985971929 906.388664947742 # Ar
1695 1695 1 0.0 344.65485502117156 193.075692845027 233.65977648138792 # Ar
1696 1696 1 0.0 406.42961054344806 323.4879911314171 837.8856543951572 # Ar
1697 1697 1 0.0 262.664573711216 881.7793639492957 160.12957205473242 # Ar
1698 1698 1 0.0 758.902138795276 177.21560674420832 949.3766296684827 # Ar
1699 1699 1 0.0 14.182671198541282 257.9734905249187 681.1847792610367 # Ar
1700 1700 1 0.0 285.2958743538013 224.45378861032415 686.4407319458945 # Ar
1701 1701 1 0.0 520.426520191552 1013.1603610644597 669.2945340570205 # Ar
1702 1702 1 0.0 805.8087838975288 209.02315557190704 630.2523790242781 # Ar
1703 1703 1 0.0 459.57650576613327 986.1539785701021 797.900883377839 # Ar
1704 1704 1 0.0 567.73590088311 1014.4560414049629 305.1996931216247 # Ar
1705 1705 1 0.0 498.52276900507957 978.56984481738 585.5013137760798 # Ar
1706 1706 1 0.0 840.3409555398273 1013.5578014174747 930.9969728447003 # Ar
1707 1707 1 0.0 240.45994144598993 1006.7122488364885 941.3582773700474 # Ar
1708 1708 1 0.0 257.28672855174176 804.267420606386 249.7022092057084 # Ar
1709 1709 1 0.0 581.7715044307005 628.3068466089923 886.7387441914333 # Ar
1710 1710 1 0.0 581.6002289236932 709.2104140391555 793.8665948971111 # Ar
1711 1711 1 0.0 916.3913912379223 420.7964920838948 806.5134985075894 # Ar
1712 1712 1 0.0 970.3636223770083 887.9072980905538 311.5228972428014 # Ar
1713 1713 1 0.0 988.7846638961765 452.45297145795206 836.4646324233929 # Ar
1714 1714 1 0.0 48.93079091173413 832.7063858676472 142.4222218291587 # Ar
1715 1715 1 0.0 725.7266750594044 205.3362652909013 982.7434201964276 # Ar
1716 1716 1 0.0 602.5879561791589 726.5257615519632 800.8513857668448 # Ar
1717 1717 1 0.0 794.5477304999415 73.45229327442853 945.0672537728652 # Ar
1718 1718 1 0.0 507.7021072693046 199.85416641178716 468.64922735308096 # Ar
1719 1719 1 0.0 254.87028044890167 944.28504354633 225.41223421733417 # Ar
1720 1720 1 0.0 413.02218580652226 848.4184519698049 320.9620913056123 # Ar
1721 1721 1 0.0 288.55283925293577 298.67126887352504 509.95997521950426 # Ar
1722 1722 1 0.0 13.548034022935061 830.6236338302111 253.96075378787637 # Ar
1723 1723 1 0.0 287.6473551885426 118.96339188236244 462.4114510179684 # Ar
1724 1724 1 0.0 136.51109985401897 342.2583179909569 431.10901977774876 # Ar
1725 1725 1 0.0 371.44194955629894 641.8505078766505 87.090851340038 # Ar
1726 1726 1 0.0 652.3502598905826 516.2258097671476 397.85387638103555 # Ar
1727 1727 1 0.0 976.7390707479623 137.82659784184986 1011.7127900048207 # Ar
1728 1728 1 0.0 670.9468437007014 4.662079492343407 285.08411643060214 # Ar
1729 1729 1 0.0 221.76598203653563 249.70017203084802 155.49784659349376 # Ar
1730 1730 1 0.0 923.278805502132 0.3518099282292484 558.346027460326 # Ar
1731 1731 1 0.0 178.21829043247794 24.00102940829234 194.24237307571076 # Ar
1732 1732 1 0.0 585.0034862093202 782.7142188394989 1004.945551165846 # Ar
1733 1733 1 0.0 425.8679226190858 30.600368732662595 368.0776211098654 # Ar
1734 1734 1 0.0 126.23576756742233 68.94491507146166 475.93736180760345 # Ar
1735 1735 1 0.0 777.0056510554672 501.33175343158524 740.060464631649 # Ar
1736 1736 1 0.0 349.1251327887191 365.17067476424114 12.846188552536873 # Ar
1737 1737 1 0.0 1018.5772328046858 109.03121970228084 772.8369188081291 # Ar
1738 1738 1 0.0 980.4537335364236 851.3582846106618 891.5062409209028 # Ar
1739 1739 1 0.0 519.0655813084668 990.2765978189976 511.88293900803825 # Ar
1740 1740 1 0.0 698.5458360563266 488.4043351534131 460.2507488401038 # Ar
1741 1741 1 0.0 550.0672120055538 605.5664628643759 30.408881267709372 # Ar
1742 1742 1 0.0 963.5783976081703 384.2963797892118 278.043711021224 # Ar
1743 1743 1 0.0 685.5260025134952 111.80153469177426 447.562233662639 # Ar
1744 1744 1 0.0 932.2318770465431 175.8260835819413 753.7423265136295 # Ar
1745 1745 1 0.0 957.7827791752798 810.2896976949196 147.68662913878094 # Ar
1746 1746 1 0.0 315.97114966047707 496.24234941618823 894.9270957072939 # Ar
1747 1747 1 0.0 676.8911169882259 637.3492221597886 403.6822013296724 # Ar
1748 1748 1 0.0 597.3426482881363 160.4727819526959 919.7930715581022 # Ar
1749 1749 1 0.0 190.87697803305 448.76787489941813 586.305296487397 # Ar
1750 1750 1 0.0 375.9814548053184 999.3859819561575 912.0299269031318 # Ar
1751 1751 1 0.0 837.118478883593 254.10835265310754 896.6748514647062 # Ar
1752 1752 1 0.0 812.8703736139702 720.744629296991 488.9233823306952 # Ar
1753 1753 1 0.0 792.1087104126481 799.9872656014923 728.6975137346277 # Ar
1754 1754 1 0.0 240.14967596977922 69.54126007090964 835.5089187710399 # Ar
1755 1755 1 0.0 309.6460530551407 794.732831574945 811.4339334369889 # Ar
1756 1756 1 0.0 518.8488185771927 537.3068287861512 274.2647750446743 # Ar
1757 1757 1 0.0 853.868605510281 468.90540058749974 116.92196084754185 # Ar
1758 1758 1 0.0 592.0438130500976 15.882573219383003 351.40344615648013 # Ar
1759 1759 1 0.0 410.2155829673218 616.9176863371817 251.27751836427848 # Ar
1760 1760 1 0.0 463.94395307051093 388.656547841599 494.9085343033371 # Ar
1761 1761 1 0.0 161.40002833470172 971.201267240452 535.2871237053469 # Ar
1762 1762 1 0.0 517.4323264061271 654.3030485675696 970.939123150473 # Ar
1763 1763 1 0.0 663.2558226162789 939.2349344741766 656.8033847666385 # Ar
1764 1764 1 0.0 570.7525374310068 298.10517315934436 68.48795985412693 # Ar
1765 1765 1 0.0 371.24079092133974 199.35624138811238 891.8423512232008 # Ar
1766 1766 1 0.0 241.857343802156 191.52208188674 364.04784328552677 # Ar
1767 1767 1 0.0 261.47226451607077 979.192437113351 940.577462679567 # Ar
1768 1768 1 0.0 35.35347677641044 640.7843383156028 362.3201106229668 # Ar
1769 1769 1 0.0 520.3724925586188 833.5566806239035 459.8972874754551 # Ar
1770 1770 1 0.0 79.40722114484583 348.6319933353851 669.5535636790866 # Ar
1771 1771 1 0.0 701.285382745634 417.9720389771904 925.9585974249818 # Ar
1772 1772 1 0.0 634.2477510938654 133.01029934863678 223.65693317336763 # Ar
1773 1773 1 0.0 216.0609639580814 1017.2449411790482 708.5853879016937 # Ar
1774 1774 1 0.0 219.8085423033315 909.5352977209348 526.9067998701825 # Ar
1775 1775 1 0.0 198.33039019513922 801.7992518490015 546.1060656045426 # Ar
1776 1776 1 0.0 1015.8099203342236 962.1098129004633 816.5499549737233 # Ar
1777 1777 1 0.0 1022.4744486434938 494.5577721509213 860.4760917094547 # Ar
1778 1778 1 0.0 488.43850791171843 365.35110518210706 432.1197972655259 # Ar
1779 1779 1 0.0 137.37787013741095 705.7170962008418 537.7967026694946 # Ar
1780 1780 1 0.0 341.4234933506973 726.2596166570413 40.81765170395512 # Ar
1781 1781 1 0.0 711.2267282272664 766.0006963373908 499.3791832319427 # Ar
1782 1782 1 0.0 521.5139163573816 233.39569798432532 758.2683939209176 # Ar
1783 1783 1 0.0 857.8445777682067 601.5544001278382 994.1966966788882 # Ar
1784 1784 1 0.0 185.33409449440626 188.77455745334365 714.3427771778013 # Ar
1785 1785 1 0.0 347.2394831637531 855.5086443929184 72.06021875412486 # Ar
1786 1786 1 0.0 289.88471021979257 885.6599447554105 816.2411422098627 # Ar
1787 1787 1 0.0 114.4152960085891 657.5792076636567 714.5269966964714 # Ar
1788 1788 1 0.0 67.80995118008599 974.7846214909475 714.5364010717005 # Ar
1789 1789 1 0.0 708.4923208362793 544.084039264226 117.92066840629563 # Ar
1790 1790 1 0.0 650.216441892251 206.33914814421377 554.9288561459191 # Ar
1791 1791 1 0.0 566.5055886346219 103.8799905740893 571.4132277602863 # Ar
1792 1792 1 0.0 898.4571954854246 799.4206761557236 320.5387468013989 # Ar
1793 1793 1 0.0 396.5428715588594 453.28335717491234 443.4310054689484 # Ar
1794 1794 1 0.0 41.65446276801369 640.0086248566693 779.2488074485066 # Ar
1795 1795 1 0.0 302.1389153848149 969.5949046338168 839.2932874225748 # Ar
1796 1796 1 0.0 651.9674442618302 558.1751660388046 329.31241742852905 # Ar
1797 1797 1 0.0 609.5860501637691 495.7357742720683 924.3949158874497 # Ar
1798 1798 1 0.0 678.4250551630756 566.888345594901 342.40775085103166 # Ar
1799 1799 1 0.0 689.8505569237099 601.7095342204998 9.63319410579872 # Ar
1800 1800 1 0.0 515.0964960011579 488.1065687995487 755.7907675134746 # Ar
1801 1801 1 0.0 740.0342591722646 493.06574956668857 717.2617973557482 # Ar
1802 1802 1 0.0 48.63422109158588 941.5568545712213 826.9542091864301 # Ar
1803 1803 1 0.0 536.8995583486375 559.8448137653012 808.7005829940377 # Ar
1804 1804 1 0.0 225.8937770938096 837.8397732226056 365.6989711785087 # Ar
1805 1805 1 0.0 829.5908050856139 626.1032023707145 515.4451146269448 # Ar
1806 1806 1 0.0 913.2624189899607 281.7955165174093 1004.5511903975596 # Ar
1807 1807 1 0.0 774.442349292544 45.314834756861465 134.19791222325327 # Ar
1808 1808 1 0.0 97.32181178459662 47.40274367830251 75.18980565565764 # Ar
1809 1809 1 0.0 109.21637438270551 1025.269140978704 436.03119565671517 # Ar
1810 1810 1 0.0 61.302018282723644 607.4360232904085 300.95737273561 # Ar
1811 1811 1 0.0 952.2448267255684 776.9585014688564 74.67646384033247 # Ar
1812 1812 1 0.0 772.8973752988475 991.2535860553284 133.82562109486636 # Ar
1813 1813 1 0.0 596.383105197003 228.09554848529456 907.269497038817 # Ar
1814 1814 1 0.0 604.47036796838 694.2961535506332 828.7968110307677 # Ar
1815 1815 1 0.0 433.38051359945405 130.04136490776747 447.3532602879275 # Ar
1816 1816 1 0.0 734.8612030807858 12.81650500192029 368.6740093132669 # Ar
1817 1817 1 0.0 917.9498293611367 57.21313887306574 718.8243269031985 # Ar
1818 1818 1 0.0 628.4756247107309 22.849989079596096 213.61278154605452 # Ar
1819 1819 1 0.0 525.3710418789308 477.28276063362034 169.93903068810698 # Ar
1820 1820 1 0.0 975.6092964826086 562.9824674926894 767.0531349640956 # Ar
1821 1821 1 0.0 326.4788377976337 273.1707962546913 420.82247307300923 # Ar
1822 1822 1 0.0 28.8619430260164 451.5167395309982 848.0390613180577 # Ar
1823 1823 1 0.0 408.80730786393445 795.2423437766505 947.0764453691403 # Ar
1824 1824 1 0.0 860.3623193412234 413.2276807041402 767.795474146324 # Ar
1825 1825 1 0.0 373.7546777969779 788.8810782778258 605.7966634701437 # Ar
1826 1826 1 0.0 510.97049576766665 577.4487296591032 778.16309128134 # Ar
1827 1827 1 0.0 745.5881485295988 432.4155778062442 663.7800246727289 # Ar
1828 1828 1 0.0 903.1351657893026 595.0564743430284 524.7532339955878 # Ar
1829 1829 1 0.0 950.8328336723689 118.74555794854875 134.3190127977281 # Ar
1830 1830 1 0.0 361.45336673782464 870.891866364711 31.569795097390486 # Ar
1831 1831 1 0.0 861.057124627904 815.3441696451737 334.8763402882972 # Ar
1832 1832 1 0.0 509.2319967819228 922.8487542661412 249.89836375318683 # Ar
1833 1833 1 0.0 635.1835064305312 64.41711695298211 231.44890893314962 # Ar
1834 1834 1 0.0 79.92429845112429 568.671654680556 840.1535409322304 # Ar
1835 1835 1 0.0 846.7660718477687 738.2042710397513 459.2401772752913 # Ar
1836 1836 1 0.0 534.9220267289111 376.50356867219233 912.2162599910956 # Ar
1837 1837 1 0.0 935.8351123602548 425.206426796926 138.69965304609127 # Ar
1838 1838 1 0.0 147.53613578201077 688.1763318664221 927.7720094593384 # Ar
1839 1839 1 0.0 771.8441392705653 512.1722777526695 525.9835181119005 # Ar
1840 1840 1 0.0 362.1876614937883 236.97227549100577 97.95580108856664 # Ar
1841 1841 1 0.0 498.4441435532246 961.2743404076759 171.33187266240998 # Ar
1842 1842 1 0.0 231.7550622411823 667.0032879926908 665.985873048554 # Ar
1843 1843 1 0.0 71.94303181647622 76.0932956584451 671.9427649631464 # Ar
1844 1844 1 0.0 649.3175713923212 145.1832271536891 964.7171022153398 # Ar
1845 1845 1 0.0 304.22575208945807 704.0243395532198 938.7790259351858 # Ar
1846 1846 1 0.0 895.9304661628512 377.0294910865348 939.5097811493608 # Ar
1847 1847 1 0.0 158.93450480986633 351.27233214552166 941.5310832704023 # Ar
1848 1848 1 0.0 205.53351791875878 880.5328483041476 965.5864853452434 # Ar
1849 1849 1 0.0 611.8210279850841 260.2041872520486 933.1450469501783 # Ar
1850 1850 1 0.0 544.1940367193653 733.3922401653243 836.1243949983495 # Ar
1851 1851 1 0.0 709.4635105634213 699.0660270433634 843.0967782594255 # Ar
1852 1852 1 0.0 312.9074740580633 965.9998615478348 159.84813901432182 # Ar
1853 1853 1 0.0 752.9454701581183 844.0768149803467 307.33121637932146 # Ar
1854 1854 1 0.0 725.7154563687575 467.50740428084384 364.0393112077979 # Ar
1855 1855 1 0.0 664.8600287315775 401.2526116287781 814.4077507370844 # Ar
1856 1856 1 0.0 194.73888470373186 196.5785791013241 27.095343577967757 # Ar
1857 1857 1 0.0 889.0001785743373 861.0753351755111 412.5694976717115 # Ar
1858 1858 1 0.0 966.3617557170279 645.0428608576425 19.13264216482729 # Ar
1859 1859 1 0.0 42.50413261151154 356.5625544935393 214.76020124398522 # Ar
1860 1860 1 0.0 165.13609899061808 36.35044247466244 897.4267976027996 # Ar
1861 1861 1 0.0 910.3311433518584 1017.0459227314668 7.818050358945732 # Ar
1862 1862 1 0.0 580.3415106861503 22.722291388812966 505.68736583261733 # Ar
1863 1863 1 0.0 79.24506544475858 303.11295557689124 600.3570253039549 # Ar
1864 1864 1 0.0 444.5153370715758 597.3464019522773 909.6945442193129 # Ar
1865 1865 1 0.0 892.8903741148628 920.5766172281317 956.8178692115026 # Ar
1866 1866 1 0.0 629.0210905220276 292.83808461504725 285.60603444714735 # Ar
1867 1867 1 0.0 143.19167559709385 248.55297093661966 959.6760171439046 # Ar
1868 1868 1 0.0 1017.9509446075533 27.044177484089616 7.523306483501056 # Ar
1869 1869 1 0.0 765.123735475374 741.1962230540659 777.5245934979064 # Ar
1870 1870 1 0.0 608.365059167975 992.1578490610946 433.0330101209012 # Ar
1871 1871 1 0.0 770.2827727995184 294.7881644807929 427.72461810996947 # Ar
1872 1872 1 0.0 190.3716843549143 254.90381957466587 624.7042904695627 # Ar
1873 1873 1 0.0 826.0569539477556 449.69061837926466 891.8958495552531 # Ar
1874 1874 1 0.0 98.61303487926449 176.2619472871225 524.9354235647354 # Ar
1875 1875 1 0.0 341.5244811839313 660.5204354811807 720.1655566908873 # Ar
1876 1876 1 0.0 348.3460090030358 1004.688438787873 445.99885475679247 # Ar
1877 1877 1 0.0 575.0331162868431 798.41453956306 35.15815889339692 # Ar
1878 1878 1 0.0 6.1587336092361555 229.7159685893342 796.2205454910007 # Ar
1879 1879 1 0.0 839.8602577090321 419.4065097174136 197.86501820554955 # Ar
1880 1880 1 0.0 521.9340421851997 368.888322184024 22.31568098730778 # Ar
1881 1881 1 0.0 915.9225712434614 523.1597404509032 358.1829445896709 # Ar
1882 1882 1 0.0 27.162703023886202 236.39268173417025 317.70206648635656 # Ar
1883 1883 1 0.0 765.6548262146835 217.2344543648249 425.04683496697083 # Ar
1884 1884 1 0.0 738.5509952921791 819.1614250466503 378.7090131270295 # Ar
1885 1885 1 0.0 343.7436582666105 314.22124653486503 407.41109551332414 # Ar
1886 1886 1 0.0 306.1600852166386 740.4265651526523 358.11260332725595 # Ar
1887 1887 1 0.0 983.1738343758242 106.51480300605617 852.5470080980172 # Ar
1888 1888 1 0.0 953.2833420706168 184.00515017831523 823.9859128203459 # Ar
1889 1889 1 0.0 166.37734080032192 868.5560808334548 146.1008044425098 # Ar
1890 1890 1 0.0 393.3411222707065 915.768828018459 588.1793566786832 # Ar
1891 1891 1 0.0 734.5687059735019 303.8009134816116 808.6410308328797 # Ar
1892 1892 1 0.0 376.4857193037574 28.32932296146416 128.2769542861887 # Ar
1893 1893 1 0.0 778.1041391392982 639.4357692875177 884.0494247667174 # Ar
1894 1894 1 0.0 652.0628767224556 434.9431899588163 1003.300876015294 # Ar
1895 1895 1 0.0 554.6917047927151 289.47938532970244 631.815753417086 # Ar
1896 1896 1 0.0 523.9949460084885 114.76479344765544 216.7494361950127 # Ar
1897 1897 1 0.0 327.6104406175158 606.7443764307669 948.2965630604511 # Ar
1898 1898 1 0.0 38.70258096767649 521.6076914781689 810.0429444897804 # Ar
1899 1899 1 0.0 153.047791861187 132.19599355397725 524.1543856277924 # Ar
1900 1900 1 0.0 451.3613265957843 375.8797315548053 154.71693458301547 # Ar
1901 1901 1 0.0 442.3942074727743 990.4393868277969 433.0185701426311 # Ar
1902 1902 1 0.0 803.289911082324 718.2548420913995 884.9359959112365 # Ar
1903 1903 1 0.0 619.9674513081151 257.3622986600705 1020.8560205549666 # Ar
1904 1904 1 0.0 421.3855892529898 123.06614246718368 542.6697460560041 # Ar
1905 1905 1 0.0 576.4926735149874 939.7493076562414 196.6632977361011 # Ar
1906 1906 1 0.0 635.5597911782584 3.126662396091718 572.6771494895722 # Ar
1907 1907 1 0.0 3.7363895398341933 213.36048474032884 395.33045344654715 # Ar
1908 1908 1 0.0 475.86594286869905 660.0266317812807 617.5918363106092 # Ar
1909 1909 1 0.0 252.95230472823218 373.4399098413135 53.14348973091244 # Ar
1910 1910 1 0.0 425.23146815393915 120.79601681042048 930.4981130095072 # Ar
1911 1911 1 0.0 446.62155052679657 327.6175696025459 83.9919298877651 # Ar
1912 1912 1 0.0 953.6061289368263 337.7503358268524 22.156746656798013 # Ar
1913 1913 1 0.0 751.0305019317999 728.6687348460378 1015.1466245173715 # Ar
1914 1914 1 0.0 802.5793827077131 416.97996517551184 986.2008070830599 # Ar
1915 1915 1 0.0 926.7937986487617 923.7094403780451 76.76195406105674 # Ar
1916 1916 1 0.0 650.3281658939044 760.3357744051464 335.7479472462053 # Ar
1917 1917 1 0.0 527.3041927089747 432.9265854150172 617.7864616054638 # Ar
1918 1918 1 0.0 38.3677136576793 322.70765368296725 17.96568939591128 # Ar
1919 1919 1 0.0 98.09646973813345 662.3252308044872 183.51444116124773 # Ar
1920 1920 1 0.0 362.0343357066143 768.7285148799687 1027.9670475817115 # Ar
1921 1921 1 0.0 373.4269873895268 422.36440337405435 257.96906158682185 # Ar
1922 1922 1 0.0 171.4995998239028 531.9596657645179 161.952911784356 # Ar
1923 1923 1 0.0 728.0582834167916 383.64223931155294 420.3806335708863 # Ar
1924 1924 1 0.0 314.4158933637203 951.5618847119765 619.1793240493521 # Ar
1925 1925 1 0.0 601.0146160249143 51.763306023076375 694.2691146397625 # Ar
1926 1926 1 0.0 814.1917453272569 166.4304666530011 605.6579836229384 # Ar
1927 1927 1 0.0 537.4261586593351 368.828385444263 67.17705481200514 # Ar
1928 1928 1 0.0 229.4416031576444 634.5381296811465 837.1278551563114 # Ar
1929 1929 1 0.0 491.99814392461724 921.0296947230706 176.66320122139797 # Ar
1930 1930 1 0.0 336.69884155723776 894.7980721622105 684.7049028495828 # Ar
1931 1931 1 0.0 368.24449359001756 567.0027026713007 735.2291343360932 # Ar
1932 1932 1 0.0 970.9614890419391 785.9737658994352 991.4151063741484 # Ar
1933 1933 1 0.0 678.0588789129583 338.04910727708943 187.6751737232345 # Ar
1934 1934 1 0.0 628.8895965251936 384.5859351767768 687.5458078916461 # Ar
1935 1935 1 0.0 198.36777204060883 804.6512446215402 979.3553188124497 # Ar
1936 1936 1 0.0 796.8906562321756 582.9628204893523 983.0442827717177 # Ar
1937 1937 1 0.0 42.79917566899443 437.1037604920257 953.744202664117 # Ar
1938 1938 1 0.0 165.26973400277043 785.8124300144559 383.2956149296601 # Ar
1939 1939 1 0.0 865.7977769939473 139.74567288053987 58.632895683608716 # Ar
1940 1940 1 0.0 696.1131686945745 924.9722535754287 809.6807376107646 # Ar
1941 1941 1 0.0 800.8964669457629 138.0076197286973 661.0076367491233 # Ar
1942 1942 1 0.0 796.1089493914483 990.4358559640376 624.2758576267712 # Ar
1943 1943 1 0.0 832.2396519888382 923.0935003738994 1025.1063768458919 # Ar
1944 1944 1 0.0 907.8890229579125 751.7957511673435 479.34831650625233 # Ar
1945 1945 1 0.0 129.29257797281562 426.4558587618037 285.1077155082404 # Ar
1946 1946 1 0.0 454.4001967027951 9.046900907815408 794.1180895015442 # Ar
1947 1947 1 0.0 945.855644516726 1010.9550175449675 686.0439453423401 # Ar
1948 1948 1 0.0 211.6604921136884 590.0183767746951 296.9804159197253 # Ar
1949 1949 1 0.0 959.7576199192864 592.1328030903386 702.2822997668566 # Ar
1950 1950 1 0.0 75.41815535085571 546.122538439986 616.9434511248733 # Ar
1951 1951 1 0.0 914.5917566024318 225.69969571991012 884.0669892834394 # Ar
1952 1952 1 0.0 982.9702485443338 100.68053218209992 89.01374419295122 # Ar
1953 1953 1 0.0 489.04779072970587 603.3516649500667 554.1196807540159 # Ar
1954 1954 1 0.0 163.19179063111457 331.28078370355837 823.8708296928083 # Ar
1955 1955 1 0.0 811.5354971158923 903.0414554618133 296.1657202758003 # Ar
1956 1956 1 0.0 898.9189275953867 359.4883495977331 548.0789089945263 # Ar
1957 1957 1 0.0 527.0212945599209 728.262651782456 893.3170069798114 # Ar
1958 1958 1 0.0 325.35000456979145 55.53625952958694 648.9699770287825 # Ar
1959 1959 1 0.0 906.9924327089466 547.5188829875468 338.1072668171855 # Ar
1960 1960 1 0.0 241.0042577087636 510.80598771255507 603.6753345304785 # Ar
1961 1961 1 0.0 521.5454145340964 412.2818055293122 850.5010275725137 # Ar
1962 1962 1 0.0 10.996733570593452 909.7347458354286 123.05232198750161 # Ar
1963 1963 1 0.0 967.4541170850525 199.33904059580115 627.0451292059478 # Ar
1964 1964 1 0.0 87.7325394086224 972.9094068599102 626.179282895606 # Ar
1965 1965 1 0.0 845.2873377681275 904.9326961023299 415.88587694795353 # Ar
1966 1966 1 0.0 205.62636367947314 839.868135077881 940.995920376106 # Ar
1967 1967 1 0.0 274.00837199895585 427.62829629783033 877.7778099944085 # Ar
1968 1968 1 0.0 94.3674096273081 879.21039263945 355.32538869624346 # Ar
1969 1969 1 0.0 667.0086669266815 1022.664743456581 630.274011843721 # Ar
1970 1970 1 0.0 423.27141634435554 793.242210367479 511.1897295610135 # Ar
1971 1971 1 0.0 309.3717005904154 752.5462440252521 868.5627049801694 # Ar
1972 1972 1 0.0 412.95121066265045 73.4995792767789 487.6601577425378 # Ar
1973 1973 1 0.0 376.4316272126521 130.96421410888905 125.93404005873666 # Ar
1974 1974 1 0.0 689.9278658330943 911.1727959828515 7.466623318662426 # Ar
1975 1975 1 0.0 151.16095808900786 900.9258446293481 849.3651526550644 # Ar
1976 1976 1 0.0 498.9899112100192 221.4160871781522 530.4684512347905 # Ar
1977 1977 1 0.0 11.938134701568487 426.3195204584855 847.0022772552414 # Ar
1978 1978 1 0.0 763.2743013921048 755.3156840402218 980.8148060668409 # Ar
1979 1979 1 0.0 795.8241146630352 645.3319647840701 552.2598600233775 # Ar
1980 1980 1 0.0 43.80214564696006 780.0643476156798 311.501146633475 # Ar
1981 1981 1 0.0 1016.9522683359462 308.5825446210827 609.5552153810751 # Ar
1982 1982 1 0.0 662.6964865979015 777.5111278704113 182.13206316170294 # Ar
1983 1983 1 0.0 138.17293286972247 438.7098851220981 987.1777606769461 # Ar
1984 1984 1 0.0 919.5080143210455 501.434029070269 936.1871374320923 # Ar
1985 1985 1 0.0 705.9837805187514 394.16268927302247 84.47455990649786 # Ar
1986 1986 1 0.0 515.4196197482377 484.4305705179025 340.2011392872493 # Ar
1987 1987 1 0.0 281.0367323932514 109.80390824161165 608.1212292364254 # Ar
1988 1988 1 0.0 917.5893499017533 883.8127319267282 535.1037431216635 # Ar
1989 1989 1 0.0 551.8972761024007 827.521266666412 851.8022275567778 # Ar
1990 1990 1 0.0 47.54487191151674 113.42187015085347 332.7201659566699 # Ar
1991 1991 1 0.0 898.3947843878925 393.18986565473745 827.3798205241199 # Ar
1992 1992 1 0.0 1027.5458607550988 439.9286717852784 154.83388132867307 # Ar
1993 1993 1 0.0 521.1784874218206 179.59451304354332 682.4339723280218 # Ar
1994 1994 1 0.0 542.756330213745 329.9588963812728 960.9437936700507 # Ar
1995 1995 1 0.0 444.37212373995914 198.10758634604474 819.3407526122172 # Ar
1996 1996 1 0.0 961.9373299679522 1014.2885988740816 147.94158615200558 # Ar
1997 1997 1 0.0 447.9330945926882 646.8136498135925 52.68816618888 # Ar
1998 1998 1 0.0 170.34590887565153 769.944221387346 852.0750687526838 # Ar
1999 1999 1 0.0 861.2430872449434 266.85483815744976 519.7668180023026 # Ar
2000 2000 1 0.0 575.8286110207414 918.919502164082 44.99112440934102 # Ar
