LAMMPS data file -- atom_style full -- generated by chemfiles
150 atoms
0 bonds
0 angles
0 dihedrals
0 impropers
2 atom types
0 bond types
0 angle types
0 dihedral types
0 improper types
0.00000000 2130.57685 xlo xhi
0.00000000 2130.57685 ylo yhi
0.00000000 2130.57685 zlo zhi

# Pair Coeffs
# 1 Xe
# 2 Xe+

Masses

1 131.293 # Xe
2 131.29 # Xe+

Atoms # full

1 1 1 0.0 1396.504898029174 848.5385766323548 120.97874595443136 # Xe
2 2 1 0.0 1783.6182150089876 586.6639003773324 429.70066938870866 # Xe
3 3 1 0.0 110.94403950840794 539.3484547977251 1471.4098793786757 # Xe
4 4 1 0.0 828.1893314085079 238.20240249284913 1079.573792868475 # Xe
5 5 1 0.0 1369.317371102135 620.2286701110191 15.765009819006561 # Xe
6 6 1 0.0 1772.1634778448424 419.2048569401281 1457.94387896081 # Xe
7 7 1 0.0 1479.8532097223006 1188.0843158778175 1661.2721736520016 # Xe
8 8 1 0.0 73.32280562286469 1.4169699360091306 1293.764195302268 # Xe
9 9 1 0.0 1160.640161743561 417.61111683542987 976.9869839870744 # Xe
10 10 1 0.0 1496.3248706465877 1125.23008402527 1745.3560715016117 # Xe
11 11 1 0.0 522.1269802926006 103.4452893547606 1510.008745160032 # Xe
12 12 1 0.0 323.7230189184421 1372.7862302966328 1692.241891751312 # Xe
13 13 1 0.0 1697.3597645226037 314.3094038951185 70.02632042786672 # Xe
14 14 1 0.0 2122.781461608045 776.9989948461538 251.21840825092517 # Xe
15 15 1 0.0 632.1301470269079 665.9910933569871 1886.0502422718907 # Xe
16 16 1 0.0 313.65599195965433 1136.891760557474 1747.069460568199 # Xe
17 17 1 0.0 768.855651361646 2124.322632856724 47.24394267407456 # Xe
18 18 1 0.0 860.737157034943 78.98719930278946 1290.0665033057403 # Xe
19 19 1 0.0 986.4142284571316 744.0308915060656 1541.5790814245804 # Xe
20 20 1 0.0 1925.7342698635737 1495.0930031019209 1383.95699287052 # Xe
21 21 1 0.0 1804.6754057153535 795.8895051168873 1151.9018817381968 # Xe
22 22 1 0.0 546.0156362329896 1825.1816810893126 480.37120643154077 # Xe
23 23 1 0.0 2030.4228290806693 1430.2556096766575 1305.209437772429 # Xe
24 24 1 0.0 2039.300902048104 2034.829648469746 1377.4240274524745 # Xe
25 25 1 0.0 2123.100941531733 1857.7730589138346 1290.539354375986 # Xe
26 26 1 0.0 344.62717684829016 989.278252493504 452.6049290684873 # Xe
27 27 1 0.0 2069.210667213443 543.3016135601474 1575.6358651578068 # Xe
28 28 1 0.0 1954.0016342869799 2053.036374240459 1178.0280171788654 # Xe
29 29 1 0.0 1467.0692459942538 2099.691164667536 487.27835426736226 # Xe
30 30 1 0.0 872.0688649280245 173.18300265974042 2036.994914313905 # Xe
31 31 1 0.0 1847.227002151567 496.8613457473637 95.88675388642096 # Xe
32 32 1 0.0 1148.9277627840781 249.1060741526918 94.74852874637867 # Xe
33 33 1 0.0 47.24042758453376 1740.5370715785407 1218.2034336974366 # Xe
34 34 1 0.0 871.8327929175874 1248.805307195351 1709.0059823374195 # Xe
35 35 1 0.0 1017.4696690776383 519.779972877866 1177.218696750864 # Xe
36 36 1 0.0 571.5973562711421 1585.9706261677425 219.29905289904812 # Xe
37 37 1 0.0 465.6409463060431 1910.9764212237124 978.4957967704531 # Xe
38 38 1 0.0 1226.4597358918243 1952.8612671807623 89.9176201610954 # Xe
39 39 1 0.0 292.2564167940183 1714.5635835895234 1615.3996520128858 # Xe
40 40 1 0.0 2129.3995008797274 354.7517468905712 1481.6897607208332 # Xe
41 41 1 0.0 113.71635238141216 773.1581809322153 919.010836448145 # Xe
42 42 1 0.0 1652.3602511376146 1949.7796261899819 2052.0461989795353 # Xe
43 43 1 0.0 968.6043449886157 1653.1649140501263 752.013494862569 # Xe
44 44 2 0.0 1275.3242223643226 1894.8528092728109 1946.954738861691 # Xe+
45 45 2 0.0 950.0144181129056 726.4343006336973 886.7301725353807 # Xe+
46 46 2 0.0 1347.8654458562926 28.212617747406274 1296.4549967115975 # Xe+
47 47 2 0.0 813.8793602337905 1593.9565304210641 701.7316099622632 # Xe+
48 48 2 0.0 284.0367356373223 1731.4335594753481 2090.610401023312 # Xe+
49 49 2 0.0 1133.718494891464 232.0149304854705 1724.1092413895271 # Xe+
50 50 2 0.0 1477.4791526480092 1921.9874309296893 110.67894119504928 # Xe+
51 51 2 0.0 228.01119436781983 401.5277710310977 1430.293171665526 # Xe+
52 52 2 0.0 1244.0872900740428 914.2914182592657 1394.1286160248421 # Xe+
53 53 2 0.0 1331.473282745855 552.3018195608848 782.3377678799718 # Xe+
54 54 2 0.0 1091.6450664961014 1758.4177559136965 610.8119800833177 # Xe+
55 55 2 0.0 1915.7875760943277 1481.5868832937329 827.8727293472424 # Xe+
56 56 2 0.0 861.7688152688831 122.06668467012183 1927.7949491978438 # Xe+
57 57 2 0.0 1772.3400781734354 1232.9782753412978 1215.9747804720155 # Xe+
58 58 2 0.0 903.2145110026884 1922.3999973970808 154.52725382845267 # Xe+
59 59 2 0.0 1571.2768528250597 1381.1969540173338 734.5888905927873 # Xe+
60 60 2 0.0 586.4010291821759 270.8120865282918 1270.0614434480926 # Xe+
61 61 2 0.0 1350.3940783927337 112.53759558832611 2021.4557175732912 # Xe+
62 62 2 0.0 1761.9306506042833 1995.859650191485 860.6383836823528 # Xe+
63 63 2 0.0 1253.807279711921 447.95175266478765 1877.339734285788 # Xe+
64 64 2 0.0 1041.797757922379 1424.1802535934287 1709.5913304730968 # Xe+
65 65 2 0.0 1871.862838411928 380.7405418137791 1263.3151474953308 # Xe+
66 66 2 0.0 299.7730800361702 1685.2437674178334 277.80677085488395 # Xe+
67 67 2 0.0 2111.0901209353647 1086.287848024631 238.69968589734177 # Xe+
68 68 2 0.0 133.68876265963397 1296.7482232892933 635.9824164575422 # Xe+
69 69 2 0.0 1044.1765270907915 1600.7953230310284 1822.5850747279987 # Xe+
70 70 2 0.0 931.6294586976794 907.7489775193368 592.2901822817475 # Xe+
71 71 2 0.0 1504.0382389053593 1212.7410033066753 1100.3371645369646 # Xe+
72 72 2 0.0 257.96305232373436 1510.2415907998432 156.93614998499572 # Xe+
73 73 2 0.0 854.9601123760319 86.95161332351445 948.4725328503756 # Xe+
74 74 2 0.0 1350.3581003105603 1970.5012601529872 320.9641610848344 # Xe+
75 75 2 0.0 2091.2254323600673 1183.141194692358 576.2467982339942 # Xe+
76 76 2 0.0 1527.816449836694 1610.7770457697623 1226.2053843697236 # Xe+
77 77 2 0.0 993.4245818675885 452.4672457923009 1354.1632676894562 # Xe+
78 78 2 0.0 118.2514001010995 432.1119798634135 292.9822783439283 # Xe+
79 79 2 0.0 24.838382871874998 1965.9808141814367 1673.8441228696424 # Xe+
80 80 2 0.0 267.1234281345764 1992.8348138264432 1305.4698472760517 # Xe+
81 81 2 0.0 1693.8623623937442 212.0553089844359 1400.5957239317895 # Xe+
82 82 2 0.0 331.99262112697204 1950.9600859655777 596.4063842318185 # Xe+
83 83 2 0.0 180.1699767870776 646.3792298413358 457.23945739506894 # Xe+
84 84 2 0.0 1850.8124702750029 859.7103873514544 414.5287055894411 # Xe+
85 85 2 0.0 450.69896929740145 2117.766491555834 449.4958618664673 # Xe+
86 86 2 0.0 522.496543757882 1425.7535147988795 723.6172235703956 # Xe+
87 87 2 0.0 1232.3277445036535 54.52074773128643 1997.0220905710917 # Xe+
88 88 2 0.0 1424.868265172964 736.8371030852171 1744.9734733305143 # Xe+
89 89 2 0.0 1957.050783593861 1270.5044114809211 216.9370221429811 # Xe+
90 90 2 0.0 992.2172576586117 1696.7954684752044 489.1641398316583 # Xe+
91 91 2 0.0 371.5430899439108 1701.2845489071121 264.3495009099678 # Xe+
92 92 2 0.0 794.1179628005682 1915.073424362916 2037.4835030268832 # Xe+
93 93 2 0.0 1221.8695154413087 2063.9082308547504 853.6523135228426 # Xe+
94 94 2 0.0 1313.5281968089064 1561.6427546061718 1089.7307329002904 # Xe+
95 95 2 0.0 739.3253025899811 285.0463794076986 918.4466080634514 # Xe+
96 96 2 0.0 354.93993973162054 1870.78153589412 1309.8911281680093 # Xe+
97 97 2 0.0 106.23726998137744 2113.680405856787 1625.6638784472657 # Xe+
98 98 2 0.0 732.8634553573095 1428.8448168257864 1001.6253639965953 # Xe+
99 99 2 0.0 647.8250139431058 527.356398810557 736.4627730923304 # Xe+
100 100 2 0.0 1112.630300085373 1125.3714078108112 1641.4901045318834 # Xe+
101 101 2 0.0 158.60236296291146 1041.8389687730194 1082.9535881913416 # Xe+
102 102 2 0.0 1378.1907340601306 808.7789433417478 1367.0514750002305 # Xe+
103 103 2 0.0 1490.5487182594406 1594.6603429284557 615.3849234009822 # Xe+
104 104 2 0.0 1459.9064125353602 1418.1782853446566 1125.6466074136497 # Xe+
105 105 2 0.0 475.50044773557556 2069.2403600277553 2036.8766217658033 # Xe+
106 106 2 0.0 1661.334327497216 1171.1147903407502 1997.3752591413815 # Xe+
107 107 2 0.0 1204.2286403691255 901.8471162567025 1580.652379533593 # Xe+
108 108 2 0.0 1900.0985478253422 1480.7893211414269 588.5140412055962 # Xe+
109 109 2 0.0 787.3305373730784 853.6143484866955 1478.523279317572 # Xe+
110 110 2 0.0 1873.5105341488434 587.5256671572574 1593.6011981213226 # Xe+
111 111 2 0.0 1407.3175155979757 604.2563451785771 832.5844419341391 # Xe+
112 112 2 0.0 379.03881457704404 1989.3186806393721 1237.555012438901 # Xe+
113 113 2 0.0 1420.9694234656154 885.1170704423919 339.8566001961778 # Xe+
114 114 2 0.0 851.1690155453488 1125.0867241706414 791.1230065263426 # Xe+
115 115 2 0.0 1220.2494283933456 1321.1374099410968 657.2459878669899 # Xe+
116 116 2 0.0 412.1727493838497 919.202601144515 329.9138454865477 # Xe+
117 117 2 0.0 1704.5990140086212 570.5716347598621 1258.9325621345763 # Xe+
118 118 2 0.0 53.86821628744042 1796.6072486632877 522.420330534841 # Xe+
119 119 2 0.0 647.8927563109114 978.5035894192059 197.41220084831374 # Xe+
120 120 2 0.0 675.0923802268161 341.12043004578817 852.0024382110932 # Xe+
121 121 2 0.0 409.583412505476 1294.3948169656169 508.9662010799632 # Xe+
122 122 2 0.0 1902.5416143328196 1875.2185025230547 1094.4853249837192 # Xe+
123 123 2 0.0 956.9956772919193 516.557955653524 683.759573960235 # Xe+
124 124 2 0.0 158.3087095113064 1758.5923504930938 1193.2363648736732 # Xe+
125 125 2 0.0 490.8959139228672 993.9377084380509 346.21070858006 # Xe+
126 126 2 0.0 267.6857114671917 844.1984685488733 1177.905004585465 # Xe+
127 127 2 0.0 959.4862288153535 787.3934672587831 2009.0306772477895 # Xe+
128 128 2 0.0 308.61883224603673 160.08981313709702 1954.7439959069575 # Xe+
129 129 2 0.0 799.3658424364929 775.9670522157925 1949.2368526299415 # Xe+
130 130 2 0.0 231.86053274651053 2118.2566743469997 1630.6327201680926 # Xe+
131 131 2 0.0 615.6972460586102 1721.4487549355388 901.256804559746 # Xe+
132 132 2 0.0 78.46390921685908 854.6569028130342 210.9341997003585 # Xe+
133 133 2 0.0 779.5213626583514 1746.1046230969416 2037.7696612753066 # Xe+
134 134 2 0.0 1571.4817297660336 334.7878919864623 1176.435430873236 # Xe+
135 135 2 0.0 100.09073913269332 71.56927600175572 1111.9452049018848 # Xe+
136 136 2 0.0 1310.3684552277666 1474.5391330458408 1433.610562614492 # Xe+
137 137 2 0.0 1796.2092873930237 1472.7758350812019 1670.7432571603697 # Xe+
138 138 2 0.0 1758.0681211432516 1778.348221843308 729.8762148766433 # Xe+
139 139 2 0.0 33.58431430633646 829.7053297740076 1069.2473168066922 # Xe+
140 140 2 0.0 277.3689165318577 2082.1164070685186 1763.6306963641948 # Xe+
141 141 2 0.0 1461.8076834131775 681.7942690282682 860.8426980754588 # Xe+
142 142 2 0.0 68.2607661610386 553.2360883054047 365.5847151446198 # Xe+
143 143 2 0.0 938.5618503640579 1843.6897844698744 1195.2092139794845 # Xe+
144 144 2 0.0 336.79030514765907 2105.2736789563564 1381.2564557616174 # Xe+
145 145 2 0.0 430.5511805569115 1527.5107473385417 1150.9482646200918 # Xe+
146 146 2 0.0 1207.269427378987 954.8919402217969 1356.5437325862488 # Xe+
147 147 2 0.0 169.93302902797538 1738.898496696037 925.8382922297092 # Xe+
148 148 2 0.0 2093.2544061249732 1388.8373646733435 255.1565863382928 # Xe+
149 149 2 0.0 471.465593039484 1220.2206775988454 447.1286788006615 # Xe+
150 150 2 0.0 1849.0692747617293 1051.809923655378 812.5713967769287 # Xe+
