LAMMPS data file -- atom_style full -- generated by chemfiles
150 atoms
0 bonds
0 angles
0 dihedrals
0 impropers
2 atom types
0 bond types
0 angle types
0 dihedral types
0 improper types
0.00000000 958.758975 xlo xhi
0.00000000 958.758975 ylo yhi
0.00000000 958.758975 zlo zhi

# Pair Coeffs
# 1 Ar
# 2 Ar+

Masses

1 39.948 # Ar
2 39.948 # Ar+

Atoms # full

1 1 1 0.0 629.988777356362 798.6840581953545 918.8219595099362 # Ar
2 2 1 0.0 841.7647681960772 839.6013046417121 403.21540463885543 # Ar
3 3 1 0.0 582.7651048079407 724.4131535989104 81.55204958537963 # Ar
4 4 1 0.0 350.73026669138227 925.5920152616775 648.1363626471762 # Ar
5 5 1 0.0 45.06510284205889 594.2465033040515 347.7368592887919 # Ar
6 6 1 0.0 580.0506355243579 683.049725113309 671.049718458717 # Ar
7 7 1 0.0 419.9083155426801 924.6747649639562 821.9010832665019 # Ar
8 8 1 0.0 425.2806436020576 601.9139732448803 501.5753866928648 # Ar
9 9 1 0.0 655.3703004933004 57.12380384528371 292.4059593339701 # Ar
10 10 1 0.0 148.29856946702878 46.86046560624844 684.4747809498776 # Ar
11 11 1 0.0 776.9434682003933 244.48797070776936 264.4752227731999 # Ar
12 12 1 0.0 899.651602783118 598.6802042460407 673.5028293743214 # Ar
13 13 1 0.0 71.82916319396908 806.8657771923247 260.54307151176806 # Ar
14 14 1 0.0 780.4917851216588 832.5059599530025 163.10464821269267 # Ar
15 15 1 0.0 761.2637951735803 468.0793885951427 453.57503266777513 # Ar
16 16 1 0.0 563.1404912535245 568.7042413662363 892.9169987570804 # Ar
17 17 1 0.0 648.1729291346059 290.6733993270413 65.56811955328929 # Ar
18 18 1 0.0 538.8837508213944 803.5131950345847 576.3870464276035 # Ar
19 19 1 0.0 280.9085164495542 890.5280651562458 302.7414700751769 # Ar
20 20 1 0.0 56.994479446425494 181.2845045498923 833.3893372322573 # Ar
21 21 1 0.0 26.837860202890287 860.4371176430253 803.3328141943365 # Ar
22 22 1 0.0 447.2667383788333 224.74892506719846 373.30530193235984 # Ar
23 23 1 0.0 460.12550235765923 727.2338422916887 295.4462591812568 # Ar
24 24 1 0.0 395.16116637633286 345.2700855206702 741.0562725317225 # Ar
25 25 1 0.0 413.18672953124405 297.4211037078786 50.1379887006867 # Ar
26 26 1 0.0 812.756499761452 563.7867010275984 639.2097027798621 # Ar
27 27 1 0.0 926.6704684126854 302.1570205770789 600.9432311827649 # Ar
28 28 1 0.0 796.9823078046377 88.29675263546757 251.35497724956153 # Ar
29 29 1 0.0 605.9144894112583 94.52312966551584 62.69271167339305 # Ar
30 30 1 0.0 556.3356114929736 300.79899977174483 615.8191795107324 # Ar
31 31 1 0.0 216.2698824448197 806.2361552114448 87.12116231281735 # Ar
32 32 1 0.0 366.9992433584383 363.61970366063053 631.5892251748605 # Ar
33 33 1 0.0 117.20031332121904 55.20516670711721 875.3936710648092 # Ar
34 34 1 0.0 948.8917092946856 833.9958461500845 709.0403895690321 # Ar
35 35 1 0.0 423.543188338666 767.7339458628982 60.68090877879833 # Ar
36 36 1 0.0 861.1603884324635 316.15944182280845 801.0230220440698 # Ar
37 37 1 0.0 739.3737337455165 481.52826346094287 566.5787528502831 # Ar
38 38 1 0.0 740.5128368817929 239.58557993099467 782.591019142194 # Ar
39 39 1 0.0 259.58405026561155 826.1470781280825 702.2140126156894 # Ar
40 40 1 0.0 717.5703609896216 196.20067747861182 416.031123445221 # Ar
41 41 1 0.0 882.1775305711236 244.69921510219476 423.04307996569975 # Ar
42 42 1 0.0 944.2424784489006 592.4072642046821 862.8906256020898 # Ar
43 43 1 0.0 291.70862071838195 732.1998702184693 919.1770975168399 # Ar
44 44 1 0.0 580.8969482575811 229.76012175117506 152.4562620533059 # Ar
45 45 1 0.0 528.5508462967164 130.75257993659753 882.4995196506123 # Ar
46 46 1 0.0 432.9884867997292 121.13969122785703 346.04765420423723 # Ar
47 47 1 0.0 316.3739103598692 240.30949426994306 461.8730829921237 # Ar
48 48 1 0.0 865.631256301423 611.0596056510201 76.0327964160539 # Ar
49 49 1 0.0 490.84296232468114 800.6222740627924 30.846928694976395 # Ar
50 50 1 0.0 923.4670080210133 453.7396161736131 175.98886369328307 # Ar
51 51 1 0.0 720.6272892282066 581.6238208169927 339.45934886441063 # Ar
52 52 1 0.0 762.2863502425448 348.490800886028 114.70562243499157 # Ar
53 53 1 0.0 661.3128617983872 363.5459911264572 818.1045393656218 # Ar
54 54 1 0.0 294.09056841217443 187.96012318087818 408.9994359692188 # Ar
55 55 1 0.0 269.886068445634 822.075809124906 519.5873986903583 # Ar
56 56 1 0.0 517.1898896865869 715.2193117114132 462.05084988555654 # Ar
57 57 1 0.0 329.86677634915 840.3050542014322 712.8553574172461 # Ar
58 58 1 0.0 70.33313345697816 195.02817702458913 187.65874525193598 # Ar
59 59 1 0.0 252.2773241279696 167.2750061509989 40.040968234571615 # Ar
60 60 1 0.0 268.39894712647043 487.87140598566685 331.18815492045627 # Ar
61 61 1 0.0 301.59676987387036 700.8375221812695 697.5654178010315 # Ar
62 62 1 0.0 369.81222333076397 757.9152927367171 865.549063078754 # Ar
63 63 1 0.0 414.64679771751287 675.4443519151976 421.2074928682182 # Ar
64 64 1 0.0 366.5714628864823 584.1086530579752 561.7852328789602 # Ar
65 65 1 0.0 450.29620878678406 240.25464997000978 909.4206642371541 # Ar
66 66 1 0.0 686.9015123061764 909.7431145177541 682.9333442210688 # Ar
67 67 1 0.0 668.1626858984478 924.8704551089534 714.6684530225027 # Ar
68 68 1 0.0 900.8317218206049 400.55261371718905 417.2578142836447 # Ar
69 69 1 0.0 166.54841051415625 18.52717469128483 953.8287938565087 # Ar
70 70 1 0.0 608.4712372027271 659.8523164507317 211.66450674331526 # Ar
71 71 1 0.0 939.3273817503857 824.5291120151196 737.380138248085 # Ar
72 72 1 0.0 101.82729984420992 631.021383631438 716.770396155681 # Ar
73 73 1 0.0 55.73970299689117 769.1289083040231 503.54483154072204 # Ar
74 74 1 0.0 44.60241977716379 859.4734404010334 786.3714264962348 # Ar
75 75 1 0.0 41.54017450360857 720.5844304248228 751.7130201685384 # Ar
76 76 1 0.0 691.9637082527483 463.87839039117966 457.96384866740726 # Ar
77 77 1 0.0 890.6303005568922 584.7540164259183 583.6745994739587 # Ar
78 78 1 0.0 532.4862325802787 454.81539006476316 851.2231964922591 # Ar
79 79 1 0.0 10.842409264042113 145.24417210171964 507.92985556261857 # Ar
80 80 1 0.0 662.003504233048 736.3934830254974 583.2265328699881 # Ar
81 81 1 0.0 77.5798620019508 39.33184688665298 652.1849519802236 # Ar
82 82 1 0.0 135.08637399029882 219.13478871353524 246.75974159838077 # Ar
83 83 1 0.0 802.1887911104652 952.5302902266927 644.4485283131012 # Ar
84 84 1 0.0 75.21130873917441 696.0947092280971 375.0025119852298 # Ar
85 85 1 0.0 725.7171022771175 433.9188171237605 809.1361305409333 # Ar
86 86 1 0.0 507.78597918750177 800.6571497106171 402.7063827229378 # Ar
87 87 1 0.0 714.4588114236989 349.50855698562435 304.1015644970674 # Ar
88 88 1 0.0 324.7637705408724 394.7013539243755 281.1832065081107 # Ar
89 89 1 0.0 106.02714531436055 14.110791347789808 513.540218540507 # Ar
90 90 1 0.0 724.5385896993206 576.5487712789868 2.7848451350256846 # Ar
91 91 1 0.0 347.78027465785306 610.8260469987094 340.42908837962045 # Ar
92 92 1 0.0 341.0820797593462 323.26365788624054 832.6311209656118 # Ar
93 93 1 0.0 839.0026860709631 261.27268788727145 799.0754995428375 # Ar
94 94 1 0.0 269.61070907661014 21.47093923601792 35.24261578845258 # Ar
95 95 1 0.0 631.6299555604672 657.9921456200167 277.91157509907947 # Ar
96 96 1 0.0 849.6589751903246 842.9425732828583 869.2942067297745 # Ar
97 97 1 0.0 148.16709429946573 10.00313734481106 230.53781310485414 # Ar
98 98 1 0.0 869.109390167731 650.3981722555653 286.67036874251744 # Ar
99 99 1 0.0 563.9756401117787 951.9409451164217 594.6449703471224 # Ar
100 100 1 0.0 918.6983469757334 697.7257867549197 673.1761433695149 # Ar
101 101 1 0.0 606.6701274393173 729.3599836596478 213.88470612008945 # Ar
102 102 2 0.0 44.76263733106063 719.5759598517521 180.09390054471547 # Ar+
103 103 2 0.0 697.3091452309936 850.282326828462 27.59866490645669 # Ar+
104 104 2 0.0 910.5064750951127 618.7366040507343 288.83807235996164 # Ar+
105 105 2 0.0 867.0040267200741 681.1802335618272 116.77879051957214 # Ar+
106 106 2 0.0 480.67266322079143 840.8074318755422 832.4378859193287 # Ar+
107 107 2 0.0 75.96772109737786 759.3721235342258 75.88177214033372 # Ar+
108 108 2 0.0 204.47756210330883 821.7580601813761 304.46528896880625 # Ar+
109 109 2 0.0 509.64823027707956 452.98949758120835 56.29876181137833 # Ar+
110 110 2 0.0 249.94131405483841 138.96466730746798 322.68558645776125 # Ar+
111 111 2 0.0 107.38653138932435 477.31855785424165 817.8632971910109 # Ar+
112 112 2 0.0 703.3847506455643 149.6680513581319 501.65025543411355 # Ar+
113 113 2 0.0 925.5433141368118 900.7937857207785 603.0400394969388 # Ar+
114 114 2 0.0 712.0806286515677 215.33250628812175 1.3610852603162644 # Ar+
115 115 2 0.0 392.4889518872669 749.8356855587996 166.66385306951682 # Ar+
116 116 2 0.0 282.4378294229414 170.911393296305 638.7441810263948 # Ar+
117 117 2 0.0 521.1411657914553 846.1993473525606 954.8027897427509 # Ar+
118 118 2 0.0 743.0257464018704 448.4383488995113 484.3541266175053 # Ar+
119 119 2 0.0 590.069912364194 649.7348294182092 711.6091208947969 # Ar+
120 120 2 0.0 188.19171630824061 0.9048228537939269 489.38143578634606 # Ar+
121 121 2 0.0 302.8943543939512 462.30465381644166 140.50550148696345 # Ar+
122 122 2 0.0 159.31624025550258 638.4429594616751 570.9605283376825 # Ar+
123 123 2 0.0 945.2430599884158 842.06365048102 749.8538312720192 # Ar+
124 124 2 0.0 464.366542319662 240.19388803427952 851.7451545811391 # Ar+
125 125 2 0.0 386.47082426831304 665.7790800099124 699.8720093247572 # Ar+
126 126 2 0.0 938.7303492438548 538.0506294797905 179.33891507765753 # Ar+
127 127 2 0.0 131.8095727865911 547.5087170544376 492.6146857033585 # Ar+
128 128 2 0.0 547.8338626220918 761.5815459943836 216.53791111723484 # Ar+
129 129 2 0.0 457.1301865977955 408.7514000710577 489.2502756736931 # Ar+
130 130 2 0.0 66.79658801941503 190.16474327867257 313.3774480755527 # Ar+
131 131 2 0.0 473.0356178628154 793.227776539543 55.26937597102846 # Ar+
132 132 2 0.0 654.8244627449413 719.151230976262 879.2119723171502 # Ar+
133 133 2 0.0 438.184195457749 573.2167212003413 475.76667194362545 # Ar+
134 134 2 0.0 932.0900986689355 468.3349585842182 588.7578064601227 # Ar+
135 135 2 0.0 107.0414808132949 11.97879496919465 689.957169915032 # Ar+
136 136 2 0.0 556.6305035234589 115.32019960836641 166.63625830429547 # Ar+
137 137 2 0.0 0.4033839004968606 426.6845172891679 341.0720123304054 # Ar+
138 138 2 0.0 746.7128161840938 330.7321714834748 335.58246230464954 # Ar+
139 139 2 0.0 294.1885561532884 218.05882418351604 394.5221916600875 # Ar+
140 140 2 0.0 367.0785534769487 479.44274107121186 442.3137320703284 # Ar+
141 141 2 0.0 165.73915868098467 711.9822598268314 292.0541427008951 # Ar+
142 142 2 0.0 882.7926324974604 613.5312517498584 93.79644093990011 # Ar+
143 143 2 0.0 173.43101980909475 439.54028715296226 387.79478969275715 # Ar+
144 144 2 0.0 95.92724205808189 583.3371817220851 515.4864235222385 # Ar+
145 145 2 0.0 538.6668996121116 623.0675352186959 530.1130375124052 # Ar+
146 146 2 0.0 443.77296856277775 658.9077309587996 16.03032083370153 # Ar+
147 147 2 0.0 84.61155992459436 259.09008152177176 426.9838546270181 # Ar+
148 148 2 0.0 294.7241243532962 863.6607282227282 503.9579884221938 # Ar+
149 149 2 0.0 275.2299075597739 302.933861238763 789.674548517621 # Ar+
150 150 2 0.0 681.7963550076588 900.806747869591 725.3816113539616 # Ar+
