LAMMPS data file -- atom_style full -- generated by chemfiles
2000 atoms
0 bonds
0 angles
0 dihedrals
0 impropers
1 atom types
0 bond types
0 angle types
0 dihedral types
0 improper types
0.00000000 514.583145 xlo xhi
0.00000000 514.583145 ylo yhi
0.00000000 514.583145 zlo zhi

# Pair Coeffs
# 1 Ar

Masses

1 39.948 # Ar

Atoms # full

1 1 1 0.0 44.563406560527085 8.821570407655022 77.43600746085416 # Ar
2 2 1 0.0 89.15702463201818 357.3550623377668 135.91643856086225 # Ar
3 3 1 0.0 255.56154946849918 24.575096813941638 135.35018974615386 # Ar
4 4 1 0.0 45.771366962419435 96.24742796589604 29.9833150537702 # Ar
5 5 1 0.0 75.40219363962987 99.12229637605115 71.4303709147677 # Ar
6 6 1 0.0 34.88765631028099 74.86012689205236 72.3360093135213 # Ar
7 7 1 0.0 96.9070653658748 415.6550538009267 203.78228518523017 # Ar
8 8 1 0.0 1.7050160839238668 453.1429621143962 194.9476806695171 # Ar
9 9 1 0.0 452.8900163737959 369.9975172194374 84.4637731626156 # Ar
10 10 1 0.0 204.1111096908852 309.6150641107868 364.84962952771275 # Ar
11 11 1 0.0 320.7399473839765 352.7243135729612 197.21331773024914 # Ar
12 12 1 0.0 249.79797257023793 484.0781594927397 91.70933482170483 # Ar
13 13 1 0.0 190.62234117316623 39.808066985569745 456.4590055774905 # Ar
14 14 1 0.0 471.0641363472853 369.6767696942259 445.8524558759709 # Ar
15 15 1 0.0 324.2162965837145 240.69192845671878 207.72843567246358 # Ar
16 16 1 0.0 333.4888793697079 289.2013579199901 148.82069425701417 # Ar
17 17 1 0.0 334.66385810261204 52.988347161538776 376.24050270565147 # Ar
18 18 1 0.0 7.658861228249588 212.02866774484193 502.6287620257831 # Ar
19 19 1 0.0 89.79273368233402 311.502668785376 436.69017153494514 # Ar
20 20 1 0.0 334.53547871532703 397.5626588488906 403.3622021867516 # Ar
21 21 1 0.0 222.14215098913493 327.3099468251664 334.2782590461076 # Ar
22 22 1 0.0 297.1667721835125 181.43594659293413 61.712487608501405 # Ar
23 23 1 0.0 458.9907311616988 52.78276260687661 101.0182214904503 # Ar
24 24 1 0.0 50.010618888424695 71.22711160148845 472.6549770105911 # Ar
25 25 1 0.0 76.28515624538977 328.0701694135238 329.9884496639444 # Ar
26 26 1 0.0 125.06231638825408 153.57797205277382 272.75063371570747 # Ar
27 27 1 0.0 93.15301489669183 323.6338061002239 32.309825697289135 # Ar
28 28 1 0.0 341.68991520596603 127.42449921215248 373.62577291521393 # Ar
29 29 1 0.0 246.96297944107874 371.95788150292185 402.2909919152494 # Ar
30 30 1 0.0 510.66565944068384 457.7650767072731 338.57697375043057 # Ar
31 31 1 0.0 303.928672433576 11.677113693082422 196.6433133364184 # Ar
32 32 1 0.0 460.39988262047956 233.12919743302504 150.78344037916918 # Ar
33 33 1 0.0 361.4043071500568 510.5022425492795 56.53572828960123 # Ar
34 34 1 0.0 84.20118186861617 63.87354798478044 458.41476603394176 # Ar
35 35 1 0.0 66.83738729148699 420.11576605715106 487.6510417719311 # Ar
36 36 1 0.0 364.4219119757048 13.615800585629755 239.79904021126433 # Ar
37 37 1 0.0 499.92617463727134 142.94059065854404 402.1760824370692 # Ar
38 38 1 0.0 476.2324391895962 10.230989198449068 109.93527558334044 # Ar
39 39 1 0.0 513.418569071645 245.02478361865172 353.712358791487 # Ar
40 40 1 0.0 60.87440010452608 442.24515829763357 356.8637493331529 # Ar
41 41 1 0.0 396.42612392159407 301.2894417018631 401.8047390426094 # Ar
42 42 1 0.0 30.827899060462222 203.26464699025823 8.612227400338702 # Ar
43 43 1 0.0 388.46797661891793 266.62334483747793 25.464477344985493 # Ar
44 44 1 0.0 466.02109015039423 42.214267770165065 377.21296316599063 # Ar
45 45 1 0.0 247.37881888336068 34.396300982919236 243.54947366974625 # Ar
46 46 1 0.0 245.75881526967166 137.23799855885736 457.2601170972371 # Ar
47 47 1 0.0 23.687678735842756 239.82737011851634 201.75277192742575 # Ar
48 48 1 0.0 483.13788106209336 138.79193582821054 202.39280369175717 # Ar
49 49 1 0.0 198.21111117314956 158.76689686736592 115.31723824489377 # Ar
50 50 1 0.0 83.15583657497363 116.01012809860225 72.89910161849717 # Ar
51 51 1 0.0 211.25605971658507 206.98776845416407 153.09523364446835 # Ar
52 52 1 0.0 352.2387412126989 510.1877641035507 417.4176047708308 # Ar
53 53 1 0.0 483.3089964245322 438.42403168753486 125.56677736565659 # Ar
54 54 1 0.0 354.34193505415914 406.7069175484715 219.02658717780614 # Ar
55 55 1 0.0 508.8697393776039 54.93189148449009 336.90943934730524 # Ar
56 56 1 0.0 96.79067474225924 503.1235161374164 44.140433565706026 # Ar
57 57 1 0.0 469.31454083789254 350.3370483442995 345.1498736278745 # Ar
58 58 1 0.0 70.90129336402137 164.6438929791574 207.5966534952755 # Ar
59 59 1 0.0 49.084455926843845 223.06816958018172 484.2898694152703 # Ar
60 60 1 0.0 468.5982006265844 332.5928264683116 502.3574110406445 # Ar
61 61 1 0.0 431.51585159079633 504.26756866062186 264.62109991074004 # Ar
62 62 1 0.0 5.642900156140396 37.30834441608317 70.00937198974106 # Ar
63 63 1 0.0 132.10709724057497 246.1812342244307 276.2382443492041 # Ar
64 64 1 0.0 301.356722886854 498.7464466178272 198.9866926080703 # Ar
65 65 1 0.0 312.13664211766394 146.67267935466106 307.2431789266722 # Ar
66 66 1 0.0 124.15021382857299 383.15410014851767 511.1598040295996 # Ar
67 67 1 0.0 211.23131514273305 41.24211237666421 39.91067269600988 # Ar
68 68 1 0.0 177.86004245676958 121.67751429566519 336.2015597257396 # Ar
69 69 1 0.0 78.40622652850232 18.120723171152044 237.66292696561345 # Ar
70 70 1 0.0 256.88863705443447 484.5257108103815 502.39855175396514 # Ar
71 71 1 0.0 86.87976525179235 242.5446517416282 489.4649158218667 # Ar
72 72 1 0.0 284.89895991139207 424.1387318405536 175.11465379708906 # Ar
73 73 1 0.0 435.86519974414324 486.26607233774513 122.57044028685054 # Ar
74 74 1 0.0 40.53609245512775 355.63052835008995 409.716317054772 # Ar
75 75 1 0.0 406.6336887679782 25.19479295769899 393.66152533210004 # Ar
76 76 1 0.0 472.35457493156304 247.61476814630197 123.09149032928545 # Ar
77 77 1 0.0 351.9315930399965 52.56729898929035 75.91875456041483 # Ar
78 78 1 0.0 482.5215296691069 387.71242199079745 431.8459934818356 # Ar
79 79 1 0.0 9.563834029794057 322.8230566907626 52.62310563622514 # Ar
80 80 1 0.0 312.82352529316967 185.64629277876892 237.47543738290662 # Ar
81 81 1 0.0 164.23316172010433 70.01458909421002 120.62821413597158 # Ar
82 82 1 0.0 179.54769162743318 446.1664064136786 395.2796936702285 # Ar
83 83 1 0.0 140.86165731966926 234.53285660878655 34.49239494027366 # Ar
84 84 1 0.0 309.3947276332379 443.96819240981887 1.6143950283159163 # Ar
85 85 1 0.0 73.09743487609235 419.43046250288756 289.66735181413054 # Ar
86 86 1 0.0 390.2366186121482 98.629963950524 135.42866106476944 # Ar
87 87 1 0.0 468.31728023490945 288.06912917490257 127.3203092850407 # Ar
88 88 1 0.0 418.70944101065146 103.80780132570351 489.2340518120322 # Ar
89 89 1 0.0 224.40401026943346 70.48676974580019 469.1899851774006 # Ar
90 90 1 0.0 39.22044626352231 218.8256754919752 339.37133677995246 # Ar
91 91 1 0.0 23.016129373186214 392.1895789654733 427.0815663852008 # Ar
92 92 1 0.0 362.55572404848147 117.81878077108671 262.10046381262265 # Ar
93 93 1 0.0 370.45067252007226 408.6112071097455 69.93896049141348 # Ar
94 94 1 0.0 381.626120812204 322.91440901206397 433.1311325979246 # Ar
95 95 1 0.0 232.7158559887273 157.91926624569246 343.33367164854064 # Ar
96 96 1 0.0 345.5063545050686 313.91319436382827 188.6476766968012 # Ar
97 97 1 0.0 488.41809062931384 398.1987781832853 14.906816087214972 # Ar
98 98 1 0.0 379.5065875714232 157.7113242967657 446.10445883832267 # Ar
99 99 1 0.0 486.627705600405 306.6067562278321 484.0693488047622 # Ar
100 100 1 0.0 328.8828057085341 62.4423147514282 180.3520343199179 # Ar
101 101 1 0.0 252.24481587206068 322.95671137341213 191.35746787796822 # Ar
102 102 1 0.0 191.39998800374752 388.2985787771616 251.95651855923867 # Ar
103 103 1 0.0 65.34904205934907 21.974043932320466 487.1018477653973 # Ar
104 104 1 0.0 418.60754030425255 263.25037807806194 188.19022158309278 # Ar
105 105 1 0.0 76.2509316300322 183.51091753452295 209.56818076589622 # Ar
106 106 1 0.0 439.8408937134765 87.75806887977797 471.3196337702563 # Ar
107 107 1 0.0 437.1811175992799 379.2553891746306 295.6346144963839 # Ar
108 108 1 0.0 428.453542344439 6.718528482063652 256.1713616333092 # Ar
109 109 1 0.0 271.7702078777205 59.613389834579955 360.16630431311347 # Ar
110 110 1 0.0 372.1458696805368 333.81704979519475 64.20241389556558 # Ar
111 111 1 0.0 302.217485956373 329.97248879165863 418.52127885504683 # Ar
112 112 1 0.0 417.5149121621925 382.2336157160744 332.6590397729902 # Ar
113 113 1 0.0 128.5621127096811 200.83818735123808 270.3027745041514 # Ar
114 114 1 0.0 201.42876219152737 482.32361420872616 20.954894432279463 # Ar
115 115 1 0.0 496.2472306662743 299.95052020821373 372.2171444109213 # Ar
116 116 1 0.0 398.74070663142913 330.3473493918472 253.52275681495664 # Ar
117 117 1 0.0 444.65214417053755 420.54408456425597 466.07599423828793 # Ar
118 118 1 0.0 311.450684646835 191.1545190319246 440.2614136248063 # Ar
119 119 1 0.0 35.632328102519395 449.321988203509 419.0504746434439 # Ar
120 120 1 0.0 276.78223818612616 275.5943856716236 311.3098590371577 # Ar
121 121 1 0.0 136.79774193039603 265.81843293402255 337.11371765162346 # Ar
122 122 1 0.0 247.6369285683266 509.4377993652058 478.94054000374257 # Ar
123 123 1 0.0 416.39773203119677 237.26324314211547 181.89662731021562 # Ar
124 124 1 0.0 396.71137416178374 152.6196974423738 249.07818587919215 # Ar
125 125 1 0.0 6.505102477553717 288.099922277421 11.358987728060642 # Ar
126 126 1 0.0 447.25783463204937 148.0475370932884 81.52455674517151 # Ar
127 127 1 0.0 137.43081395903667 286.7930038645928 368.341546465357 # Ar
128 128 1 0.0 94.29446188029976 91.86839153178367 449.2217554839716 # Ar
129 129 1 0.0 433.1506374146174 185.5493920912854 254.0288011155877 # Ar
130 130 1 0.0 20.082197076049546 14.017364703339052 287.29017801969366 # Ar
131 131 1 0.0 186.99602982760524 493.73915540119043 341.3013078948993 # Ar
132 132 1 0.0 11.93382283118114 478.5813618792937 115.11701029299203 # Ar
133 133 1 0.0 3.537816372539726 148.13235623049638 305.2137893731307 # Ar
134 134 1 0.0 192.51003853900136 442.6040294035106 505.95182521241514 # Ar
135 135 1 0.0 458.3017752726282 471.47540141119634 289.9787128072851 # Ar
136 136 1 0.0 455.9685568122447 448.8706441713699 361.93102109427906 # Ar
137 137 1 0.0 141.44760030066683 474.3657686568247 66.6724433266119 # Ar
138 138 1 0.0 484.2421145436087 407.57919922850976 470.9313467694444 # Ar
139 139 1 0.0 417.3047814413547 89.95857436407206 345.87798050621325 # Ar
140 140 1 0.0 233.40313393325894 504.43833990039275 453.23876326881265 # Ar
141 141 1 0.0 73.63236453829778 366.9078605961806 117.1437410267099 # Ar
142 142 1 0.0 84.96476739337633 394.9556326875621 206.28663494703753 # Ar
143 143 1 0.0 112.41713607395305 206.37951362240378 343.2296391678316 # Ar
144 144 1 0.0 282.23416820427326 463.1157625221327 223.76401091700677 # Ar
145 145 1 0.0 433.0737051275741 107.39942044260879 209.97218957999365 # Ar
146 146 1 0.0 187.59718434868927 290.54965607012406 170.90001634761038 # Ar
147 147 1 0.0 439.8522067087247 512.8250920166267 369.99636745691254 # Ar
148 148 1 0.0 327.11705468577566 163.2883117561384 326.5738057601863 # Ar
149 149 1 0.0 54.206384794446144 368.5590711851594 425.49866451280633 # Ar
150 150 1 0.0 234.5159035746807 84.1017170420052 317.5177909803669 # Ar
151 151 1 0.0 94.12720708267844 97.64011559310924 306.3462456011884 # Ar
152 152 1 0.0 141.86299259529636 108.59789744040931 236.34902989920485 # Ar
153 153 1 0.0 450.8775582560621 22.841334461894302 288.0118031316961 # Ar
154 154 1 0.0 202.1919858917008 496.79440024232105 492.23284711594994 # Ar
155 155 1 0.0 288.2728476949956 374.53567434913293 268.26441338466066 # Ar
156 156 1 0.0 230.55808167518984 178.19512763961276 400.6228048280216 # Ar
157 157 1 0.0 368.3018041705181 468.0344049015574 396.3819782320619 # Ar
158 158 1 0.0 413.38099186271415 351.4285967765603 167.3865416431733 # Ar
159 159 1 0.0 86.29867333536093 297.00596229829563 10.075657004903364 # Ar
160 160 1 0.0 181.88389571490328 81.76515984311601 48.361860532756396 # Ar
161 161 1 0.0 29.08614364374716 450.94318293474237 228.85716787881242 # Ar
162 162 1 0.0 127.07757354858516 359.17633570842605 69.27837243515258 # Ar
163 163 1 0.0 455.276450189294 434.8569856866161 69.6846593951838 # Ar
164 164 1 0.0 420.68276493200784 472.6061877502888 127.21032089480667 # Ar
165 165 1 0.0 109.3273421943138 421.13990399904867 228.06896536704124 # Ar
166 166 1 0.0 325.46954404879807 376.23095925810964 254.40498425463292 # Ar
167 167 1 0.0 146.3511452538097 489.523696669117 15.963021749918322 # Ar
168 168 1 0.0 109.95908976443869 351.6617705938508 410.91623089190614 # Ar
169 169 1 0.0 454.9821114969994 126.50330021439585 60.199249761366175 # Ar
170 170 1 0.0 65.11941801133355 56.85343163514941 468.0251912585938 # Ar
171 171 1 0.0 439.6173258621047 387.9296535827153 308.0986745537443 # Ar
172 172 1 0.0 309.597144476802 274.43506982832304 127.83045010677944 # Ar
173 173 1 0.0 440.0442052676322 264.9690504213537 417.68552379064215 # Ar
174 174 1 0.0 431.06487789744926 134.2149504896849 183.62624153891903 # Ar
175 175 1 0.0 371.9432515895439 192.6152759056086 144.36239173676034 # Ar
176 176 1 0.0 192.9533267494048 181.6954752101909 312.97223548238094 # Ar
177 177 1 0.0 318.27011208463955 75.62556232259004 487.514340305885 # Ar
178 178 1 0.0 271.94191307695894 428.56534082911674 353.3304365603966 # Ar
179 179 1 0.0 323.2303803691786 361.888203121274 164.87040557835263 # Ar
180 180 1 0.0 181.7365163179657 231.27422729614443 63.397672446563966 # Ar
181 181 1 0.0 219.79075273981496 411.61625385290057 407.28274495456424 # Ar
182 182 1 0.0 305.7775016595527 240.232749196179 217.83175508630777 # Ar
183 183 1 0.0 486.70500247280864 182.94599809458305 143.03836316053423 # Ar
184 184 1 0.0 161.00837184095573 428.75439147961305 152.43079525393628 # Ar
185 185 1 0.0 222.64204953082 117.31898861463903 367.94831382855944 # Ar
186 186 1 0.0 277.2132750139698 177.19123198632656 74.79574820735388 # Ar
187 187 1 0.0 233.94211200969576 372.5263207565923 264.65627600999875 # Ar
188 188 1 0.0 404.168916031168 15.67560643681579 373.95422177946216 # Ar
189 189 1 0.0 394.21957396508367 219.86456158631057 94.64518423557529 # Ar
190 190 1 0.0 249.44221371132198 110.08835469486627 62.29621973248148 # Ar
191 191 1 0.0 147.4375528322563 439.13102161581764 433.7731155961474 # Ar
192 192 1 0.0 135.05232762261014 363.74447336159295 429.16465396023483 # Ar
193 193 1 0.0 4.444912499052315 88.56487178737898 46.356594980577796 # Ar
194 194 1 0.0 136.75340568333388 194.9496476091059 89.27191614918185 # Ar
195 195 1 0.0 2.593337627605999 37.85043029957939 86.95761454832213 # Ar
196 196 1 0.0 449.69604604360813 415.7012691481478 507.26747447691486 # Ar
197 197 1 0.0 429.07992628624737 8.767446660030465 156.82618501281527 # Ar
198 198 1 0.0 318.4586408971771 393.26630476369246 8.1231908146382 # Ar
199 199 1 0.0 79.26405350787638 383.22110041316824 312.2991008212672 # Ar
200 200 1 0.0 222.57605000603922 316.3131667864636 213.39691698258247 # Ar
201 201 1 0.0 336.19691510118594 325.30154944650053 133.9233542888925 # Ar
202 202 1 0.0 367.3272757718414 30.878624596207203 112.3475218855962 # Ar
203 203 1 0.0 226.0028889664518 393.69370497477 116.28472205227825 # Ar
204 204 1 0.0 68.01584594982636 393.98269742411657 162.95577306447714 # Ar
205 205 1 0.0 240.49160884569937 354.1709965615525 258.89860622907827 # Ar
206 206 1 0.0 59.39066318371104 324.470141194218 161.14790538951036 # Ar
207 207 1 0.0 125.77398868813326 115.33405640851959 70.90655982505263 # Ar
208 208 1 0.0 506.60638620799295 108.90849037343894 297.0253498886582 # Ar
209 209 1 0.0 474.0749355650946 484.2103985400047 52.19541073270175 # Ar
210 210 1 0.0 227.59743828785392 24.265384120038238 242.28166559763213 # Ar
211 211 1 0.0 355.53169706287457 69.65203789659944 346.84217053299716 # Ar
212 212 1 0.0 116.02044471145264 36.762944180085526 151.64144250664611 # Ar
213 213 1 0.0 16.842742579924984 380.4963022014704 451.6211573823417 # Ar
214 214 1 0.0 91.432707622422 327.46126889284693 40.450940760390644 # Ar
215 215 1 0.0 382.25082905293755 253.05438556995864 431.82665560528113 # Ar
216 216 1 0.0 169.5897125817221 121.28806183866557 121.40470685351687 # Ar
217 217 1 0.0 191.22668293692254 20.000322142407704 176.23406984953454 # Ar
218 218 1 0.0 291.43323392083255 159.30289380321238 81.12662445839602 # Ar
219 219 1 0.0 129.37141137439033 27.584093032321686 387.56524635765055 # Ar
220 220 1 0.0 352.52407109427224 238.57413638600786 45.36485648201772 # Ar
221 221 1 0.0 502.48215720464475 100.50321088736297 24.71483636794895 # Ar
222 222 1 0.0 514.3413298912247 253.74699438728817 423.8381834693977 # Ar
223 223 1 0.0 413.045479053167 3.9674087256356763 384.59926298845807 # Ar
224 224 1 0.0 339.8089039747714 233.32313534413296 219.90773722005883 # Ar
225 225 1 0.0 282.21461670539276 34.356678932261495 335.55146492007424 # Ar
226 226 1 0.0 371.631182499788 222.17617637895717 236.4089506702731 # Ar
227 227 1 0.0 377.9603995784277 330.1050569796688 169.6890895314119 # Ar
228 228 1 0.0 378.0738261808754 370.9516120440515 364.9866329464979 # Ar
229 229 1 0.0 327.8754422754867 307.1886689380123 261.7129582235453 # Ar
230 230 1 0.0 1.1232211133201973 478.8939232479963 197.81656309110386 # Ar
231 231 1 0.0 210.04306620626375 112.1398896228512 221.9819398544786 # Ar
232 232 1 0.0 467.0878554467836 207.50992583172015 294.33282074193176 # Ar
233 233 1 0.0 6.7237743713859786 305.05661882144886 18.8340484726678 # Ar
234 234 1 0.0 209.72786408718605 21.334022644802968 148.4808970336706 # Ar
235 235 1 0.0 6.413597824141272 285.58363526660827 384.73496313440654 # Ar
236 236 1 0.0 226.49810115020438 127.86056186798808 29.200689162669875 # Ar
237 237 1 0.0 270.71509249957893 298.94382131648126 269.50863070365176 # Ar
238 238 1 0.0 51.354407491095834 361.0701381026393 464.2109931201376 # Ar
239 239 1 0.0 177.60022454964616 368.4989666461282 396.1846125514039 # Ar
240 240 1 0.0 361.2811224199546 350.32303266750154 375.4566812210138 # Ar
241 241 1 0.0 449.603532600269 36.665459094899816 191.72972490466302 # Ar
242 242 1 0.0 483.3456463340765 66.31271311176945 328.96414036353406 # Ar
243 243 1 0.0 218.74438935059663 378.3828017419794 330.24799595192496 # Ar
244 244 1 0.0 186.4246182497561 396.10137051132546 513.0265961221679 # Ar
245 245 1 0.0 284.76101224976827 241.59835567361648 78.10343440503192 # Ar
246 246 1 0.0 189.25153996496806 104.15023761068132 431.0896243257434 # Ar
247 247 1 0.0 214.20787009797135 187.3619534602227 348.77224239980245 # Ar
248 248 1 0.0 366.21600150172327 178.7539135383931 116.60215615503462 # Ar
249 249 1 0.0 264.9964794177079 157.61044025758585 4.016018113908054 # Ar
250 250 1 0.0 311.1827474381469 505.25842403480164 233.61266510401077 # Ar
251 251 1 0.0 111.65582754517348 172.56658016344812 486.8733462498098 # Ar
252 252 1 0.0 312.93339769384403 178.43748423252632 30.980011106338758 # Ar
253 253 1 0.0 293.6596006866972 37.82304054890477 388.6368943868221 # Ar
254 254 1 0.0 135.5771128964801 35.73325897113523 152.98920288971343 # Ar
255 255 1 0.0 236.8644652461956 395.4163207988147 404.4403229839213 # Ar
256 256 1 0.0 424.40871175688943 13.869918840272717 314.12677981766944 # Ar
257 257 1 0.0 386.92015463531493 155.29456908470848 19.9308104440592 # Ar
258 258 1 0.0 351.5553197396621 308.8849788192517 113.90749839379981 # Ar
259 259 1 0.0 363.4450301053858 237.54945834367663 412.55142077126254 # Ar
260 260 1 0.0 407.3240492780815 224.08136372057166 433.6821801467547 # Ar
261 261 1 0.0 421.11731594043084 263.70304947081047 413.7030581330208 # Ar
262 262 1 0.0 175.78734166860474 418.9626204105926 425.0628678479123 # Ar
263 263 1 0.0 16.507206160606906 37.11754264598823 315.44387048193016 # Ar
264 264 1 0.0 351.3255402742243 485.4208452593579 402.23148687120454 # Ar
265 265 1 0.0 321.60697137652346 147.61014398738752 404.0661256828645 # Ar
266 266 1 0.0 70.86452399377227 45.11796198682612 297.3087100719853 # Ar
267 267 1 0.0 470.3635105213442 490.87084301396106 416.10446927766026 # Ar
268 268 1 0.0 38.70510030850054 272.2982634039605 306.80264042351166 # Ar
269 269 1 0.0 247.9261510642696 156.91540789872948 181.09024410472173 # Ar
270 270 1 0.0 152.52964942076812 188.69470741752798 510.8010808093947 # Ar
271 271 1 0.0 39.22856314369753 276.71468593031756 254.184345447091 # Ar
272 272 1 0.0 431.766614032911 155.78552155742076 254.12154080451094 # Ar
273 273 1 0.0 132.41373830646288 129.13287537060802 215.5349320443058 # Ar
274 274 1 0.0 497.2030441098504 460.98347092736117 42.95564474061292 # Ar
275 275 1 0.0 133.1168287309234 128.33639622430877 403.4879617063349 # Ar
276 276 1 0.0 394.95493352146264 198.24749348284712 466.2585653222744 # Ar
277 277 1 0.0 250.27397341325832 169.496954678893 157.929593991814 # Ar
278 278 1 0.0 443.57086785363043 417.1187847497865 172.85027004637686 # Ar
279 279 1 0.0 161.9006971476329 2.488831737670657 457.52832644646855 # Ar
280 280 1 0.0 216.05617682988708 267.2561362901302 379.31615019495996 # Ar
281 281 1 0.0 184.3557615834106 504.3081971679996 290.64285168660984 # Ar
282 282 1 0.0 135.56539580875253 137.73561251323167 427.2647708655982 # Ar
283 283 1 0.0 305.5645454783402 337.47890946057777 257.3951567811462 # Ar
284 284 1 0.0 94.75017190974573 130.10330672637483 103.9484224771615 # Ar
285 285 1 0.0 427.6878474242997 172.09333508136646 96.78504113460468 # Ar
286 286 1 0.0 164.66759887636226 153.5843342585177 221.95905971194048 # Ar
287 287 1 0.0 17.390499524470613 482.84008322049 300.08246655745353 # Ar
288 288 1 0.0 147.16091891906743 149.78697719789463 2.750626627050595 # Ar
289 289 1 0.0 272.382912092954 324.31124585354064 156.52037693626653 # Ar
290 290 1 0.0 343.8791444420413 4.5075243139564005 505.87970844017315 # Ar
291 291 1 0.0 227.9657341502862 423.57500898264453 205.7786247186857 # Ar
292 292 1 0.0 51.90017875425071 369.9613243031164 485.2694601695449 # Ar
293 293 1 0.0 485.5387953061319 42.82786209490032 228.85500375005955 # Ar
294 294 1 0.0 366.11577954516434 295.58570426834325 42.03934195506944 # Ar
295 295 1 0.0 420.37842878106846 221.68414330806058 289.23897362018 # Ar
296 296 1 0.0 56.181431318337815 489.2204649714092 247.5357307532186 # Ar
297 297 1 0.0 80.57851631313302 36.23448917894511 400.99726449260163 # Ar
298 298 1 0.0 48.55647818923787 442.6961678519177 52.653036631863095 # Ar
299 299 1 0.0 190.54904640244328 147.42483213788472 488.7534826881433 # Ar
300 300 1 0.0 446.18208281419874 181.24325093044055 57.66598767084621 # Ar
301 301 1 0.0 463.06322417354227 307.0995933512459 440.3502880722035 # Ar
302 302 1 0.0 21.069711006995977 0.1978439937047017 120.49538171119431 # Ar
303 303 1 0.0 462.515168934363 228.81048817262723 49.00655774148682 # Ar
304 304 1 0.0 431.8472156850615 68.77387310744761 413.74514393967553 # Ar
305 305 1 0.0 39.5525138307988 324.074177132899 167.00378824160546 # Ar
306 306 1 0.0 18.786999876717125 319.3254141956998 443.02302340164107 # Ar
307 307 1 0.0 278.31318266807654 423.4800479650973 245.5557235393376 # Ar
308 308 1 0.0 145.81738771492 4.0697568805974225 455.38940933942405 # Ar
309 309 1 0.0 199.93478756701202 250.92447464348572 106.5933863732788 # Ar
310 310 1 0.0 36.05307095234586 292.62858423372944 471.57447967910923 # Ar
311 311 1 0.0 512.2199063157864 479.8583592261131 418.04773190342667 # Ar
312 312 1 0.0 450.36019202914366 141.1085760950586 333.37924839029074 # Ar
313 313 1 0.0 253.61173910059108 81.12889028770054 262.4866261856617 # Ar
314 314 1 0.0 445.3471753479485 188.3895883145505 193.99646409843385 # Ar
315 315 1 0.0 77.92793855852715 488.88080032436415 149.78593819933783 # Ar
316 316 1 0.0 194.9278420125411 57.75751014094123 222.69240256031543 # Ar
317 317 1 0.0 154.39046031510543 192.16042356902682 503.0075095748716 # Ar
318 318 1 0.0 308.99937236800105 416.03677617954077 416.54545386542344 # Ar
319 319 1 0.0 165.982793274865 57.013442946681195 60.80481377353387 # Ar
320 320 1 0.0 259.45628369555163 388.8495040147674 508.2810799529467 # Ar
321 321 1 0.0 402.3085543940872 133.87563071898552 222.84920364889157 # Ar
322 322 1 0.0 388.3050667725216 148.86031267033894 235.1613276067372 # Ar
323 323 1 0.0 233.27073644096185 438.65003840895366 182.52812196239063 # Ar
324 324 1 0.0 188.38852215960367 304.54340020951616 17.12151089715813 # Ar
325 325 1 0.0 222.89674010506798 431.74969920944307 23.65101508128652 # Ar
326 326 1 0.0 329.21979226050706 304.77685091108685 37.052641913389685 # Ar
327 327 1 0.0 287.0218838632727 107.27559149906901 343.79370935486446 # Ar
328 328 1 0.0 171.56211184179801 422.3475726523034 240.08255956537224 # Ar
329 329 1 0.0 301.7103955150939 282.89861833170204 246.68217518424416 # Ar
330 330 1 0.0 313.6753475966151 24.648422975650835 42.42369096211776 # Ar
331 331 1 0.0 454.11529549128335 301.6117633006703 43.04968350736063 # Ar
332 332 1 0.0 207.80251357256364 104.56317738508312 253.28790552303138 # Ar
333 333 1 0.0 467.94575568234353 92.58178224212651 145.31053305683278 # Ar
334 334 1 0.0 396.2129514189994 131.21738180674282 140.8160305859728 # Ar
335 335 1 0.0 380.53537694023487 45.37306686256954 73.38982721260406 # Ar
336 336 1 0.0 438.8084465516959 220.05738454339064 421.47542477360923 # Ar
337 337 1 0.0 370.70734672518876 70.02591368498501 322.80796869891964 # Ar
338 338 1 0.0 207.83340061536356 270.4889208275357 136.2467670886203 # Ar
339 339 1 0.0 328.71477974800075 362.39921042659483 153.29037741778328 # Ar
340 340 1 0.0 113.78340535043085 363.9931596329066 121.99967196686617 # Ar
341 341 1 0.0 105.00495082558567 93.31967600360306 27.53108214629435 # Ar
342 342 1 0.0 115.39112246769902 163.25429019953916 137.4806632234643 # Ar
343 343 1 0.0 337.237458963499 380.16609471166436 386.0786224589087 # Ar
344 344 1 0.0 198.42424603999157 446.6420028487823 436.6650194048194 # Ar
345 345 1 0.0 399.41681037308564 407.31620413365505 262.43663938413783 # Ar
346 346 1 0.0 51.951544256918226 169.53518240317217 256.2588269641221 # Ar
347 347 1 0.0 98.07767179548814 202.01284758723796 499.5255621856426 # Ar
348 348 1 0.0 495.3497334955699 151.20843519508298 297.00977077518274 # Ar
349 349 1 0.0 501.1460701790697 102.45110168492924 162.38185714407038 # Ar
350 350 1 0.0 86.79042456756909 503.72862013439357 396.0452209654073 # Ar
351 351 1 0.0 394.622188502501 279.44274429288873 162.99121458514358 # Ar
352 352 1 0.0 187.78106394321242 210.9491264455118 64.4565909762823 # Ar
353 353 1 0.0 122.00869934404226 408.833775538844 68.24927195071704 # Ar
354 354 1 0.0 426.7780538223694 492.97228698938767 383.5542085702524 # Ar
355 355 1 0.0 478.056202771908 401.8084478429619 414.94907398293225 # Ar
356 356 1 0.0 325.35352950933924 131.5821801691682 53.653238649190044 # Ar
357 357 1 0.0 445.4098700928758 38.66043094074734 160.7626572522286 # Ar
358 358 1 0.0 292.61056630566975 70.1073565827955 33.180163707374774 # Ar
359 359 1 0.0 443.5068674501612 159.4532119205436 67.31996835945554 # Ar
360 360 1 0.0 505.5195917381887 127.61235435790344 156.79607575378452 # Ar
361 361 1 0.0 431.04420968789236 487.7349114338731 67.03461318497901 # Ar
362 362 1 0.0 502.71668054728195 469.5143567224799 164.24367767430687 # Ar
363 363 1 0.0 48.4648426708698 514.4590767623235 299.15919027307245 # Ar
364 364 1 0.0 433.8992796504188 428.8871253441345 171.79984481868377 # Ar
365 365 1 0.0 83.3437598440302 9.8803540517512 162.89739705244844 # Ar
366 366 1 0.0 448.24959654207026 218.16357156025765 443.26583336070667 # Ar
367 367 1 0.0 474.93585689046273 415.8891383254521 445.44809347630763 # Ar
368 368 1 0.0 295.3009164879418 80.54891438322115 397.86562048116775 # Ar
369 369 1 0.0 34.417350901596905 161.8657200232971 99.14969875171298 # Ar
370 370 1 0.0 192.0578949109918 387.5912902291228 15.828433343710955 # Ar
371 371 1 0.0 179.97571888822898 414.2835761255429 69.38821218370087 # Ar
372 372 1 0.0 479.973596285829 175.9106841702862 148.35375594792632 # Ar
373 373 1 0.0 431.01953281660127 409.55195174004905 410.76607310889756 # Ar
374 374 1 0.0 505.6262417121989 184.0155868259905 432.3933746074691 # Ar
375 375 1 0.0 19.188109722482153 6.071916392874717 195.69505868675157 # Ar
376 376 1 0.0 266.6074074270502 73.65619951701389 477.55413282003553 # Ar
377 377 1 0.0 69.183790773436 485.53537820240007 405.5711577678008 # Ar
378 378 1 0.0 126.15336872649348 493.3617369487299 277.50204167762524 # Ar
379 379 1 0.0 477.48238025365356 267.5740079276839 13.277557471746356 # Ar
380 380 1 0.0 213.3367301153553 372.22650121786097 418.41519993194066 # Ar
381 381 1 0.0 161.7951690077648 122.6758304122242 246.63012222664207 # Ar
382 382 1 0.0 319.5432036329765 215.5997770714177 138.60854009868675 # Ar
383 383 1 0.0 85.66099162890278 242.51172527316535 175.6013186096965 # Ar
384 384 1 0.0 341.63624518526194 468.0503906190927 24.652450532378595 # Ar
385 385 1 0.0 513.4340502219708 177.22649486824727 370.54313645216763 # Ar
386 386 1 0.0 138.83360853675 392.44547585634695 269.2652016064946 # Ar
387 387 1 0.0 116.36304261839562 292.0421744841879 391.7818665162202 # Ar
388 388 1 0.0 269.39785815536726 446.038339659823 83.6003761187204 # Ar
389 389 1 0.0 489.77615895798255 298.3875830899572 156.11371456997196 # Ar
390 390 1 0.0 118.21260800383082 77.1115377297596 301.4222837850972 # Ar
391 391 1 0.0 80.97357344592784 226.80867888304178 10.458254957098408 # Ar
392 392 1 0.0 403.70352536576684 328.38431890665294 107.83493902542658 # Ar
393 393 1 0.0 506.0637787802398 512.193845850478 424.15704292464875 # Ar
394 394 1 0.0 44.091879579466465 498.62676440090155 429.41240894619193 # Ar
395 395 1 0.0 156.64997913123338 442.4467153123121 145.74082384944637 # Ar
396 396 1 0.0 185.23270314809346 423.55234519884357 352.26838531470656 # Ar
397 397 1 0.0 53.193054495336725 137.07428615300444 314.4088578197145 # Ar
398 398 1 0.0 388.7753948836073 28.24052856300607 87.40978773608722 # Ar
399 399 1 0.0 182.04694720983048 284.9394677218614 102.8669589734968 # Ar
400 400 1 0.0 439.54409304221195 90.80954916471016 507.4140844023525 # Ar
401 401 1 0.0 418.81761866748144 317.8647082099299 385.05907182711496 # Ar
402 402 1 0.0 381.0425898473553 337.3970779790158 119.11178784657189 # Ar
403 403 1 0.0 202.99341586832927 384.58949718211824 52.88230148726581 # Ar
404 404 1 0.0 82.99375222778313 7.8857423055555085 197.6392974096807 # Ar
405 405 1 0.0 395.74531553867666 501.40795738606477 129.02518894075916 # Ar
406 406 1 0.0 169.60096544196472 270.5314416964098 422.3475106430698 # Ar
407 407 1 0.0 41.337786654587156 202.59521435539648 499.0417683612206 # Ar
408 408 1 0.0 487.9827144887912 509.18528337485475 127.12648387737788 # Ar
409 409 1 0.0 88.34196473822523 94.54600166399277 238.22631021745516 # Ar
410 410 1 0.0 500.89580826080515 460.49759442137275 115.6403914963453 # Ar
411 411 1 0.0 254.0582911521231 464.8311855751427 389.9674292608726 # Ar
412 412 1 0.0 457.66445993835566 84.62601048391566 282.36889941777457 # Ar
413 413 1 0.0 121.76417446319067 323.10936414238245 104.11878566033022 # Ar
414 414 1 0.0 112.77594185726092 455.09034019939753 174.58688836717502 # Ar
415 415 1 0.0 286.4386338538856 361.43623005470045 105.51545737025705 # Ar
416 416 1 0.0 16.27976234108905 195.26186081332747 402.90136832990737 # Ar
417 417 1 0.0 378.5896971503414 36.55359540190495 467.01429677032024 # Ar
418 418 1 0.0 349.2709448094616 43.463892515212635 88.96004845465349 # Ar
419 419 1 0.0 473.31183901473986 508.20386204580194 463.90644288469616 # Ar
420 420 1 0.0 211.3092859462579 19.814855974764328 127.14311905935455 # Ar
421 421 1 0.0 272.1556851170891 429.10728064377713 108.74602996366244 # Ar
422 422 1 0.0 335.96656566589206 104.59230340303439 50.524325026667746 # Ar
423 423 1 0.0 511.55537032456306 279.2126758051114 355.11504161793295 # Ar
424 424 1 0.0 478.9301427131176 126.4150675446055 65.12084400208562 # Ar
425 425 1 0.0 329.5862319758982 433.9878286949035 340.3085392642485 # Ar
426 426 1 0.0 497.2483251839922 154.8018156957479 15.824784728334546 # Ar
427 427 1 0.0 108.00627157505245 279.6991863152198 364.0919285314368 # Ar
428 428 1 0.0 78.047368324807 345.58532213134623 13.725556786626793 # Ar
429 429 1 0.0 60.04965355856592 87.98426420129647 475.36572427652743 # Ar
430 430 1 0.0 66.09147497055756 93.62220189535009 199.8272864849726 # Ar
431 431 1 0.0 404.9608245730712 210.05107781774072 57.97917340199364 # Ar
432 432 1 0.0 206.38892638875433 151.60960050076278 343.9002760325579 # Ar
433 433 1 0.0 453.916546371196 315.9384248261728 272.93028137033724 # Ar
434 434 1 0.0 156.36793408340816 182.1916319757803 82.81418475654742 # Ar
435 435 1 0.0 184.48156175165812 279.00221143215384 380.511836082804 # Ar
436 436 1 0.0 319.9579723826974 457.5871436838719 276.61267743397354 # Ar
437 437 1 0.0 65.20175489010647 434.6969411076916 392.2886079061232 # Ar
438 438 1 0.0 442.72881319900694 229.76012456534679 471.9656343263607 # Ar
439 439 1 0.0 322.558794528919 446.70858344627203 226.9338695667462 # Ar
440 440 1 0.0 453.3933571155831 326.0162430846727 381.5584109991653 # Ar
441 441 1 0.0 132.24589642045285 18.97292713312637 99.89883995083984 # Ar
442 442 1 0.0 497.6793134984232 214.9109050738738 416.1827260938322 # Ar
443 443 1 0.0 452.44770769093253 491.15892737761504 345.75585773786975 # Ar
444 444 1 0.0 494.43936303351495 293.59542491428806 419.5458527461207 # Ar
445 445 1 0.0 497.5884490892986 281.46952045863094 406.6008363797051 # Ar
446 446 1 0.0 286.3498119660917 391.48090450868403 23.64478893099995 # Ar
447 447 1 0.0 394.92256442095146 319.5883010619176 210.79187851843668 # Ar
448 448 1 0.0 83.21506146516418 143.54042585503566 182.82310232409088 # Ar
449 449 1 0.0 141.05146931216052 44.7549998267808 118.02115141598175 # Ar
450 450 1 0.0 391.77063394472015 47.823977161323896 267.67714587753255 # Ar
451 451 1 0.0 136.66834003010018 29.5575409700097 293.72850532946 # Ar
452 452 1 0.0 382.8914127055364 90.5777517696507 447.40777146938234 # Ar
453 453 1 0.0 232.07048650287646 256.48617025807664 184.23531073498822 # Ar
454 454 1 0.0 60.54205173418686 103.19396214657468 462.90787872135263 # Ar
455 455 1 0.0 190.04606543777425 95.14376367465935 280.2991502599635 # Ar
456 456 1 0.0 356.00937796870363 114.08194107920069 154.02518302763409 # Ar
457 457 1 0.0 374.6729568231275 322.15916572219464 120.77451231254918 # Ar
458 458 1 0.0 398.04575968167626 58.00233212331941 44.62300237715185 # Ar
459 459 1 0.0 415.456114498215 331.27599715976504 374.7573176274103 # Ar
460 460 1 0.0 56.66601203156509 190.56603932952828 226.07731957172655 # Ar
461 461 1 0.0 433.6330358079506 109.55319954603206 447.8533814873953 # Ar
462 462 1 0.0 233.1277385045715 238.42802032906985 390.7591355552735 # Ar
463 463 1 0.0 219.0001706182918 280.3412435191965 247.8988814028425 # Ar
464 464 1 0.0 243.08141212166908 132.77133195397406 255.16221265676913 # Ar
465 465 1 0.0 176.35365878183956 24.47604728338623 5.878087644171832 # Ar
466 466 1 0.0 323.5627288330502 1.0869558431215052 124.58326703447267 # Ar
467 467 1 0.0 305.76183058069336 178.68565442695217 241.70465769305488 # Ar
468 468 1 0.0 373.7550320967334 435.3342972547561 397.1904535320828 # Ar
469 469 1 0.0 219.6846270374521 438.86572122744815 144.03781236802732 # Ar
470 470 1 0.0 416.5959494260481 0.2869042966924985 502.77891766334466 # Ar
471 471 1 0.0 333.29808553754 235.35301280916175 490.315765618497 # Ar
472 472 1 0.0 392.34418088678103 392.6693241863964 6.107738855001415 # Ar
473 473 1 0.0 147.81372794063364 229.05816313102005 349.3543266062976 # Ar
474 474 1 0.0 386.84850546777324 85.37281606187175 259.75098738437987 # Ar
475 475 1 0.0 132.53133424268995 189.38714220078964 446.52049831999244 # Ar
476 476 1 0.0 231.89299676483404 230.61453334236506 18.838199713415996 # Ar
477 477 1 0.0 258.22138557035356 431.6881485503728 431.22854398085803 # Ar
478 478 1 0.0 486.61027837213464 482.53734814239766 97.22580911057516 # Ar
479 479 1 0.0 504.0199632398515 80.17556231027554 386.8628087659804 # Ar
480 480 1 0.0 70.198414004041 482.68272242416765 511.5517637890972 # Ar
481 481 1 0.0 244.10602281929482 92.6015234416943 168.62986470165563 # Ar
482 482 1 0.0 444.61159486850084 292.6800888761606 240.33664253868702 # Ar
483 483 1 0.0 163.25861107573266 100.88601421883298 364.6291377899019 # Ar
484 484 1 0.0 74.60231032256183 117.20857315838963 103.93078388915251 # Ar
485 485 1 0.0 0.6890375340339507 425.70093985985744 185.6250063331108 # Ar
486 486 1 0.0 373.6280931491887 133.58932023933474 37.34278457748581 # Ar
487 487 1 0.0 252.61520462160064 142.1454953542571 22.168440071345437 # Ar
488 488 1 0.0 71.1659769278319 72.83527559627747 333.77613594976384 # Ar
489 489 1 0.0 4.589633811667267 48.96011392583575 487.70128326513225 # Ar
490 490 1 0.0 373.5198018078334 350.83976246824665 114.6231836673734 # Ar
491 491 1 0.0 46.21833705251797 63.08004395341568 253.55080779688015 # Ar
492 492 1 0.0 486.9512342211419 192.05116492944452 259.86837098663074 # Ar
493 493 1 0.0 369.3909721639713 15.229895253483564 0.6428630618311361 # Ar
494 494 1 0.0 323.2815371449954 463.1278203546605 398.07633046026245 # Ar
495 495 1 0.0 104.71065403993907 204.86148362129808 251.46014630837794 # Ar
496 496 1 0.0 24.75798203297574 408.32695698363534 230.503700327058 # Ar
497 497 1 0.0 321.96409451115755 247.78934831427705 259.0359655179354 # Ar
498 498 1 0.0 364.9057465992384 125.78773189272411 7.226217765356344 # Ar
499 499 1 0.0 31.71536049278731 224.71693582274602 385.2714862973518 # Ar
500 500 1 0.0 332.47261312193586 473.44201233474473 450.2893355806772 # Ar
501 501 1 0.0 463.37700818752035 86.90239297780542 452.711680012229 # Ar
502 502 1 0.0 349.81898188724995 28.51024046644735 199.9325797037966 # Ar
503 503 1 0.0 83.3648802890795 209.79017629789854 355.16657873145573 # Ar
504 504 1 0.0 0.08058983366453497 419.6995906346513 92.98477637294866 # Ar
505 505 1 0.0 372.46314607541717 136.55755068297154 258.39875062546525 # Ar
506 506 1 0.0 505.2449483642065 373.51526769988317 377.8884446702701 # Ar
507 507 1 0.0 237.2411189021979 494.66222705237925 394.8249770193923 # Ar
508 508 1 0.0 70.57882266726396 26.87244729697647 315.81031344996063 # Ar
509 509 1 0.0 56.88812400041602 341.85526149308606 458.50644467167314 # Ar
510 510 1 0.0 207.4867187884996 505.84484302124685 69.8972348167298 # Ar
511 511 1 0.0 418.6770359535793 160.40821380693868 327.0706657016092 # Ar
512 512 1 0.0 17.664322859272417 235.29243111546072 22.047250887147527 # Ar
513 513 1 0.0 78.2156601065255 39.21905354637899 203.71865548058625 # Ar
514 514 1 0.0 312.19826209489185 361.30032949370263 386.6284895671356 # Ar
515 515 1 0.0 308.9271669649684 508.31948911734776 468.33870823270814 # Ar
516 516 1 0.0 163.78233817208152 409.59343699418935 271.0029501381253 # Ar
517 517 1 0.0 442.50041581136213 422.47771960960677 45.42310872643534 # Ar
518 518 1 0.0 291.65102726262097 45.28186174771938 270.63459208009095 # Ar
519 519 1 0.0 224.30393959876713 106.23423279517942 200.07866804941986 # Ar
520 520 1 0.0 159.5506820680215 69.8755275825861 244.2802122273911 # Ar
521 521 1 0.0 37.997502364618 233.12644373459392 306.5236027246058 # Ar
522 522 1 0.0 1.3707839171770282 242.13522946539055 444.66763961026817 # Ar
523 523 1 0.0 239.15307002784212 156.22758728585495 370.77935645537644 # Ar
524 524 1 0.0 5.025701803143624 489.1851982476484 504.49913387405877 # Ar
525 525 1 0.0 28.867537362089465 249.36495293671757 34.72573907148514 # Ar
526 526 1 0.0 98.49980184699199 269.9205309529101 198.67236588712169 # Ar
527 527 1 0.0 176.20525784574178 442.19967624875267 206.5627226041009 # Ar
528 528 1 0.0 371.1335478694909 507.10536928460846 163.55179702642062 # Ar
529 529 1 0.0 194.7743728871129 160.87852823582142 498.9745696472735 # Ar
530 530 1 0.0 347.2488352944059 137.18314955618314 143.25330456816204 # Ar
531 531 1 0.0 358.8061409807954 187.09996906457602 79.57469658697654 # Ar
532 532 1 0.0 474.2353846656025 191.99889469368267 338.43423793955776 # Ar
533 533 1 0.0 169.42150150825543 88.073918457707 33.40439076122554 # Ar
534 534 1 0.0 351.2026882708273 309.4213396231708 154.13594133221702 # Ar
535 535 1 0.0 388.5949650213849 142.1037011424694 427.5199772951767 # Ar
536 536 1 0.0 340.20919911158364 69.4186191757693 124.49639150406561 # Ar
537 537 1 0.0 353.0067861832652 161.377785587856 70.30136550190757 # Ar
538 538 1 0.0 208.04281410724127 481.09617327710515 511.6217198819175 # Ar
539 539 1 0.0 453.64178285493944 385.07767610063246 1.069253296505303 # Ar
540 540 1 0.0 349.7670627850557 337.57903249863836 61.2343899494744 # Ar
541 541 1 0.0 335.4728553916789 16.48193096927264 37.40780740208432 # Ar
542 542 1 0.0 509.2297970683973 349.1356437904613 165.98344265520427 # Ar
543 543 1 0.0 237.83151472638068 305.57069985703197 148.18435351596736 # Ar
544 544 1 0.0 313.44033227037175 315.58965800600834 429.9907366488294 # Ar
545 545 1 0.0 0.18386156465591716 307.4018911210375 314.0221275205913 # Ar
546 546 1 0.0 392.09136825247043 155.03218155377638 511.8917981469953 # Ar
547 547 1 0.0 335.72690672097445 410.7925817049335 180.9984469654769 # Ar
548 548 1 0.0 14.872754933909935 158.3037126858098 106.59731774435656 # Ar
549 549 1 0.0 217.74095824410702 350.86675335036824 15.358380016008798 # Ar
550 550 1 0.0 394.05262868584515 158.62665189133185 507.29692149795915 # Ar
551 551 1 0.0 6.469589002135169 440.0199389578974 367.3500992879885 # Ar
552 552 1 0.0 253.2901570994669 28.779673414874818 193.36313527157958 # Ar
553 553 1 0.0 337.5154034991073 384.3152995423406 13.764791636265613 # Ar
554 554 1 0.0 357.84175975222496 222.5544097022748 182.23298815450013 # Ar
555 555 1 0.0 45.1566055974238 145.4287546140344 394.44456494345116 # Ar
556 556 1 0.0 10.603892032314096 436.34186575754256 462.5363249870665 # Ar
557 557 1 0.0 407.37832050817946 427.73964420042773 118.70899995039093 # Ar
558 558 1 0.0 191.44867386781658 355.2271643463185 317.14889147469285 # Ar
559 559 1 0.0 441.7501276693732 83.0517422897817 277.223806554545 # Ar
560 560 1 0.0 102.86476381287108 366.3404555133903 72.41226637252402 # Ar
561 561 1 0.0 51.49554490217417 103.76024127573166 483.62349629465433 # Ar
562 562 1 0.0 112.75149217654895 16.721814378874797 356.12782086188014 # Ar
563 563 1 0.0 141.85700730245932 196.37185650726127 207.47406628229268 # Ar
564 564 1 0.0 4.917012931385954 57.50777621108929 375.12305508690747 # Ar
565 565 1 0.0 506.1951162806443 473.36214879305135 120.57550524592146 # Ar
566 566 1 0.0 323.71843588260236 322.7770163604832 104.48418337080331 # Ar
567 567 1 0.0 286.69472658068423 262.37006163322843 118.89211269150273 # Ar
568 568 1 0.0 113.2377167699463 228.99971753912243 141.53965625559107 # Ar
569 569 1 0.0 50.427569888401294 183.82335630109068 49.72314853219632 # Ar
570 570 1 0.0 268.0690567335996 428.9485949563157 413.4074298217105 # Ar
571 571 1 0.0 491.20890678959097 401.8295781618338 340.3844647358479 # Ar
572 572 1 0.0 128.88068888267665 29.083214638440722 239.64815439869793 # Ar
573 573 1 0.0 238.3215195368419 445.52101732179995 145.6660272030962 # Ar
574 574 1 0.0 346.79582027777093 438.5680880704315 495.28251668134857 # Ar
575 575 1 0.0 71.55514237447942 122.70975706087951 208.09616040090506 # Ar
576 576 1 0.0 498.68271431730574 348.4278632696968 458.4208017264177 # Ar
577 577 1 0.0 201.5555416044737 249.46401414615366 131.10102529768156 # Ar
578 578 1 0.0 303.901805935786 297.99557586734494 39.317677937259134 # Ar
579 579 1 0.0 441.4463792157735 94.36000567093168 471.97772811609224 # Ar
580 580 1 0.0 441.95242256552615 465.7189783212623 71.3143700601954 # Ar
581 581 1 0.0 370.8588822985458 7.8688371802229105 73.80693494123621 # Ar
582 582 1 0.0 397.56463491245563 43.72303833353938 100.57614315750453 # Ar
583 583 1 0.0 434.47766473764733 162.95292718868888 353.62920880908433 # Ar
584 584 1 0.0 200.19281545545846 460.24595984299515 480.8929510327889 # Ar
585 585 1 0.0 65.31254839514864 366.75557025553434 454.31336052433846 # Ar
586 586 1 0.0 55.45952995521528 241.3862270407854 497.1391152021993 # Ar
587 587 1 0.0 398.95740231515555 343.2430646720744 185.57370038523413 # Ar
588 588 1 0.0 467.6397573629484 5.643450621637262 144.89691806502915 # Ar
589 589 1 0.0 135.1208023560259 470.7397646537817 273.2194046101038 # Ar
590 590 1 0.0 58.98678786731295 464.78347808425735 40.94539634972833 # Ar
591 591 1 0.0 478.0695305504004 318.0123687907463 407.2356539544324 # Ar
592 592 1 0.0 410.4877154818417 432.08942375730453 37.55928462300847 # Ar
593 593 1 0.0 401.3526084295771 174.92995030053902 260.4629572700842 # Ar
594 594 1 0.0 338.6898912903358 444.4236020489435 401.6985962599933 # Ar
595 595 1 0.0 418.83216994352114 154.00771610245818 231.02531634214986 # Ar
596 596 1 0.0 426.39099325730126 454.29449564937823 359.4593881336308 # Ar
597 597 1 0.0 261.9704894188811 197.06145201046152 244.5662946185663 # Ar
598 598 1 0.0 505.61791622881674 340.85165703840306 281.6436840250922 # Ar
599 599 1 0.0 27.231071599340577 262.84453138302274 86.8596783711252 # Ar
600 600 1 0.0 351.229902322942 89.03007442255694 70.50661110298496 # Ar
601 601 1 0.0 229.2702928350229 116.77490268516735 318.040476781063 # Ar
602 602 1 0.0 346.3169962556595 110.69922539172761 214.2564845483293 # Ar
603 603 1 0.0 503.6594248989452 60.96060975941005 235.1008179438291 # Ar
604 604 1 0.0 480.9815608791404 451.8853778227402 353.1708542959241 # Ar
605 605 1 0.0 192.12881324158158 318.80522280925703 302.9144245748854 # Ar
606 606 1 0.0 85.30037422441069 101.64666818151673 159.4331563748684 # Ar
607 607 1 0.0 366.09691693381285 491.05591887197045 76.62917736093824 # Ar
608 608 1 0.0 198.32727879802826 23.237881142123346 58.670661901381976 # Ar
609 609 1 0.0 458.13714543006216 328.72999333110147 442.22873896607086 # Ar
610 610 1 0.0 124.8387435116622 27.865757277855955 190.9466154513351 # Ar
611 611 1 0.0 24.356077867186954 93.17281145173452 188.3510579806759 # Ar
612 612 1 0.0 204.78923499930386 319.5539347220184 171.1477421486127 # Ar
613 613 1 0.0 108.71894302166594 275.90351353893107 226.5233710367914 # Ar
614 614 1 0.0 396.54635222565355 303.221662830987 460.92941046639885 # Ar
615 615 1 0.0 115.3361360732312 157.64896940408235 160.25990309422824 # Ar
616 616 1 0.0 449.92867761219946 483.0808076807305 332.84627567202523 # Ar
617 617 1 0.0 299.24152144440956 279.8533245664605 115.6311618939536 # Ar
618 618 1 0.0 7.664035316877581 414.2288533409373 137.54008984262364 # Ar
619 619 1 0.0 146.16307823070045 299.3763912949592 128.61579784118538 # Ar
620 620 1 0.0 265.37009322068343 161.59720985918406 365.95197667136813 # Ar
621 621 1 0.0 485.5620536318122 241.3030634870114 344.7694554604086 # Ar
622 622 1 0.0 487.069267217041 80.43067606850168 285.12530532268545 # Ar
623 623 1 0.0 33.32540015144465 174.42065215179693 303.27307979108883 # Ar
624 624 1 0.0 87.81749366877675 210.46005556927787 308.5572046646906 # Ar
625 625 1 0.0 469.22630086825177 149.56102626937795 242.99672133158032 # Ar
626 626 1 0.0 508.91581326982595 335.52350114362093 12.920969035740587 # Ar
627 627 1 0.0 172.1261018494806 434.70934299011407 413.06511099458027 # Ar
628 628 1 0.0 125.8072678890168 17.718250857777555 231.67664310590337 # Ar
629 629 1 0.0 506.76037061458607 268.3689547113172 449.59621581297165 # Ar
630 630 1 0.0 197.15236889390317 146.2698881518266 381.1258436832695 # Ar
631 631 1 0.0 77.65990755175108 275.5791011040709 2.9734308806864482 # Ar
632 632 1 0.0 100.17609589296045 287.09394185210687 147.95424516442074 # Ar
633 633 1 0.0 474.79481812278266 147.61807611568733 27.20265221035311 # Ar
634 634 1 0.0 24.64311960006079 206.53265629813427 181.32313313909316 # Ar
635 635 1 0.0 139.22565033551132 311.0569399901851 232.65616963732666 # Ar
636 636 1 0.0 329.0570450978995 487.5593213224098 290.72197177296664 # Ar
637 637 1 0.0 98.77897253826413 105.30977885764179 408.40248260338745 # Ar
638 638 1 0.0 237.4157086826624 138.840941802542 495.9200395827033 # Ar
639 639 1 0.0 130.7206743801543 93.7992620445865 77.96491064104691 # Ar
640 640 1 0.0 90.42193606901503 509.8399509563268 229.35574044549202 # Ar
641 641 1 0.0 24.309703117117852 79.20647665583643 397.5817645153049 # Ar
642 642 1 0.0 236.66989472543972 239.267637560111 229.64195671551948 # Ar
643 643 1 0.0 447.9428146527217 54.973266557888564 287.10770785208166 # Ar
644 644 1 0.0 298.70034965222226 450.86012703112465 108.02840802678134 # Ar
645 645 1 0.0 137.19794986853256 119.2899796189508 83.54081281399341 # Ar
646 646 1 0.0 445.7916140189919 310.26114082177753 358.09883720984516 # Ar
647 647 1 0.0 87.65195354853914 180.22262813843156 468.5026240890291 # Ar
648 648 1 0.0 45.46090441811525 386.2719042949374 152.12831529279484 # Ar
649 649 1 0.0 153.35865600822564 277.65731812639956 72.13720659785074 # Ar
650 650 1 0.0 208.56001673805386 79.2248982097979 458.6192355279341 # Ar
651 651 1 0.0 428.69332016040835 82.17141123525575 55.34920054070303 # Ar
652 652 1 0.0 77.23323168865356 493.584049982378 20.38473178274626 # Ar
653 653 1 0.0 338.942852066852 503.6189775507369 375.1959778485425 # Ar
654 654 1 0.0 127.47401543652262 34.76172684761134 384.8710402608019 # Ar
655 655 1 0.0 143.25249142846732 341.4197960312214 150.83038540106267 # Ar
656 656 1 0.0 490.90864448924754 513.4162010571551 296.5186061004842 # Ar
657 657 1 0.0 400.51212816640026 445.3905228945 73.41047699845144 # Ar
658 658 1 0.0 349.97340968619613 402.4898126025243 256.13444563383274 # Ar
659 659 1 0.0 118.14794032751834 485.1225967434105 22.044305636367824 # Ar
660 660 1 0.0 136.5083203824203 469.77138307711846 357.14134563439427 # Ar
661 661 1 0.0 469.52518957910235 2.3369491921585133 477.826469419197 # Ar
662 662 1 0.0 156.352905139312 73.91599640176825 260.7605502485958 # Ar
663 663 1 0.0 248.90151427427793 202.13300181987702 418.14977464593176 # Ar
664 664 1 0.0 367.05021132608766 151.00603111978052 3.3527615394643875 # Ar
665 665 1 0.0 513.6288213985971 263.272024016099 236.70690585811315 # Ar
666 666 1 0.0 46.63725407485937 84.97327266491531 132.97308148557374 # Ar
667 667 1 0.0 464.2419520869273 82.69302548433224 131.73741639713995 # Ar
668 668 1 0.0 241.72034551877502 404.57531695528394 443.68759169133506 # Ar
669 669 1 0.0 201.23780343240293 160.56477884001256 367.24060127868734 # Ar
670 670 1 0.0 139.40201468329673 118.71094257473534 198.58108478937885 # Ar
671 671 1 0.0 6.125969592550888 94.0361046528478 512.9267065326559 # Ar
672 672 1 0.0 29.78376875992927 222.60246839384249 174.36939993506206 # Ar
673 673 1 0.0 310.69649904066404 78.83062380948864 91.65812182956925 # Ar
674 674 1 0.0 221.8449316218442 246.56694823490201 431.827130296874 # Ar
675 675 1 0.0 498.1002411214144 253.57012259046144 98.2373358499522 # Ar
676 676 1 0.0 29.67561691511383 297.69925084024607 111.96839970305797 # Ar
677 677 1 0.0 504.265193583873 306.69422287883987 79.02574125855352 # Ar
678 678 1 0.0 121.6411485837017 1.172515610108071 450.9702440117094 # Ar
679 679 1 0.0 208.78933862233478 5.114486239709002 228.80326712670885 # Ar
680 680 1 0.0 485.02613297405475 421.91720769882664 462.33255321271406 # Ar
681 681 1 0.0 381.9285397184098 89.08341067372115 329.0333247889799 # Ar
682 682 1 0.0 504.25521320289727 28.8027946461874 492.49668377932437 # Ar
683 683 1 0.0 500.4011857505185 364.52155363551714 82.1797091443931 # Ar
684 684 1 0.0 202.1307908129519 190.62636277331748 12.85000981807087 # Ar
685 685 1 0.0 378.32778291355305 113.11288476857996 112.2940283179906 # Ar
686 686 1 0.0 102.41476589652278 23.696958255797252 39.660225471665555 # Ar
687 687 1 0.0 194.9582806806627 505.01077445963733 350.04043491059485 # Ar
688 688 1 0.0 68.97705050116168 38.12501153891615 191.18320013499934 # Ar
689 689 1 0.0 299.0010905368353 330.9094468615066 176.1490145287648 # Ar
690 690 1 0.0 412.36446113510004 204.19933247091382 368.52379959338936 # Ar
691 691 1 0.0 371.034648419848 87.7359593503985 163.95553751984428 # Ar
692 692 1 0.0 494.59569695112606 274.01531095017157 441.0017008070748 # Ar
693 693 1 0.0 30.875983985448006 183.53070651194787 370.34445332262766 # Ar
694 694 1 0.0 53.751347912945455 341.4176699222465 305.4227929006184 # Ar
695 695 1 0.0 80.79619687991244 308.2157691003385 99.64307016157132 # Ar
696 696 1 0.0 217.44703612792043 329.3270452976597 56.195339841174935 # Ar
697 697 1 0.0 189.8033994614087 501.95830771833397 219.70957285485719 # Ar
698 698 1 0.0 255.2180686667207 65.4650206775007 169.0413400619338 # Ar
699 699 1 0.0 373.0176323206801 378.1945636025127 228.10048590767528 # Ar
700 700 1 0.0 483.99441705585434 445.83267256831937 304.0288851308475 # Ar
701 701 1 0.0 485.4066958708275 321.1915802024104 105.85645945427822 # Ar
702 702 1 0.0 306.16057563475334 289.5459249725105 100.75293466757707 # Ar
703 703 1 0.0 488.28936821656714 35.91702300441201 411.03460159355336 # Ar
704 704 1 0.0 270.13059648914 5.69022471724968 223.93612527969648 # Ar
705 705 1 0.0 420.5700714457507 97.65661683440655 413.0373274180563 # Ar
706 706 1 0.0 329.2110246488561 77.25522124446896 395.8366560556479 # Ar
707 707 1 0.0 389.915063974712 76.65745956535774 91.90709783020523 # Ar
708 708 1 0.0 203.48767682977575 72.76495411879878 167.05259875170947 # Ar
709 709 1 0.0 35.33745714294695 124.6231144878036 397.5329971815225 # Ar
710 710 1 0.0 291.3431222698968 296.48322215855467 269.8279425139321 # Ar
711 711 1 0.0 18.37797730000836 196.2839028454616 247.0478731485289 # Ar
712 712 1 0.0 396.5877832030779 101.67444560005444 339.74552797798964 # Ar
713 713 1 0.0 227.42939080915806 16.080551356839415 201.35854436515407 # Ar
714 714 1 0.0 504.5246639979586 85.66057873238704 347.0480319847257 # Ar
715 715 1 0.0 135.22134826800686 251.71768583904077 480.699620882009 # Ar
716 716 1 0.0 505.09922802444987 25.73667826651339 296.9980537245887 # Ar
717 717 1 0.0 120.15543013278398 69.2321634963796 468.040904559594 # Ar
718 718 1 0.0 68.97168643433525 492.50610162168863 109.31058171800174 # Ar
719 719 1 0.0 512.456355031301 372.1330302208889 474.4527118589345 # Ar
720 720 1 0.0 139.3861721512817 27.753048565317243 2.6398221092496774 # Ar
721 721 1 0.0 310.46205301764763 250.2018346951764 248.0478649048178 # Ar
722 722 1 0.0 475.45938660174954 454.282508793665 187.18510353238062 # Ar
723 723 1 0.0 379.08535346702826 443.0271105718449 292.66517337278316 # Ar
724 724 1 0.0 122.7477679185844 313.6339345877302 247.03041476107705 # Ar
725 725 1 0.0 126.9866516405645 470.8023144414821 381.1138807092475 # Ar
726 726 1 0.0 7.059522537650494 436.6099232214513 330.5882275970544 # Ar
727 727 1 0.0 231.16526667746356 392.3026695227429 431.4195379525103 # Ar
728 728 1 0.0 444.01093619329504 152.23511049580137 72.39310471829394 # Ar
729 729 1 0.0 290.4697779102661 201.17171827645723 447.5435972720031 # Ar
730 730 1 0.0 277.98070208560523 193.56896603208543 243.25202195376656 # Ar
731 731 1 0.0 309.52050524907025 185.83517667119563 414.079659855232 # Ar
732 732 1 0.0 498.72564176893496 91.49125743447067 187.07270032168333 # Ar
733 733 1 0.0 276.4369835685726 163.12933061117886 121.1666150219477 # Ar
734 734 1 0.0 12.153835349358495 222.33433826033303 190.81530894506184 # Ar
735 735 1 0.0 369.86439632806986 21.64620825388941 224.18350914366923 # Ar
736 736 1 0.0 139.90842483278215 181.57955504702 192.27214496997397 # Ar
737 737 1 0.0 85.37896831881842 346.7609241257271 75.39892257901353 # Ar
738 738 1 0.0 447.72736430698006 374.990168078291 491.1599281332826 # Ar
739 739 1 0.0 383.6202109878978 495.1608980112311 231.9409082101196 # Ar
740 740 1 0.0 497.6035134570342 455.7803315691548 208.741484336577 # Ar
741 741 1 0.0 261.6713278896666 56.9393138268053 222.24550761388076 # Ar
742 742 1 0.0 454.2197606723799 482.5432103611959 488.38096572804125 # Ar
743 743 1 0.0 44.713886648667874 105.63853870278784 243.66422545502476 # Ar
744 744 1 0.0 394.7693565840341 126.5098067406203 144.05488957747656 # Ar
745 745 1 0.0 398.9347873364957 68.36855417628432 207.08267346455654 # Ar
746 746 1 0.0 49.916391153350226 481.525535856692 250.03456323271106 # Ar
747 747 1 0.0 235.94501724984747 0.9277736662022306 275.44918425235824 # Ar
748 748 1 0.0 359.68778005773487 229.05052022791034 370.8884337814265 # Ar
749 749 1 0.0 237.12553407679795 41.211093056447154 343.5854537281852 # Ar
750 750 1 0.0 313.56654021614287 32.9082870765417 471.89364256146285 # Ar
751 751 1 0.0 438.27662356899253 274.9579845814302 116.6371935369514 # Ar
752 752 1 0.0 361.7776808976147 431.35724781728396 214.2934315424682 # Ar
753 753 1 0.0 403.52076439722055 13.792838789254182 470.68079496804665 # Ar
754 754 1 0.0 434.1957837630705 318.74779850209245 135.80416934422257 # Ar
755 755 1 0.0 62.23257316393936 382.1947301943093 242.90963710453877 # Ar
756 756 1 0.0 122.09889178272367 508.41576344036855 389.8190333625565 # Ar
757 757 1 0.0 119.70243177637632 60.61232332339273 93.96513364604384 # Ar
758 758 1 0.0 27.07608838674193 224.20530102974791 238.53764746589994 # Ar
759 759 1 0.0 386.5685675260382 228.41711127918148 447.3289801842905 # Ar
760 760 1 0.0 416.9729981014504 349.8236353012278 106.70123409586587 # Ar
761 761 1 0.0 465.1217005983689 245.03597779259385 22.004053386330796 # Ar
762 762 1 0.0 307.6982860950561 377.00049612670597 363.30300866727174 # Ar
763 763 1 0.0 10.848149023040149 130.07028573592103 204.76029074918134 # Ar
764 764 1 0.0 382.9371509164668 210.86332699746103 315.24595003194776 # Ar
765 765 1 0.0 464.21844962655916 175.57013290514556 511.3515740846414 # Ar
766 766 1 0.0 27.80556620008122 298.65573180452213 139.06064653093907 # Ar
767 767 1 0.0 480.1030928147289 360.4479550472894 507.8548247530746 # Ar
768 768 1 0.0 364.75232409367726 1.7781039665807297 344.2077977677903 # Ar
769 769 1 0.0 61.53485465411803 0.3991676572220088 465.4827795479955 # Ar
770 770 1 0.0 470.0013181446437 362.8304333438053 378.55617320219216 # Ar
771 771 1 0.0 406.099135825964 266.6547877827918 175.85229247861204 # Ar
772 772 1 0.0 109.22995328672508 112.58678321485114 157.6921196433496 # Ar
773 773 1 0.0 217.45510603470365 464.4273001196342 426.36798559971663 # Ar
774 774 1 0.0 351.1712487236916 166.38019804010267 448.65004821555596 # Ar
775 775 1 0.0 465.519443599588 142.7355652607413 175.08405174301242 # Ar
776 776 1 0.0 466.4919179477331 445.97950802810533 276.3904693548487 # Ar
777 777 1 0.0 94.33190568288789 396.0868101023724 292.19086082156963 # Ar
778 778 1 0.0 333.73711856706296 506.8344904308689 81.49276594276012 # Ar
779 779 1 0.0 222.14383355005782 99.62692304430807 422.2375871761654 # Ar
780 780 1 0.0 21.35785145276212 98.52982989449771 387.56803841119404 # Ar
781 781 1 0.0 305.62918464252067 455.101536806354 11.701345692011257 # Ar
782 782 1 0.0 360.37825996027306 2.4116050940155884 67.877004877315 # Ar
783 783 1 0.0 149.827607816698 513.8396137193395 367.1574672920931 # Ar
784 784 1 0.0 359.0696256030563 16.556816639447508 334.1970482855667 # Ar
785 785 1 0.0 430.07762635337906 229.24127472100318 61.37653582000196 # Ar
786 786 1 0.0 388.8907246748815 204.16324948660858 338.78033290589315 # Ar
787 787 1 0.0 436.73815245286966 501.15217667306035 81.36078819774264 # Ar
788 788 1 0.0 373.05335368042256 43.0175630545209 294.72439136921537 # Ar
789 789 1 0.0 87.47525773516031 415.13686551626097 148.6895897974216 # Ar
790 790 1 0.0 144.25160088646905 48.40974836220899 73.48420461349701 # Ar
791 791 1 0.0 183.62575044116676 36.493837318107836 264.88000806347486 # Ar
792 792 1 0.0 9.309966987081188 48.85144206870444 4.822571531127163 # Ar
793 793 1 0.0 270.71874486479885 0.44387589959674756 29.98498308847286 # Ar
794 794 1 0.0 278.25844406568837 422.29305583375606 432.9388529879982 # Ar
795 795 1 0.0 338.38492948181306 13.742427909248788 5.5736378946101155 # Ar
796 796 1 0.0 111.04949377095413 205.24382121177274 406.2433223589273 # Ar
797 797 1 0.0 485.91317467730846 247.75996054274805 214.14118475001797 # Ar
798 798 1 0.0 290.9420499783995 95.20128804916732 506.8542608954549 # Ar
799 799 1 0.0 362.4724317883035 367.5882436016062 95.66290113176927 # Ar
800 800 1 0.0 293.4569674007789 327.8850788231143 17.13047686870953 # Ar
801 801 1 0.0 274.54261175388297 311.959104236908 55.62431366230389 # Ar
802 802 1 0.0 513.5341321544439 97.67847676120697 422.91756550531346 # Ar
803 803 1 0.0 349.9438437940943 487.88869495970727 197.23556090862314 # Ar
804 804 1 0.0 392.9000990086464 183.9917110150633 432.29014443658355 # Ar
805 805 1 0.0 241.36695523364725 504.45090524270444 38.778672113955025 # Ar
806 806 1 0.0 149.7949240530921 281.7699844111346 0.04175320152203898 # Ar
807 807 1 0.0 353.2501045779867 301.3561754111296 378.23472452764724 # Ar
808 808 1 0.0 252.70561113650908 335.1003181684972 182.085767622373 # Ar
809 809 1 0.0 146.78131701990895 257.4381138606315 448.57466068686955 # Ar
810 810 1 0.0 496.6947992315943 421.892293923382 148.37099936414995 # Ar
811 811 1 0.0 25.724435658807458 20.996745796892057 118.08164999995986 # Ar
812 812 1 0.0 51.58675218112908 316.75420384331335 249.90271518714806 # Ar
813 813 1 0.0 402.8274357505384 387.4977898482814 223.66289891498153 # Ar
814 814 1 0.0 28.07362032349783 286.9947856321497 368.05458983726993 # Ar
815 815 1 0.0 65.64531093586865 333.62990684422897 510.1058593484457 # Ar
816 816 1 0.0 83.79238356092978 316.2096983784972 482.865546370147 # Ar
817 817 1 0.0 142.43867015060104 448.8911874734286 53.394155037376855 # Ar
818 818 1 0.0 264.9438550224791 182.4924919103659 234.62333970399098 # Ar
819 819 1 0.0 195.4095438312131 489.0616586418883 489.6400275852148 # Ar
820 820 1 0.0 318.39274501737145 0.8073666085447475 500.713436524455 # Ar
821 821 1 0.0 440.8735828761711 377.0115984460674 152.75229736330013 # Ar
822 822 1 0.0 184.99515230095847 108.56443973203959 298.3986911867757 # Ar
823 823 1 0.0 285.47202111517043 9.276465731361174 106.19495193354565 # Ar
824 824 1 0.0 57.49310959736483 240.77939220151438 496.7236705411128 # Ar
825 825 1 0.0 370.0071214685529 357.83330511051616 100.51782980152723 # Ar
826 826 1 0.0 323.5732485660208 22.485708056838476 54.638352088011544 # Ar
827 827 1 0.0 400.6464827038009 340.3679179474271 83.4902200019008 # Ar
828 828 1 0.0 128.0081963031153 426.2754534714937 434.4844706187544 # Ar
829 829 1 0.0 449.4343038802604 95.4411600647816 3.3295372278843383 # Ar
830 830 1 0.0 42.93668582860585 470.5212422752695 65.41460368349185 # Ar
831 831 1 0.0 87.44143802827374 438.1321707569068 303.68878002657846 # Ar
832 832 1 0.0 130.44222508684248 315.0467834270021 483.474738887245 # Ar
833 833 1 0.0 51.337931769840374 482.66720617594547 474.6461848452921 # Ar
834 834 1 0.0 166.6799861984216 202.36921741597052 145.26036462836228 # Ar
835 835 1 0.0 218.30890784840898 504.6038555436398 483.61128156566065 # Ar
836 836 1 0.0 347.7854135339295 109.13224136553363 451.21231395691484 # Ar
837 837 1 0.0 222.45148701604336 23.078582102322223 109.53741349730625 # Ar
838 838 1 0.0 51.366162824676415 258.1342069613203 128.19164464624032 # Ar
839 839 1 0.0 508.3197505638472 322.34438532425236 37.23991973922549 # Ar
840 840 1 0.0 139.35768182724615 66.92463677092883 165.1060647801437 # Ar
841 841 1 0.0 183.77399946053308 2.6445382026230817 341.43681856220763 # Ar
842 842 1 0.0 211.7287332957306 238.0013885130356 98.00404941473384 # Ar
843 843 1 0.0 147.30283933982992 280.2986085875476 348.4433119146189 # Ar
844 844 1 0.0 174.76568015241835 43.77740331638402 186.29371302896394 # Ar
845 845 1 0.0 201.3148130575349 132.36421139226672 94.30470059130059 # Ar
846 846 1 0.0 298.7983168474799 450.99229551915715 173.0970668622185 # Ar
847 847 1 0.0 304.6660113743753 314.5292805791926 200.1201468680125 # Ar
848 848 1 0.0 438.1625909131866 260.0258148526488 8.780626779686814 # Ar
849 849 1 0.0 505.9117614424774 82.74224301368992 153.13225984888473 # Ar
850 850 1 0.0 443.5944815911071 124.97290365858429 430.31790777126247 # Ar
851 851 1 0.0 488.24853839603105 140.69098876167874 429.2546566751489 # Ar
852 852 1 0.0 296.43410931124936 108.58098718207142 299.98966060283266 # Ar
853 853 1 0.0 164.0047118629185 273.12335486472534 0.8081998561345434 # Ar
854 854 1 0.0 461.7512511219364 286.07385695360256 288.43904513435825 # Ar
855 855 1 0.0 79.81348717000719 195.21032588480412 336.13073936338986 # Ar
856 856 1 0.0 322.3785111562442 112.3333267706505 360.30402939328553 # Ar
857 857 1 0.0 108.40044799814159 507.95943956713535 388.14487781776944 # Ar
858 858 1 0.0 483.9480562747908 371.124034280129 185.29727383275082 # Ar
859 859 1 0.0 301.8868011912187 411.56341096721394 362.00210344023384 # Ar
860 860 1 0.0 307.15875617391293 299.7624086694587 501.76242914294727 # Ar
861 861 1 0.0 200.96880434815884 48.97461397511071 300.35378822628576 # Ar
862 862 1 0.0 496.4770973736423 429.4284618683453 452.44125129205804 # Ar
863 863 1 0.0 251.28517067706318 415.2315117332222 12.29120662241993 # Ar
864 864 1 0.0 4.480069273964459 217.67710881554044 113.1316390585078 # Ar
865 865 1 0.0 301.923460449582 416.1888559113184 19.649351612280206 # Ar
866 866 1 0.0 220.0781756779555 242.01339352728408 30.19064605639557 # Ar
867 867 1 0.0 506.56072735859266 395.59957403599776 396.3357927641624 # Ar
868 868 1 0.0 21.593940198415133 244.77627658367297 275.90592153167506 # Ar
869 869 1 0.0 199.62812893189144 36.24216356010446 159.29982273740336 # Ar
870 870 1 0.0 421.45588664510063 389.9893257840317 229.88784094664874 # Ar
871 871 1 0.0 494.2824198140996 34.45892889381186 469.5286444568468 # Ar
872 872 1 0.0 484.349784821582 489.8238150242768 374.51018815139855 # Ar
873 873 1 0.0 387.68247319432845 499.43353481451425 505.40323278124686 # Ar
874 874 1 0.0 79.85356366576572 480.68236746890506 9.831328517540673 # Ar
875 875 1 0.0 388.03760528525163 58.69358247583929 208.85082865494732 # Ar
876 876 1 0.0 447.0583246315363 108.71270684278198 400.90733380822536 # Ar
877 877 1 0.0 372.80974672816774 39.26623907614225 145.1855900339963 # Ar
878 878 1 0.0 405.45776874126796 352.586523733855 308.2594518198277 # Ar
879 879 1 0.0 421.87179817006074 190.38069521930865 211.09822457144836 # Ar
880 880 1 0.0 374.5527349083988 211.04361871807612 430.669225755084 # Ar
881 881 1 0.0 353.54028460714363 73.32749466615992 56.69193039707821 # Ar
882 882 1 0.0 495.29156929549976 491.070289113898 447.5823435599981 # Ar
883 883 1 0.0 224.98524027458214 477.88754581053945 170.37030685261382 # Ar
884 884 1 0.0 23.480409773939655 473.4587379463078 272.192384822219 # Ar
885 885 1 0.0 58.123456706880006 97.01269789439321 431.46613227879124 # Ar
886 886 1 0.0 122.54169104333637 312.842871503099 218.34491652803828 # Ar
887 887 1 0.0 148.23847905579822 499.0643794693949 117.81459245024192 # Ar
888 888 1 0.0 67.63575546298662 486.83337076925227 384.3323909346967 # Ar
889 889 1 0.0 173.8183570044624 63.819117906049065 196.13707074621544 # Ar
890 890 1 0.0 248.06954321606602 370.0958802186731 227.05987033854424 # Ar
891 891 1 0.0 74.38727250671538 133.29374841943107 294.77755120403975 # Ar
892 892 1 0.0 141.86041327357853 205.01354499815656 461.1761486521236 # Ar
893 893 1 0.0 196.88480729941247 449.0158932783378 408.8344595827281 # Ar
894 894 1 0.0 267.03649315736544 68.73263819970641 76.17633404551108 # Ar
895 895 1 0.0 58.865029285621155 140.0191089957119 436.5986222993157 # Ar
896 896 1 0.0 24.781804347109308 417.016925971783 331.43778439670916 # Ar
897 897 1 0.0 293.0083551141754 247.6344367436244 291.0884144118068 # Ar
898 898 1 0.0 202.19271232234976 507.518491582623 315.7914542484057 # Ar
899 899 1 0.0 509.0017549484673 397.70475290852283 359.9848462222615 # Ar
900 900 1 0.0 135.72556357481872 498.58528712437686 68.95973193347187 # Ar
901 901 1 0.0 487.96112984323895 166.97614314484468 0.6315816993470317 # Ar
902 902 1 0.0 135.45061205937157 125.91245416389242 335.4686461364773 # Ar
903 903 1 0.0 8.917621393484382 418.9231230028889 73.67392448674147 # Ar
904 904 1 0.0 249.152602799961 220.14490916722187 309.75163845738155 # Ar
905 905 1 0.0 270.3459346440493 73.00613646135399 364.3465730561 # Ar
906 906 1 0.0 332.575180931971 131.20118632382983 267.64315552972016 # Ar
907 907 1 0.0 414.67783339046997 60.799289880341554 438.82117273974893 # Ar
908 908 1 0.0 81.61279153399623 54.72138591468805 448.63249512913524 # Ar
909 909 1 0.0 284.4851993419132 103.04771720365761 446.4577937365758 # Ar
910 910 1 0.0 382.5648673803129 95.45443323813633 239.45034084092697 # Ar
911 911 1 0.0 168.03211837584743 79.0678555035165 24.233988303591723 # Ar
912 912 1 0.0 245.39517740573422 479.80031636139313 420.9926113670357 # Ar
913 913 1 0.0 32.31038323343756 131.80167417133558 2.8489711484681712 # Ar
914 914 1 0.0 38.17382054444482 343.7722376499281 81.95922016214061 # Ar
915 915 1 0.0 319.3476604558716 56.62423174912595 397.8368925388327 # Ar
916 916 1 0.0 101.74967285359011 62.202867775991095 377.91666821257525 # Ar
917 917 1 0.0 50.75384199276193 229.26891960261275 373.591332898049 # Ar
918 918 1 0.0 129.45120655495762 327.6702890608584 175.63161705894905 # Ar
919 919 1 0.0 461.9538018818343 173.285646641716 105.48802305037832 # Ar
920 920 1 0.0 223.12600274825698 498.34216539637794 148.60374196238314 # Ar
921 921 1 0.0 426.0923300027168 434.86845971087274 19.427514695925144 # Ar
922 922 1 0.0 221.5530745500141 458.34079449805535 136.11738371127862 # Ar
923 923 1 0.0 80.46302053592053 107.492482076212 424.7768948193358 # Ar
924 924 1 0.0 329.89864576629566 303.23599946269593 70.3978090250861 # Ar
925 925 1 0.0 346.2080641403754 480.79165988392407 191.20328862489177 # Ar
926 926 1 0.0 460.344146994009 318.9848776348179 330.0735406963286 # Ar
927 927 1 0.0 53.17292673709281 365.2967147933529 496.94493764646245 # Ar
928 928 1 0.0 383.621506207096 356.6900478886335 394.46840190512245 # Ar
929 929 1 0.0 66.01662732155293 5.259784490578146 129.7261039973827 # Ar
930 930 1 0.0 51.108579825785036 2.8320837797783573 135.80334246374144 # Ar
931 931 1 0.0 512.1705499851574 296.94018890802346 430.0466247643622 # Ar
932 932 1 0.0 116.02442746131595 188.14983756366018 488.6523838283447 # Ar
933 933 1 0.0 316.42376898982883 2.8141967432298833 329.22480437380665 # Ar
934 934 1 0.0 468.7265624058619 374.3395059343675 387.08129515194196 # Ar
935 935 1 0.0 298.7890391162683 63.92069453157044 141.4427791947859 # Ar
936 936 1 0.0 364.43017299444017 193.19148105480937 34.88212753861176 # Ar
937 937 1 0.0 10.990022455126956 45.01105659823178 446.78954786274903 # Ar
938 938 1 0.0 86.04600870547111 260.6358262482054 98.70640791914303 # Ar
939 939 1 0.0 108.05723223393676 170.55889173916844 434.6309575641657 # Ar
940 940 1 0.0 391.4994925841694 329.62346088871084 79.83301552752803 # Ar
941 941 1 0.0 373.6815656512486 284.5934009891366 437.9371455872296 # Ar
942 942 1 0.0 63.77342490719466 247.80175100854024 411.96758516078216 # Ar
943 943 1 0.0 444.8597555962682 73.11625929302163 376.13237141734874 # Ar
944 944 1 0.0 20.89967970238852 505.7940543226534 456.32915784033884 # Ar
945 945 1 0.0 440.49556918502617 185.12392379978348 384.6797705624855 # Ar
946 946 1 0.0 169.84139985819007 211.45305935197578 267.0808097333301 # Ar
947 947 1 0.0 284.5179788927697 267.97596795651606 493.30030131727557 # Ar
948 948 1 0.0 294.88014321606323 112.61014420983243 240.19673292255126 # Ar
949 949 1 0.0 9.89024754994245 419.87704408733833 253.21629168349523 # Ar
950 950 1 0.0 286.62756602040673 279.2712627613079 303.8955200331776 # Ar
951 951 1 0.0 85.52025406372918 340.0510553878134 398.21410483905726 # Ar
952 952 1 0.0 87.12840557921693 145.7334594517179 199.58160039032674 # Ar
953 953 1 0.0 462.22449699742464 440.9771024343777 183.16899433997523 # Ar
954 954 1 0.0 408.6994424904966 352.286838872414 383.46090359939745 # Ar
955 955 1 0.0 462.91208091136303 315.68597834869024 231.9103059811097 # Ar
956 956 1 0.0 261.50650663836893 147.27530230223704 18.76795870736 # Ar
957 957 1 0.0 278.203790962635 109.0191935592766 497.83508621521304 # Ar
958 958 1 0.0 443.4324982123186 235.2965887569412 442.8206992123428 # Ar
959 959 1 0.0 339.9504883933208 204.19335469548744 405.17922692444637 # Ar
960 960 1 0.0 242.2832082894444 354.0178976501416 409.615616014736 # Ar
961 961 1 0.0 292.03484518768886 203.51751475221096 413.5202515325876 # Ar
962 962 1 0.0 406.1138692471513 426.44743173495687 270.92506952505494 # Ar
963 963 1 0.0 254.69406030849925 385.0028188711519 305.247333459047 # Ar
964 964 1 0.0 432.7577397198362 340.3575600027266 204.33932371229045 # Ar
965 965 1 0.0 120.51767620710781 342.91805372289946 405.36642442961784 # Ar
966 966 1 0.0 201.38652695621607 224.77049389374773 76.69408353642037 # Ar
967 967 1 0.0 291.851055318146 114.56391549314864 183.78068153575384 # Ar
968 968 1 0.0 318.062385123945 276.7484681851437 27.542681850541594 # Ar
969 969 1 0.0 34.17652032140241 354.4950214113235 166.74567288059123 # Ar
970 970 1 0.0 277.2966268848037 502.38501235394443 496.23094044728265 # Ar
971 971 1 0.0 61.74874771559976 115.3903124725276 339.3122254613505 # Ar
972 972 1 0.0 144.76415700509853 498.93195631271016 332.12777978921747 # Ar
973 973 1 0.0 112.99546721999972 224.6036979469561 506.89845540804123 # Ar
974 974 1 0.0 412.749970043045 417.73470921102415 63.82351120635954 # Ar
975 975 1 0.0 505.73873461985437 78.2119958177716 77.56556291646936 # Ar
976 976 1 0.0 385.5099161153531 125.4895382059438 233.44850118496325 # Ar
977 977 1 0.0 447.0876272779978 448.4867754469716 76.57764097186079 # Ar
978 978 1 0.0 142.8019440111454 424.2588048911039 76.66087340822551 # Ar
979 979 1 0.0 303.0538682963604 387.25455270388954 401.19381254138443 # Ar
980 980 1 0.0 108.64889490203798 374.02161081482603 36.2179326508754 # Ar
981 981 1 0.0 42.827871370960686 338.4006315645047 238.78705643014126 # Ar
982 982 1 0.0 228.48152148825824 386.27299920825027 411.9709590982045 # Ar
983 983 1 0.0 368.1043380824775 107.23027479640653 458.71542714535735 # Ar
984 984 1 0.0 374.58659640902056 391.2742395800024 371.60867292704006 # Ar
985 985 1 0.0 245.70030466883165 471.26415831256435 161.4901621066841 # Ar
986 986 1 0.0 489.94148451714386 253.1567360514766 221.5227365232432 # Ar
987 987 1 0.0 111.87522757317473 328.6269076154453 217.77481325622426 # Ar
988 988 1 0.0 155.0712173726335 86.54779158933918 480.1606288684182 # Ar
989 989 1 0.0 193.48929521092484 314.30374523057316 368.35836047798466 # Ar
990 990 1 0.0 320.1323275866938 255.2359929324519 456.5921451544902 # Ar
991 991 1 0.0 344.97554220909643 251.58959098671426 9.124290913691068 # Ar
992 992 1 0.0 35.94613741168552 514.2889839940605 406.16698787939777 # Ar
993 993 1 0.0 96.33288020890024 144.08413184766835 377.87475470011105 # Ar
994 994 1 0.0 46.2287303613597 223.035395429874 285.95868392457936 # Ar
995 995 1 0.0 470.0925690879247 352.94939221413534 25.795951492876423 # Ar
996 996 1 0.0 97.08740028622134 142.137739106219 362.6554596127216 # Ar
997 997 1 0.0 82.32302407905047 428.5475211336186 235.7427713384222 # Ar
998 998 1 0.0 510.30824090031285 478.3200361004115 265.98856124560854 # Ar
999 999 1 0.0 264.05332341962077 450.11350751990756 102.99974631449973 # Ar
1000 1000 1 0.0 341.5541532762926 352.0151699118406 282.15037512804946 # Ar
1001 1001 1 0.0 374.0713291690385 478.9010988478505 505.7421017184989 # Ar
1002 1002 1 0.0 224.52304604407308 155.58776670645298 360.0061964212068 # Ar
1003 1003 1 0.0 143.88984050182978 165.48994983569736 275.2068773160774 # Ar
1004 1004 1 0.0 140.2235228120741 451.51260757810707 245.3850725489047 # Ar
1005 1005 1 0.0 133.2791986567713 65.77041818649327 114.5767026384366 # Ar
1006 1006 1 0.0 17.16260847506387 209.8777680163628 361.41623008820085 # Ar
1007 1007 1 0.0 71.39926792076153 291.9925493475507 75.21704366807126 # Ar
1008 1008 1 0.0 361.28720645703635 45.885524151027546 44.71525627858682 # Ar
1009 1009 1 0.0 57.192645363981185 139.02064265610036 45.295229747241464 # Ar
1010 1010 1 0.0 419.2660806631447 256.3449619190519 388.17815588543675 # Ar
1011 1011 1 0.0 17.30856121452221 191.41298046927713 342.85997383185384 # Ar
1012 1012 1 0.0 277.50006479046687 468.9282362082538 300.2646995447206 # Ar
1013 1013 1 0.0 323.1079472156871 188.75921417946034 98.45428276573226 # Ar
1014 1014 1 0.0 436.3396200418098 54.33101397972161 370.9684067548673 # Ar
1015 1015 1 0.0 62.36262454558428 348.00395272827245 476.99614732677827 # Ar
1016 1016 1 0.0 280.55851578388723 109.7104577995313 378.96891272085975 # Ar
1017 1017 1 0.0 205.59324723487006 93.70241708845508 135.40410893023406 # Ar
1018 1018 1 0.0 445.49116560329134 354.28377847024126 117.0217787899195 # Ar
1019 1019 1 0.0 401.2158535345531 119.41600277306793 178.47660619911233 # Ar
1020 1020 1 0.0 447.602290053899 307.1657662861423 373.15802459594863 # Ar
1021 1021 1 0.0 179.55788051258048 254.649282490145 162.21131486985996 # Ar
1022 1022 1 0.0 468.5670813526745 9.624522104585337 192.15025429140897 # Ar
1023 1023 1 0.0 377.133020523148 448.36247369644127 255.01181486639882 # Ar
1024 1024 1 0.0 161.69505319079823 36.99137029260254 381.1464143146702 # Ar
1025 1025 1 0.0 401.33952697018674 432.6743512803617 125.77915313222277 # Ar
1026 1026 1 0.0 255.57401201086435 176.29635702583388 366.11712723508344 # Ar
1027 1027 1 0.0 376.13224101703935 404.4152625583352 504.45367348895604 # Ar
1028 1028 1 0.0 335.18051217553256 13.239247679018941 77.13688563334422 # Ar
1029 1029 1 0.0 64.05988261921333 430.6902035337763 359.3431009769097 # Ar
1030 1030 1 0.0 186.12323050726548 384.72854187842205 86.16584223552043 # Ar
1031 1031 1 0.0 478.43836547720133 127.595112905626 433.55786026202253 # Ar
1032 1032 1 0.0 14.901807050896664 356.43841653098036 197.81482885803513 # Ar
1033 1033 1 0.0 349.48474144940667 11.976261140463812 248.0936185897065 # Ar
1034 1034 1 0.0 188.3416497648058 74.55453303782215 184.81336517779698 # Ar
1035 1035 1 0.0 385.15199855375715 476.4522811960251 28.294309096505295 # Ar
1036 1036 1 0.0 392.9184147342909 80.49077366239891 474.78721123802563 # Ar
1037 1037 1 0.0 491.80346918296374 223.86094738302342 391.4250727677524 # Ar
1038 1038 1 0.0 21.372388776695843 306.61808917710374 470.36169929829236 # Ar
1039 1039 1 0.0 154.28241732820388 350.0409978320932 406.24261690414056 # Ar
1040 1040 1 0.0 407.4296903930598 323.76867648409575 72.4086310001468 # Ar
1041 1041 1 0.0 409.5824926913752 125.10613763043841 279.4781150847442 # Ar
1042 1042 1 0.0 373.9599905225397 105.14078936440748 346.6986681392206 # Ar
1043 1043 1 0.0 223.1636462984082 37.445696741043335 296.37265229061336 # Ar
1044 1044 1 0.0 123.08380872866121 273.4305754669113 503.112783774749 # Ar
1045 1045 1 0.0 12.290040779910415 346.6576897541515 193.99777169115745 # Ar
1046 1046 1 0.0 466.2854045408369 487.0382156258121 270.5497061046665 # Ar
1047 1047 1 0.0 346.8727417579205 12.002954043996366 477.2111155047649 # Ar
1048 1048 1 0.0 62.84741926596095 175.85743218709467 427.74307467080854 # Ar
1049 1049 1 0.0 189.62465022448453 112.76596815601799 323.28180769778265 # Ar
1050 1050 1 0.0 381.49702972902895 373.81971553881436 479.8524639641463 # Ar
1051 1051 1 0.0 250.4149044891721 286.62635593769636 80.13712987206078 # Ar
1052 1052 1 0.0 191.5849652783448 447.4452592260206 91.10756196984713 # Ar
1053 1053 1 0.0 49.172188132324564 338.87697972429334 203.80235017352257 # Ar
1054 1054 1 0.0 353.16416054983176 292.0574053466541 342.2150853486127 # Ar
1055 1055 1 0.0 488.277126516297 130.9386854155136 334.4859562102077 # Ar
1056 1056 1 0.0 358.6333278311726 140.96607169127884 77.1183918627828 # Ar
1057 1057 1 0.0 381.69669256468427 467.8135991049932 354.5995785698159 # Ar
1058 1058 1 0.0 454.460056075297 505.2140776718012 21.877009549727696 # Ar
1059 1059 1 0.0 89.52065046502577 13.54353533455951 143.0207500769076 # Ar
1060 1060 1 0.0 489.44402506962 471.5968016076641 147.4570661910597 # Ar
1061 1061 1 0.0 238.2938206164347 413.66952974393536 189.09666455374293 # Ar
1062 1062 1 0.0 496.0914678852477 371.0387891030038 180.75950328154758 # Ar
1063 1063 1 0.0 331.74414805941126 0.9368520945177355 254.22255326805924 # Ar
1064 1064 1 0.0 97.08937473906325 352.2260765447989 379.5048593908807 # Ar
1065 1065 1 0.0 510.3971149564821 45.54567424813108 411.70689898150164 # Ar
1066 1066 1 0.0 380.76537213267784 330.699943321173 354.13382064209236 # Ar
1067 1067 1 0.0 495.7250269544168 401.39787777826524 472.34800044628025 # Ar
1068 1068 1 0.0 255.99025034898762 320.8819911599713 227.68286503408808 # Ar
1069 1069 1 0.0 34.96833942268093 284.0995580013146 142.03934281615085 # Ar
1070 1070 1 0.0 309.445162872034 73.19892411637936 5.1976210658679385 # Ar
1071 1071 1 0.0 207.39205698725192 478.33582064270627 425.16585283645975 # Ar
1072 1072 1 0.0 119.99848684896543 147.5551866276921 497.564177004372 # Ar
1073 1073 1 0.0 444.23640142772024 176.46637867360243 125.20332352909644 # Ar
1074 1074 1 0.0 178.22251851027994 410.8906267419863 456.3472989174543 # Ar
1075 1075 1 0.0 422.8589001301217 187.0053057690241 288.2809640008771 # Ar
1076 1076 1 0.0 508.33735393960507 253.19277333161102 301.25922456010136 # Ar
1077 1077 1 0.0 99.57959382914383 80.86634185220544 422.4050070471293 # Ar
1078 1078 1 0.0 428.37656032307586 328.68745268474584 414.0072622108962 # Ar
1079 1079 1 0.0 202.16938472844006 202.01942385479384 366.29212245747345 # Ar
1080 1080 1 0.0 509.20461831130183 456.0184467878792 181.3740955701612 # Ar
1081 1081 1 0.0 133.290110106271 74.73456963665163 193.77140745060817 # Ar
1082 1082 1 0.0 232.4415301630031 187.6136032558658 188.8462490918969 # Ar
1083 1083 1 0.0 88.94155601367878 421.8041619332512 496.49116994990464 # Ar
1084 1084 1 0.0 457.6558224586272 391.2120845228004 195.14931266740547 # Ar
1085 1085 1 0.0 464.41737100321603 192.1736618907523 282.5391180305561 # Ar
1086 1086 1 0.0 413.51074031071903 23.95516853671158 464.84734923913044 # Ar
1087 1087 1 0.0 158.96878896610568 360.9597712048592 89.14157200618757 # Ar
1088 1088 1 0.0 135.72643639654487 68.90955991928436 398.8310236075477 # Ar
1089 1089 1 0.0 443.1493828859567 398.92445775546156 144.6733080361182 # Ar
1090 1090 1 0.0 333.0058238428309 189.7593492476635 344.21448678211203 # Ar
1091 1091 1 0.0 475.30472738073286 243.52534905517157 103.85766224487182 # Ar
1092 1092 1 0.0 449.19003776379753 484.3918909739918 266.70147032237446 # Ar
1093 1093 1 0.0 344.06113782463206 136.13789416071526 243.68252440272056 # Ar
1094 1094 1 0.0 415.47301870800186 154.81135541873425 215.19879178860108 # Ar
1095 1095 1 0.0 184.33065567703835 413.78866151972363 374.0163248605736 # Ar
1096 1096 1 0.0 11.326932030163533 401.8439222603258 63.51102163181155 # Ar
1097 1097 1 0.0 44.94467162085729 437.9276217865998 340.23431728703076 # Ar
1098 1098 1 0.0 91.74390368503342 84.27627199046331 102.48307341306952 # Ar
1099 1099 1 0.0 306.30649534237193 446.2270293706956 429.8991764589699 # Ar
1100 1100 1 0.0 100.9420333183164 87.71098338539281 28.012194803637207 # Ar
1101 1101 1 0.0 199.58792908250607 107.58088857457159 176.91365063722725 # Ar
1102 1102 1 0.0 408.032238099543 182.4626513559845 427.6959789885153 # Ar
1103 1103 1 0.0 144.50575283427358 70.92865552148707 58.87045598740551 # Ar
1104 1104 1 0.0 21.377715877137344 227.22571676400764 297.0065690487409 # Ar
1105 1105 1 0.0 166.27978881900282 159.71523329575538 171.5508966959004 # Ar
1106 1106 1 0.0 372.3222759381914 97.3050000998665 475.84092213841797 # Ar
1107 1107 1 0.0 480.33479625183753 28.6188194445432 177.55309388551683 # Ar
1108 1108 1 0.0 435.65737782045005 151.37979113074113 145.84806706759824 # Ar
1109 1109 1 0.0 228.31712223617853 487.674524020226 276.6009033115011 # Ar
1110 1110 1 0.0 292.06826468086985 118.93173795900431 35.25070300453123 # Ar
1111 1111 1 0.0 454.70757545814223 359.2835833616241 458.8292576508422 # Ar
1112 1112 1 0.0 369.16565200521416 191.61647070595447 466.5543020266868 # Ar
1113 1113 1 0.0 24.664794856931472 253.41523371659054 353.021237681866 # Ar
1114 1114 1 0.0 157.800952542193 392.09736437273386 485.161958816312 # Ar
1115 1115 1 0.0 486.8604468044141 313.0547006117237 146.27716885568955 # Ar
1116 1116 1 0.0 508.3103392125414 477.32422345657136 215.88154354703784 # Ar
1117 1117 1 0.0 403.5941535153507 439.5105487793134 363.8345964603376 # Ar
1118 1118 1 0.0 297.4179694215935 159.0718385165968 359.73848992644366 # Ar
1119 1119 1 0.0 325.07872630910543 169.24549766565053 448.8054277350508 # Ar
1120 1120 1 0.0 394.27203124830214 491.206165332774 281.75139981092843 # Ar
1121 1121 1 0.0 94.45633631674411 401.0845082133122 0.7449848768852871 # Ar
1122 1122 1 0.0 428.06549777723905 419.4166101019321 231.16396572730585 # Ar
1123 1123 1 0.0 365.24709740165486 335.3882233824051 308.19581810469873 # Ar
1124 1124 1 0.0 267.5836319442286 228.64025044014198 331.4300678846558 # Ar
1125 1125 1 0.0 501.54030152104355 127.89035213935942 275.4670589569845 # Ar
1126 1126 1 0.0 210.07649139731222 297.57356441586137 308.66955471273735 # Ar
1127 1127 1 0.0 331.9483410542488 197.78763371068715 202.36737777548814 # Ar
1128 1128 1 0.0 437.50366671266005 52.20211440923482 339.8840882127791 # Ar
1129 1129 1 0.0 178.38391512787317 121.09568981025637 403.81639667652087 # Ar
1130 1130 1 0.0 464.7621228927812 32.6792510411986 321.4518423008991 # Ar
1131 1131 1 0.0 13.703090396652946 233.97552123267639 509.6245105930593 # Ar
1132 1132 1 0.0 7.071337258551406 43.043763137089435 208.29985654223523 # Ar
1133 1133 1 0.0 380.5104338203008 463.39218738232466 96.98703788757439 # Ar
1134 1134 1 0.0 145.6565136790693 111.33764994565793 189.8235595621187 # Ar
1135 1135 1 0.0 512.0230739337992 465.8353341999687 171.94488203570208 # Ar
1136 1136 1 0.0 327.3217039208495 360.8460478754469 296.4215891930533 # Ar
1137 1137 1 0.0 405.38476491261827 409.0083022009912 147.15879502115448 # Ar
1138 1138 1 0.0 180.55891257086623 22.646477543420392 200.7539888525882 # Ar
1139 1139 1 0.0 344.0793883464899 271.42248457269915 282.42577273630474 # Ar
1140 1140 1 0.0 154.7644390039515 332.6887199128725 464.0584333049471 # Ar
1141 1141 1 0.0 27.28171336516452 293.62581213326865 137.96422675798 # Ar
1142 1142 1 0.0 73.01948287951222 379.5987365091388 245.0043357015365 # Ar
1143 1143 1 0.0 4.242479152729325 478.6013261465455 196.37562808121945 # Ar
1144 1144 1 0.0 138.01006081105896 335.7670177280369 353.2274420728507 # Ar
1145 1145 1 0.0 178.77517158068065 328.44252024677206 228.3843917923243 # Ar
1146 1146 1 0.0 394.77590091637876 339.64157133130135 448.84478872249326 # Ar
1147 1147 1 0.0 49.91815482220405 121.51980522606074 478.853515685978 # Ar
1148 1148 1 0.0 272.9080815503647 485.9183777893173 227.65982456159156 # Ar
1149 1149 1 0.0 50.88062771490826 201.9014263797792 514.1437892332935 # Ar
1150 1150 1 0.0 116.73340402306857 20.009230276359013 37.367813604318336 # Ar
1151 1151 1 0.0 238.72342128741954 451.3297659778489 399.1378029115446 # Ar
1152 1152 1 0.0 115.09825748243223 46.23411269919506 513.7099791337434 # Ar
1153 1153 1 0.0 349.41148825449056 65.53307549135062 477.91895427377926 # Ar
1154 1154 1 0.0 378.0207888335284 113.23370238279371 241.52102534178786 # Ar
1155 1155 1 0.0 465.13695378006247 191.91957238510824 220.31034939219052 # Ar
1156 1156 1 0.0 54.704461980727295 512.140032833678 303.39351683711055 # Ar
1157 1157 1 0.0 266.2104192376245 269.563540819591 126.12905833683409 # Ar
1158 1158 1 0.0 131.46629588528592 55.757525539582055 229.04198393955662 # Ar
1159 1159 1 0.0 50.7177354346115 264.4681028787843 217.8932258205662 # Ar
1160 1160 1 0.0 55.375281168477414 116.3096138467719 65.03970694479943 # Ar
1161 1161 1 0.0 299.32036067473376 198.99109746609068 493.9941251854432 # Ar
1162 1162 1 0.0 370.75346586093826 29.24660008845198 78.88627639577311 # Ar
1163 1163 1 0.0 271.09031831452546 510.8422914624323 267.14620661598826 # Ar
1164 1164 1 0.0 408.68003017244763 190.8460722659295 49.6661168695157 # Ar
1165 1165 1 0.0 92.8915125400349 331.2358571059914 75.14413967878717 # Ar
1166 1166 1 0.0 185.6145243670336 493.49485129755436 27.931209530153513 # Ar
1167 1167 1 0.0 421.7285053073585 392.4945584363527 347.5873224604007 # Ar
1168 1168 1 0.0 218.28837957866307 296.0653013004797 196.40666819696114 # Ar
1169 1169 1 0.0 371.5922693411727 497.5114136424564 291.83727403562847 # Ar
1170 1170 1 0.0 446.2541821971102 37.60605737107954 212.10514754396428 # Ar
1171 1171 1 0.0 284.7632747679672 360.642275983353 6.6049370485022765 # Ar
1172 1172 1 0.0 300.71361922672895 223.7387401452513 486.0341023762655 # Ar
1173 1173 1 0.0 221.20008320942358 19.109920064970236 239.78609238731872 # Ar
1174 1174 1 0.0 242.3822867178096 347.1404740895265 128.86450711852373 # Ar
1175 1175 1 0.0 60.81944825124858 186.44057492990908 242.97397083480297 # Ar
1176 1176 1 0.0 179.96637088275497 142.4649293847882 25.319727490579066 # Ar
1177 1177 1 0.0 423.345356264334 307.6436071230345 43.04347287858537 # Ar
1178 1178 1 0.0 502.4146802359954 326.8252173315115 274.3466476925909 # Ar
1179 1179 1 0.0 0.9868820664288598 163.3924517900492 465.7294502785537 # Ar
1180 1180 1 0.0 242.82050246021237 351.3532306887216 262.6699884638067 # Ar
1181 1181 1 0.0 509.3826238359764 138.29201065151815 341.9073541097012 # Ar
1182 1182 1 0.0 259.6436379371171 293.3333970846212 356.96277554277873 # Ar
1183 1183 1 0.0 180.48346910314172 458.43180359994733 192.24433941241412 # Ar
1184 1184 1 0.0 329.9274773579724 323.1550347016541 296.87042313616803 # Ar
1185 1185 1 0.0 201.91428532264473 88.74160232468816 302.56483236914295 # Ar
1186 1186 1 0.0 411.8692165902458 23.19405779332638 413.42408246169316 # Ar
1187 1187 1 0.0 339.45420746406637 77.50172388241745 282.5053160062372 # Ar
1188 1188 1 0.0 239.3977296901809 304.0427526491237 241.32390141101138 # Ar
1189 1189 1 0.0 340.53233334944775 97.91427921653555 390.5636535792962 # Ar
1190 1190 1 0.0 348.8464124875737 104.9342021295855 55.47018820249438 # Ar
1191 1191 1 0.0 340.74300266866146 433.7965486536013 183.63231866452347 # Ar
1192 1192 1 0.0 201.84590527336854 477.37221347034773 39.70295367538154 # Ar
1193 1193 1 0.0 349.6356740215785 454.6053334067822 491.0793331901171 # Ar
1194 1194 1 0.0 178.08672064261862 445.94599305205486 154.76920755908097 # Ar
1195 1195 1 0.0 448.432819044877 108.34329059968061 510.97090736576706 # Ar
1196 1196 1 0.0 140.000536168379 121.26755589807827 372.2164389631014 # Ar
1197 1197 1 0.0 136.00536054245418 406.23468862207017 404.34695313396594 # Ar
1198 1198 1 0.0 140.34030298667764 125.39657415088682 158.04037084992427 # Ar
1199 1199 1 0.0 217.30313736609563 394.5765871857699 271.52347574871646 # Ar
1200 1200 1 0.0 44.81807188244243 288.15573492449903 459.057131432146 # Ar
1201 1201 1 0.0 52.238959915102164 506.95151338636157 410.06672387161774 # Ar
1202 1202 1 0.0 155.10704714874421 385.4818232618053 0.6541519228693561 # Ar
1203 1203 1 0.0 438.5113965787715 383.60181587830465 214.75236205513423 # Ar
1204 1204 1 0.0 498.340549687154 341.4677181142759 307.66901553834447 # Ar
1205 1205 1 0.0 200.3071569751683 282.3052458469094 91.66902950279115 # Ar
1206 1206 1 0.0 255.83567284973884 291.8765994729245 229.29073356391757 # Ar
1207 1207 1 0.0 268.14248903884715 309.97425725475244 361.7022191598738 # Ar
1208 1208 1 0.0 81.76879847404761 107.15429417208834 414.2592048802145 # Ar
1209 1209 1 0.0 218.45384290256 380.52696165526703 48.25037203129894 # Ar
1210 1210 1 0.0 497.25217807331893 487.7283721514715 455.0694811982393 # Ar
1211 1211 1 0.0 332.63899527822235 122.60261945866209 442.5294961124502 # Ar
1212 1212 1 0.0 82.43139237484102 405.9579315196422 129.85224145748978 # Ar
1213 1213 1 0.0 99.90542295347925 226.85198830929193 31.902110053670295 # Ar
1214 1214 1 0.0 323.92957256904054 343.6880810605187 361.11628446177286 # Ar
1215 1215 1 0.0 212.54964638567498 446.97630211476 121.2258275763298 # Ar
1216 1216 1 0.0 187.34585308426279 433.59363708584027 358.4146436033703 # Ar
1217 1217 1 0.0 382.96123217239966 80.62121173386699 456.4576178421265 # Ar
1218 1218 1 0.0 138.58292375199198 18.665111314119642 223.37204081088052 # Ar
1219 1219 1 0.0 52.435034265921544 62.30954533117789 144.09037134466246 # Ar
1220 1220 1 0.0 498.6090915601355 21.75352699922151 223.14997267924736 # Ar
1221 1221 1 0.0 72.8817152222619 400.8479860955716 208.39800735716258 # Ar
1222 1222 1 0.0 245.90688661772032 101.37785050155773 251.21747960958862 # Ar
1223 1223 1 0.0 158.63102638060093 293.61305853475545 241.60381651780352 # Ar
1224 1224 1 0.0 222.74847719911665 357.23251150892986 298.96041658257496 # Ar
1225 1225 1 0.0 100.87190438782693 360.4696572660726 83.11773028408757 # Ar
1226 1226 1 0.0 249.26458634097133 20.767695090384542 285.58980808748544 # Ar
1227 1227 1 0.0 303.96192669568615 480.21709456739336 112.50880478046138 # Ar
1228 1228 1 0.0 53.93825711053731 410.0823417440198 252.70612165119044 # Ar
1229 1229 1 0.0 82.89803489884837 12.01605300230446 371.59742414303906 # Ar
1230 1230 1 0.0 298.8195608905135 85.18880696718945 330.08693857049997 # Ar
1231 1231 1 0.0 92.18917973512684 465.7435050787833 10.390863828544378 # Ar
1232 1232 1 0.0 196.41469778383475 363.22631481261743 72.97877025272537 # Ar
1233 1233 1 0.0 322.10681038537643 156.3182015792968 0.21114711691349072 # Ar
1234 1234 1 0.0 155.51779811020236 390.27481350185747 301.46813514789125 # Ar
1235 1235 1 0.0 61.877977443121665 273.5676050408761 331.2636777826681 # Ar
1236 1236 1 0.0 88.17689355510814 53.40777379042826 102.52370133508191 # Ar
1237 1237 1 0.0 226.7812267519661 84.93538705971042 301.77379188330053 # Ar
1238 1238 1 0.0 225.97667598558516 13.157093161303733 191.12443121270908 # Ar
1239 1239 1 0.0 142.31354758640282 131.0154347815812 505.7660436018444 # Ar
1240 1240 1 0.0 352.3767449740501 288.74540886665415 444.3188153965924 # Ar
1241 1241 1 0.0 40.56253998798843 280.76984769899406 171.18229705685258 # Ar
1242 1242 1 0.0 181.98222649479257 231.80817309204488 337.98128640174326 # Ar
1243 1243 1 0.0 142.91719556689802 303.73232126921755 47.069849700926405 # Ar
1244 1244 1 0.0 331.09799693775767 426.66566826802017 185.53325403170555 # Ar
1245 1245 1 0.0 441.28776789347563 57.18547918053836 72.03832362689145 # Ar
1246 1246 1 0.0 251.33318677924643 307.7074738917546 368.04829425048985 # Ar
1247 1247 1 0.0 152.79713580891897 274.6230101865362 402.08342645732046 # Ar
1248 1248 1 0.0 104.05226872214872 83.48596759175169 281.78018564687426 # Ar
1249 1249 1 0.0 285.32608103072175 122.99776868052268 155.564291158624 # Ar
1250 1250 1 0.0 33.87410454784153 365.150332468675 21.042908398692624 # Ar
1251 1251 1 0.0 181.25296741740934 503.8548365267023 106.40251590466322 # Ar
1252 1252 1 0.0 447.01226718946293 492.9301358370086 82.71423196832495 # Ar
1253 1253 1 0.0 510.9886372768933 506.6393255231206 144.98206546689556 # Ar
1254 1254 1 0.0 456.3580279919662 409.6986889802109 379.89126193738184 # Ar
1255 1255 1 0.0 98.51490850480974 433.9423267957854 226.10426330986385 # Ar
1256 1256 1 0.0 210.57033503763907 214.80580951129411 170.00392326246077 # Ar
1257 1257 1 0.0 242.05041465741044 433.0743680802191 183.4653371109425 # Ar
1258 1258 1 0.0 349.8326671551791 108.5688703603024 266.09206822443474 # Ar
1259 1259 1 0.0 125.63155175289708 405.23224045568764 295.27529202224224 # Ar
1260 1260 1 0.0 152.9541028536131 124.56551552502715 281.2390174349962 # Ar
1261 1261 1 0.0 111.08587230887169 247.32089978771407 389.32008229164126 # Ar
1262 1262 1 0.0 165.45968183464663 187.35253454144507 304.0653875384363 # Ar
1263 1263 1 0.0 311.8036636951924 304.3196932693048 70.88424206225898 # Ar
1264 1264 1 0.0 404.99999530844315 302.79445034799716 363.18814355056037 # Ar
1265 1265 1 0.0 259.8181142096333 497.388108498879 493.22680958047465 # Ar
1266 1266 1 0.0 453.09647704229417 381.3025164548295 338.8943355557168 # Ar
1267 1267 1 0.0 2.634129425451183 316.7264948252292 376.96757997603675 # Ar
1268 1268 1 0.0 16.17554495230911 399.0673639499117 486.1641384492596 # Ar
1269 1269 1 0.0 405.0255668488542 129.51542116117133 416.12139890312056 # Ar
1270 1270 1 0.0 286.4830123485389 241.41315088542757 360.2364501331148 # Ar
1271 1271 1 0.0 495.5635215423198 205.53001888093107 192.52157554639712 # Ar
1272 1272 1 0.0 267.9981845578979 358.92629360426236 165.26261449519234 # Ar
1273 1273 1 0.0 331.25016302498676 87.22322663566048 197.52019314107665 # Ar
1274 1274 1 0.0 232.17276914252523 249.3152846257119 480.74199730275876 # Ar
1275 1275 1 0.0 225.22201438292876 365.6599381596835 64.47599490240741 # Ar
1276 1276 1 0.0 507.0445618391831 234.1570336176557 508.7580911795828 # Ar
1277 1277 1 0.0 449.00072435530245 25.970534325884646 277.4900811047935 # Ar
1278 1278 1 0.0 88.92130962140033 122.23008982174024 326.196621821676 # Ar
1279 1279 1 0.0 311.09466480378904 162.14022099143932 28.94956785462904 # Ar
1280 1280 1 0.0 322.78185133377156 3.5854931038820808 310.7834322142516 # Ar
1281 1281 1 0.0 109.32894241825683 188.96106621896794 335.8310729928111 # Ar
1282 1282 1 0.0 421.0166709434313 145.69329707325724 223.86430063360874 # Ar
1283 1283 1 0.0 241.9611853575113 369.936068344659 192.44226681011605 # Ar
1284 1284 1 0.0 269.56792950300195 477.0713800094931 472.82348440217623 # Ar
1285 1285 1 0.0 310.2631901391698 480.93321659470803 146.14584392441006 # Ar
1286 1286 1 0.0 16.583610000634142 504.7235027445262 66.65732521972917 # Ar
1287 1287 1 0.0 106.97416824115074 354.85880415898777 333.6858453797851 # Ar
1288 1288 1 0.0 46.64193959184101 321.46379648387233 473.3925504225851 # Ar
1289 1289 1 0.0 77.44967486508229 251.76678272106042 354.7459688898173 # Ar
1290 1290 1 0.0 298.34356507722055 247.44558712014936 144.35432200425115 # Ar
1291 1291 1 0.0 434.6719524492312 230.02512527130455 482.8153918694637 # Ar
1292 1292 1 0.0 204.775268234239 501.5246369447636 56.42283278891616 # Ar
1293 1293 1 0.0 123.7481771205463 405.32653321419787 100.99444835992327 # Ar
1294 1294 1 0.0 48.36662912719779 396.005586135251 380.3048587455224 # Ar
1295 1295 1 0.0 337.8036553139324 199.91850311930432 53.28741473219109 # Ar
1296 1296 1 0.0 274.3782621058719 133.16703593976865 453.6121047206563 # Ar
1297 1297 1 0.0 285.4171290428957 255.67654289093247 15.82132793026369 # Ar
1298 1298 1 0.0 14.947761056006652 396.96554367239764 435.1716769060591 # Ar
1299 1299 1 0.0 85.90474165375505 489.6484476195183 300.62036177690106 # Ar
1300 1300 1 0.0 405.431913658522 283.43659135371405 253.64015384062242 # Ar
1301 1301 1 0.0 232.3682581938634 480.2603006320296 492.1533089540457 # Ar
1302 1302 1 0.0 13.428572660441633 331.1340229897817 151.2790411624575 # Ar
1303 1303 1 0.0 173.61270800657553 122.50863029045713 293.57075388908714 # Ar
1304 1304 1 0.0 99.74719039701539 192.18653220705318 507.22455210363415 # Ar
1305 1305 1 0.0 130.04629960138374 128.4260104160866 158.8384414549737 # Ar
1306 1306 1 0.0 180.32902501366266 433.00921442317826 76.44945201076841 # Ar
1307 1307 1 0.0 101.16302729970587 153.15551928275178 497.30454914893255 # Ar
1308 1308 1 0.0 227.3961580888248 134.78872059371562 429.67197246836133 # Ar
1309 1309 1 0.0 246.11328679887063 169.4811988368377 35.00697420117421 # Ar
1310 1310 1 0.0 315.76767787222866 86.54633689182931 275.46322489938296 # Ar
1311 1311 1 0.0 152.06560724575934 310.7539886579848 144.8705593025004 # Ar
1312 1312 1 0.0 86.1891037725194 13.439970884594597 50.53053477997009 # Ar
1313 1313 1 0.0 410.59382300738105 102.10302271133398 237.18356202899892 # Ar
1314 1314 1 0.0 293.65874255713305 292.68450530202034 508.4039988993421 # Ar
1315 1315 1 0.0 351.1401796476645 285.83638591798297 60.41362711936649 # Ar
1316 1316 1 0.0 208.4901193963031 378.6522323924338 512.9141206888662 # Ar
1317 1317 1 0.0 227.45003795768125 15.08616703037532 487.4385085983326 # Ar
1318 1318 1 0.0 308.9351868305178 279.2607158675605 94.18794626979377 # Ar
1319 1319 1 0.0 99.55211732012756 107.01915154417416 301.59980325972515 # Ar
1320 1320 1 0.0 492.3048208348124 299.61337023633683 402.573701808466 # Ar
1321 1321 1 0.0 245.59915723579175 265.85629729938654 158.32401132988974 # Ar
1322 1322 1 0.0 414.4961494373713 493.0282126521145 474.7836088185749 # Ar
1323 1323 1 0.0 499.9053188282028 157.13406017477627 283.6912242714959 # Ar
1324 1324 1 0.0 325.90569473472283 478.54549928112385 77.91813276563875 # Ar
1325 1325 1 0.0 247.93277502841354 491.7429818636467 239.85704252004186 # Ar
1326 1326 1 0.0 94.71966080011 458.04439409817644 418.60767121956087 # Ar
1327 1327 1 0.0 499.7962440742358 53.48007977425969 306.15052380618533 # Ar
1328 1328 1 0.0 507.9846918297576 53.636742970690385 325.5432077824946 # Ar
1329 1329 1 0.0 52.31113077455043 328.8445319586107 27.34798912138814 # Ar
1330 1330 1 0.0 419.6191211448296 47.62271872310209 334.6550499952435 # Ar
1331 1331 1 0.0 226.38045771302683 423.55314012770873 397.4358909730795 # Ar
1332 1332 1 0.0 333.5725221834374 139.4779521786915 116.99190873024395 # Ar
1333 1333 1 0.0 507.4479901066524 333.59012226758466 121.104940206184 # Ar
1334 1334 1 0.0 435.17792057128116 284.87547510386094 355.5967280177113 # Ar
1335 1335 1 0.0 211.63076652782667 165.51499902303348 307.2465403410894 # Ar
1336 1336 1 0.0 181.62274646297445 479.3622407550392 325.4388639838855 # Ar
1337 1337 1 0.0 185.809065510795 63.972816553441696 50.2462447561432 # Ar
1338 1338 1 0.0 136.7373086792837 44.25588073157159 107.63974669039615 # Ar
1339 1339 1 0.0 472.46235390994104 284.73092750952776 330.9337664044741 # Ar
1340 1340 1 0.0 56.94729607095518 229.10231358128368 153.0281586988948 # Ar
1341 1341 1 0.0 219.82781623587377 109.23561345561863 410.97314721050185 # Ar
1342 1342 1 0.0 105.25997947567274 225.72298779426214 218.3504953771555 # Ar
1343 1343 1 0.0 9.261121172999614 221.66390637131207 386.2873180195153 # Ar
1344 1344 1 0.0 308.8020308251609 420.7442261455024 56.98925128547498 # Ar
1345 1345 1 0.0 26.81470766024335 265.5132893629367 277.24394005629625 # Ar
1346 1346 1 0.0 211.29396189574882 166.1996913765861 253.3326604528757 # Ar
1347 1347 1 0.0 9.482772584788643 425.07849852879383 73.76989311142039 # Ar
1348 1348 1 0.0 243.28069732469442 325.9476003720168 467.4953371752015 # Ar
1349 1349 1 0.0 438.04197726023506 332.49120197536615 65.97981588871359 # Ar
1350 1350 1 0.0 125.83319373321878 261.1254821683998 327.23096049330735 # Ar
1351 1351 1 0.0 157.0617506159203 446.4343914328303 134.44038417119333 # Ar
1352 1352 1 0.0 368.35350187835013 137.59740680090607 233.17814458114822 # Ar
1353 1353 1 0.0 308.9874093213238 382.35827241594933 385.4213229432505 # Ar
1354 1354 1 0.0 356.8556590783189 133.6896450328384 215.08445284617753 # Ar
1355 1355 1 0.0 318.87533786191227 347.21089581594265 244.2607029444825 # Ar
1356 1356 1 0.0 226.08546483714866 130.03535999932961 358.0942881565557 # Ar
1357 1357 1 0.0 67.91443904535683 430.2362318127018 422.12410787367475 # Ar
1358 1358 1 0.0 257.1909214906114 209.7450305241706 227.8902816837064 # Ar
1359 1359 1 0.0 89.3676359567833 230.77308989793613 67.20613749225393 # Ar
1360 1360 1 0.0 481.3214116052293 102.7055259430758 394.4766995505748 # Ar
1361 1361 1 0.0 29.034739483013578 372.37807471010933 69.86219214770588 # Ar
1362 1362 1 0.0 336.11135813364825 314.66408364961313 513.0121902827656 # Ar
1363 1363 1 0.0 382.35673226707365 503.79955024035587 406.13934477775393 # Ar
1364 1364 1 0.0 282.15622645677104 322.8376319512916 104.29105626486695 # Ar
1365 1365 1 0.0 508.1438218568362 346.1993894214534 60.956185145115896 # Ar
1366 1366 1 0.0 480.8905292955237 138.81043186004456 143.2902504096646 # Ar
1367 1367 1 0.0 378.08121942280246 99.0130283131971 446.56078149364953 # Ar
1368 1368 1 0.0 433.1785269815166 403.324891525013 334.272019169725 # Ar
1369 1369 1 0.0 408.6999246039098 470.5629310140308 504.69098310995923 # Ar
1370 1370 1 0.0 197.5739234410015 96.68619822552303 347.77790450993257 # Ar
1371 1371 1 0.0 377.01831838381975 226.59310217367403 350.80061652227096 # Ar
1372 1372 1 0.0 439.21071669473696 283.31641915934006 339.48487422036675 # Ar
1373 1373 1 0.0 94.58427346730439 449.70111532095916 185.34382797973262 # Ar
1374 1374 1 0.0 330.95645776167004 205.29793698313634 97.28762395882701 # Ar
1375 1375 1 0.0 193.4653387257187 6.4554842127872645 344.99350674994247 # Ar
1376 1376 1 0.0 493.88609856106285 88.57976840346382 10.168623653464122 # Ar
1377 1377 1 0.0 28.06208251661078 40.36858069155692 12.104089264784399 # Ar
1378 1378 1 0.0 163.1984917720361 196.56699395808062 242.81585130514748 # Ar
1379 1379 1 0.0 38.33831141289812 155.19311709134237 7.997551985606742 # Ar
1380 1380 1 0.0 49.765678918754745 219.38745737187028 415.4872268168548 # Ar
1381 1381 1 0.0 326.26357416462963 171.88994318715712 272.7821293953867 # Ar
1382 1382 1 0.0 2.9403022952268763 481.06523878157236 128.2542114064925 # Ar
1383 1383 1 0.0 234.72014151508307 379.705075528731 391.04235411538656 # Ar
1384 1384 1 0.0 83.79944033756193 438.0879982509177 434.02958688265113 # Ar
1385 1385 1 0.0 104.91142838697169 378.6169182242464 48.16315482605591 # Ar
1386 1386 1 0.0 1.0872734790484966 157.4090868218452 339.7208593259325 # Ar
1387 1387 1 0.0 282.66741031167714 2.997946254232196 148.69020608071847 # Ar
1388 1388 1 0.0 405.29683897887406 452.22305400082706 231.4783294473356 # Ar
1389 1389 1 0.0 110.59772239170755 260.83432608179817 2.235608320813359 # Ar
1390 1390 1 0.0 164.81666270140715 189.4127158207448 352.76282444378387 # Ar
1391 1391 1 0.0 124.74257719512889 109.28956474323829 382.56937141406166 # Ar
1392 1392 1 0.0 23.51903876813177 247.8526201400169 340.48267898075613 # Ar
1393 1393 1 0.0 160.16271717038836 329.81600635508954 162.1393400025229 # Ar
1394 1394 1 0.0 314.95435433522624 86.07966312762514 392.11568744922096 # Ar
1395 1395 1 0.0 162.66175439621387 243.6254016888565 421.24099100172833 # Ar
1396 1396 1 0.0 358.8714749688608 228.7536985486615 224.08948470607115 # Ar
1397 1397 1 0.0 353.0230008580081 100.18426981859294 161.00794523527662 # Ar
1398 1398 1 0.0 459.95963786632655 89.1911766205341 153.8154403602483 # Ar
1399 1399 1 0.0 325.8511686096967 287.3057612543708 513.6011657950306 # Ar
1400 1400 1 0.0 292.1690903354613 99.30618479130335 173.58926992138402 # Ar
1401 1401 1 0.0 211.58219019606867 19.733519729711887 265.1110326764103 # Ar
1402 1402 1 0.0 99.16440211141357 208.16171575738426 9.027701778246893 # Ar
1403 1403 1 0.0 151.57401841540323 209.7619904709563 60.44865034976753 # Ar
1404 1404 1 0.0 173.4533856457272 501.4422803796031 228.57847355864396 # Ar
1405 1405 1 0.0 255.86592816416936 266.38407086985075 352.4255186739652 # Ar
1406 1406 1 0.0 405.1677119781164 335.6431491820619 416.48780034284823 # Ar
1407 1407 1 0.0 279.47292443978955 89.2657440366087 452.2593310815181 # Ar
1408 1408 1 0.0 68.9448186154612 417.91179968538853 149.93775655918105 # Ar
1409 1409 1 0.0 358.1216211820494 462.32591025921334 7.8035248495228045 # Ar
1410 1410 1 0.0 94.511618362537 50.23880747091076 401.9379412605961 # Ar
1411 1411 1 0.0 66.7074406455487 427.7996753126226 500.28026410170895 # Ar
1412 1412 1 0.0 397.4170074921687 399.52825955298226 83.67825854610923 # Ar
1413 1413 1 0.0 98.612606158927 307.086145519793 404.6330489335861 # Ar
1414 1414 1 0.0 483.5195831571989 277.2569239631707 311.5672513316643 # Ar
1415 1415 1 0.0 293.12351005534225 104.76433661986408 343.7503156204681 # Ar
1416 1416 1 0.0 156.46554090646694 153.8302585409876 138.8337314124826 # Ar
1417 1417 1 0.0 84.8899522063827 191.41287260576658 407.4215046605668 # Ar
1418 1418 1 0.0 321.78958421195625 231.02526224962355 498.0967572691595 # Ar
1419 1419 1 0.0 101.83971678789767 305.91283750348344 247.65600550574595 # Ar
1420 1420 1 0.0 12.017180853981353 12.083439468640663 155.5338794721884 # Ar
1421 1421 1 0.0 484.0413104722101 482.5585042786024 399.7202992668896 # Ar
1422 1422 1 0.0 181.9564890161635 378.3351358274768 500.1582540834734 # Ar
1423 1423 1 0.0 446.5074300289778 315.216076325779 496.7108744842859 # Ar
1424 1424 1 0.0 396.0903575997909 391.43936941554216 25.508128978396954 # Ar
1425 1425 1 0.0 454.4380663855707 160.68637458076913 104.03581795958148 # Ar
1426 1426 1 0.0 470.77778094890607 385.7184785957619 48.132722846132516 # Ar
1427 1427 1 0.0 412.7343119110496 148.47043261869615 9.970348411491713 # Ar
1428 1428 1 0.0 320.39697364790504 51.054031008842266 225.76982895232132 # Ar
1429 1429 1 0.0 187.12840014375033 350.28401334214897 176.93581658706208 # Ar
1430 1430 1 0.0 296.1871558004796 430.03365878052017 197.2294685654305 # Ar
1431 1431 1 0.0 417.8425626800329 511.99793746215477 310.29332360508164 # Ar
1432 1432 1 0.0 351.2477832503958 410.22734136156225 86.46773480528756 # Ar
1433 1433 1 0.0 312.62214106408965 319.6230039412789 203.9378408165264 # Ar
1434 1434 1 0.0 138.5286065696184 324.0880176935763 26.29810144764424 # Ar
1435 1435 1 0.0 411.12707933381336 456.5041962115335 441.43738299600227 # Ar
1436 1436 1 0.0 502.61588846406903 308.98360096485806 131.33626286097842 # Ar
1437 1437 1 0.0 458.28979453763515 396.44473988176736 476.7132796384461 # Ar
1438 1438 1 0.0 302.1266086181362 260.2456282178084 264.2545093684961 # Ar
1439 1439 1 0.0 49.49403402132275 153.06448575030424 24.62855431399722 # Ar
1440 1440 1 0.0 320.5713576239401 453.21083097501946 499.66122678439285 # Ar
1441 1441 1 0.0 406.7086128952921 173.6362534825781 377.7868931373982 # Ar
1442 1442 1 0.0 308.78179958647377 322.4129075480353 438.8421873288944 # Ar
1443 1443 1 0.0 14.649326557533275 20.514006493316064 61.87748545214521 # Ar
1444 1444 1 0.0 478.0228032377192 136.09316995852075 20.865071506216843 # Ar
1445 1445 1 0.0 135.380915507028 68.6494834912973 29.14790322153432 # Ar
1446 1446 1 0.0 434.4679672796502 87.2951164778907 18.74269105761203 # Ar
1447 1447 1 0.0 241.77151380959012 274.5509578174398 100.1001711407002 # Ar
1448 1448 1 0.0 335.803579562094 287.059337861002 375.4689006102787 # Ar
1449 1449 1 0.0 248.63041056289688 402.76292613872135 351.4785097337949 # Ar
1450 1450 1 0.0 61.403316444466824 200.45015942934836 503.38844544101806 # Ar
1451 1451 1 0.0 307.30962710621856 160.96014721906195 99.28223659175674 # Ar
1452 1452 1 0.0 252.19228986876857 66.61235650964879 75.45037604929335 # Ar
1453 1453 1 0.0 361.5453802600023 303.25692718543036 373.3326406680606 # Ar
1454 1454 1 0.0 192.96384015576692 264.5953342247672 18.119203642692774 # Ar
1455 1455 1 0.0 268.70973651755435 473.19947399451036 54.959437853117116 # Ar
1456 1456 1 0.0 167.96103291834172 139.47076190462073 55.61827916125392 # Ar
1457 1457 1 0.0 473.4646078863745 161.47409507696193 91.03222506989933 # Ar
1458 1458 1 0.0 90.21992554603808 498.86730401765413 45.60179806234784 # Ar
1459 1459 1 0.0 44.47777808303209 153.32701472634196 298.33362402838964 # Ar
1460 1460 1 0.0 29.404801591173896 326.8136168512332 429.21106461314383 # Ar
1461 1461 1 0.0 152.57719266935044 479.4299240439754 431.55042265113315 # Ar
1462 1462 1 0.0 335.6263830300208 373.54169614713373 229.56457187399312 # Ar
1463 1463 1 0.0 3.3972945916846 125.88248623890301 270.9080668897325 # Ar
1464 1464 1 0.0 463.6710275197703 248.2001713195908 122.72004089951335 # Ar
1465 1465 1 0.0 55.96688776300641 512.376335227448 154.4085190435167 # Ar
1466 1466 1 0.0 234.13044634214393 90.64194230016072 494.8376751102712 # Ar
1467 1467 1 0.0 63.1086817856994 276.8302066665454 66.40088941274799 # Ar
1468 1468 1 0.0 47.02672523192034 113.58465291043824 81.83744774794839 # Ar
1469 1469 1 0.0 465.6055983420227 404.226253172689 322.0028540055812 # Ar
1470 1470 1 0.0 4.141902335952388 314.6809661249435 326.415605225527 # Ar
1471 1471 1 0.0 288.58121526991044 191.6646159070863 145.3800190622229 # Ar
1472 1472 1 0.0 212.55825522973407 94.06793514464651 146.09530488227898 # Ar
1473 1473 1 0.0 32.18207537113644 13.60039739754421 135.5198673518999 # Ar
1474 1474 1 0.0 232.11897910895757 511.019064993645 154.80544745918496 # Ar
1475 1475 1 0.0 196.87891441108937 442.2046669442845 351.06803717507995 # Ar
1476 1476 1 0.0 283.9139609927449 433.0484320763791 198.73838172349247 # Ar
1477 1477 1 0.0 100.11260799671864 474.1050435088622 181.92835493923076 # Ar
1478 1478 1 0.0 39.13397244677324 47.52568973482256 348.9156013033984 # Ar
1479 1479 1 0.0 399.4612641476455 331.7524656225466 487.4557406367241 # Ar
1480 1480 1 0.0 20.64995021046232 126.89585151283924 142.30323334210442 # Ar
1481 1481 1 0.0 162.53776917875675 283.4341975339443 86.79067576067129 # Ar
1482 1482 1 0.0 506.773730123979 34.630296673712195 510.97005569495263 # Ar
1483 1483 1 0.0 480.40167344375703 341.4511378202257 122.48412491465274 # Ar
1484 1484 1 0.0 225.4888089492211 293.1300699242469 298.8459575985624 # Ar
1485 1485 1 0.0 417.5205773667474 18.778779346868543 233.73316515244343 # Ar
1486 1486 1 0.0 39.914784906929825 53.39553841642321 162.8833239345305 # Ar
1487 1487 1 0.0 259.7924614132458 226.37256200837098 121.3281961809995 # Ar
1488 1488 1 0.0 89.62474607060096 138.9336341569886 468.6831860295021 # Ar
1489 1489 1 0.0 54.36811332901482 383.6680110239055 37.22083213898972 # Ar
1490 1490 1 0.0 328.0507694212642 258.11477783691316 28.03269660970496 # Ar
1491 1491 1 0.0 132.968929335277 219.9455375571346 37.77594057165802 # Ar
1492 1492 1 0.0 288.08662444090567 431.25668926801546 7.13798373160657 # Ar
1493 1493 1 0.0 93.4811795624017 278.3410830411413 230.837589669493 # Ar
1494 1494 1 0.0 469.4142465926631 38.64308863136272 25.19678706387857 # Ar
1495 1495 1 0.0 172.52130683063322 247.2609826683849 240.12485880374473 # Ar
1496 1496 1 0.0 296.6039180925683 415.82024407689164 343.9879776825541 # Ar
1497 1497 1 0.0 167.59212627834975 384.1489894963264 23.684033162450753 # Ar
1498 1498 1 0.0 431.8327556599297 151.19596912149208 218.92972430740232 # Ar
1499 1499 1 0.0 189.99475667574197 42.53315819978009 57.91259997934908 # Ar
1500 1500 1 0.0 227.19030340327856 275.56032264838103 7.651505155004245 # Ar
1501 1501 1 0.0 444.88280455479656 395.6148986146016 52.44911264530405 # Ar
1502 1502 1 0.0 184.94179196857365 432.4777641718334 467.206008275837 # Ar
1503 1503 1 0.0 261.2545626387996 71.03545335223426 218.96319407973166 # Ar
1504 1504 1 0.0 61.370063118818535 16.777886352678582 70.14772710414454 # Ar
1505 1505 1 0.0 94.13611986919904 141.60515423249836 313.6449576639578 # Ar
1506 1506 1 0.0 103.27752005407224 4.652204243093693 155.34662822205334 # Ar
1507 1507 1 0.0 45.88956395078281 431.7924803501291 47.604653401411106 # Ar
1508 1508 1 0.0 459.3428972019509 355.8746323089674 139.96922383924172 # Ar
1509 1509 1 0.0 393.06488228011614 332.19839427184206 394.0882476399106 # Ar
1510 1510 1 0.0 141.06301884039323 45.008279860880435 234.87492199872085 # Ar
1511 1511 1 0.0 24.501994409508427 452.87001027335936 491.3148277696508 # Ar
1512 1512 1 0.0 419.40059537094834 93.34614086136395 6.224378680258584 # Ar
1513 1513 1 0.0 305.7489933224723 371.7050531224708 191.62553597438966 # Ar
1514 1514 1 0.0 346.0261755290761 423.9454694663365 54.78752917453561 # Ar
1515 1515 1 0.0 370.4397471211282 345.14125611498775 446.34452494462295 # Ar
1516 1516 1 0.0 345.8024454746188 358.60873959017124 312.098685736322 # Ar
1517 1517 1 0.0 480.3649650172193 111.0602397035612 173.48276349849877 # Ar
1518 1518 1 0.0 79.33590707531246 65.40593968292362 462.3771427573248 # Ar
1519 1519 1 0.0 78.96993119482174 186.21408673295002 147.13381011448587 # Ar
1520 1520 1 0.0 249.01190832402247 63.13939542673482 398.4822365531543 # Ar
1521 1521 1 0.0 49.021342234093744 442.8665962165695 474.4921458909361 # Ar
1522 1522 1 0.0 30.98960761780261 119.44550578664739 459.1416606136147 # Ar
1523 1523 1 0.0 383.6685877189366 85.37829256571126 480.78176828408175 # Ar
1524 1524 1 0.0 402.40033520265 460.81597652698974 89.30153587202854 # Ar
1525 1525 1 0.0 309.49123776441314 379.2777528274551 255.09668143161895 # Ar
1526 1526 1 0.0 160.93823577043372 65.34646710817778 418.8823023493142 # Ar
1527 1527 1 0.0 269.9036925369809 514.0592444949581 372.98445067864145 # Ar
1528 1528 1 0.0 484.2653818081092 118.79193802932892 31.567747967882177 # Ar
1529 1529 1 0.0 324.2918744584021 255.00207814443704 54.24463840627093 # Ar
1530 1530 1 0.0 94.83259687695752 163.40671744280843 285.296149436202 # Ar
1531 1531 1 0.0 270.5958249935398 328.93915696500454 25.985823697728 # Ar
1532 1532 1 0.0 137.14474371905808 396.5401948831182 275.11502093859957 # Ar
1533 1533 1 0.0 248.48907245001197 134.5374227448287 174.69864367826534 # Ar
1534 1534 1 0.0 424.13452897215603 90.83972349340883 455.5140528038101 # Ar
1535 1535 1 0.0 99.89078648280976 331.4502325156565 474.86139049280115 # Ar
1536 1536 1 0.0 337.127228146917 277.7198914190799 376.2379011812665 # Ar
1537 1537 1 0.0 228.94413035811846 122.40338303718387 326.7765631797585 # Ar
1538 1538 1 0.0 290.0205803150768 416.26949784433947 196.81582564244985 # Ar
1539 1539 1 0.0 385.79875142141566 164.09970419314033 271.5630567099563 # Ar
1540 1540 1 0.0 471.74624688245314 183.64195207961984 209.33800601441806 # Ar
1541 1541 1 0.0 454.8586648764181 57.078543615433645 371.91331452224 # Ar
1542 1542 1 0.0 340.4089534933973 191.55361578330468 451.3837604555491 # Ar
1543 1543 1 0.0 168.1444480677374 168.16805692110162 278.0683937541671 # Ar
1544 1544 1 0.0 72.22639097683422 84.50114644044655 137.95557375118537 # Ar
1545 1545 1 0.0 489.98015689077204 394.1612756612974 17.471988896824588 # Ar
1546 1546 1 0.0 218.39998434584246 350.5783356714049 232.63638770220848 # Ar
1547 1547 1 0.0 391.32741928700585 302.4766890185378 134.96923519083734 # Ar
1548 1548 1 0.0 220.01596927192776 510.0949811481279 64.1922761494468 # Ar
1549 1549 1 0.0 83.53588800351793 455.8374765699684 456.0828861976216 # Ar
1550 1550 1 0.0 223.65048882301116 315.519252262032 495.3912758278892 # Ar
1551 1551 1 0.0 343.0198643955449 496.8791952554187 143.5799805374792 # Ar
1552 1552 1 0.0 464.1865738649606 377.9436739503401 485.0128037490197 # Ar
1553 1553 1 0.0 35.686868167376964 494.4413434090455 46.76552919435048 # Ar
1554 1554 1 0.0 260.33901893488894 271.36023058888446 402.3180187471771 # Ar
1555 1555 1 0.0 5.5786089436027355 100.97302476227014 3.8890792870379363 # Ar
1556 1556 1 0.0 269.21396284368257 42.186073909252464 318.1024857921344 # Ar
1557 1557 1 0.0 385.8483507838534 305.3693565663585 292.1600555967341 # Ar
1558 1558 1 0.0 74.02181547367722 148.0666274365653 277.6243689452636 # Ar
1559 1559 1 0.0 230.77248321162247 302.6862327233796 35.414884225560805 # Ar
1560 1560 1 0.0 514.3481554154693 345.55005767589535 209.27793424793646 # Ar
1561 1561 1 0.0 24.95753042300909 333.6202593730145 70.86069930551623 # Ar
1562 1562 1 0.0 379.7983567443301 473.1988879397846 401.90852083057985 # Ar
1563 1563 1 0.0 444.95732775039573 407.3138575150591 461.94711707501017 # Ar
1564 1564 1 0.0 72.77007710371534 508.9465744386788 5.322980674923515 # Ar
1565 1565 1 0.0 364.35299607457597 284.6618087689887 313.57359873086943 # Ar
1566 1566 1 0.0 328.56695095527306 465.7926165153054 143.92286296564828 # Ar
1567 1567 1 0.0 32.95932178554484 100.16972393669423 119.69401847022986 # Ar
1568 1568 1 0.0 390.8398575871684 235.97151434464723 161.29712235555814 # Ar
1569 1569 1 0.0 427.33109220298496 134.74234137290995 133.73250041049025 # Ar
1570 1570 1 0.0 227.08334813731966 413.04006437717294 330.41519008385075 # Ar
1571 1571 1 0.0 64.59543893014366 504.3533063854605 220.30451311862183 # Ar
1572 1572 1 0.0 264.70918043691216 173.4202942131807 265.7233215680527 # Ar
1573 1573 1 0.0 30.995599285822266 435.46897860550564 20.478611204964405 # Ar
1574 1574 1 0.0 479.86301272932445 130.5762620108623 371.8618109892099 # Ar
1575 1575 1 0.0 92.56559829669658 327.103401332399 119.09029020088467 # Ar
1576 1576 1 0.0 4.341087602450983 111.54034815547858 310.9560328270067 # Ar
1577 1577 1 0.0 489.76303764129 113.62164999651571 396.0500451992933 # Ar
1578 1578 1 0.0 270.09366499839695 288.1625777941325 303.10707858942254 # Ar
1579 1579 1 0.0 112.11354717606844 78.20208432702911 449.1135130321714 # Ar
1580 1580 1 0.0 428.7200805074633 325.58575332141123 18.690628843726575 # Ar
1581 1581 1 0.0 292.67229935586397 265.20980942254954 431.64074779220016 # Ar
1582 1582 1 0.0 147.70755187674658 363.42376712357157 127.2791267468088 # Ar
1583 1583 1 0.0 166.17010000538136 349.5649589269608 457.4559694450642 # Ar
1584 1584 1 0.0 263.74399054573524 76.75299800759699 384.1020329934338 # Ar
1585 1585 1 0.0 381.60481019770623 225.6446380621727 105.37515973966232 # Ar
1586 1586 1 0.0 99.131994626407 441.6125604031826 50.43074079349413 # Ar
1587 1587 1 0.0 374.842628289229 349.73713901983416 358.9094639223565 # Ar
1588 1588 1 0.0 124.4028496451763 23.404258852158016 7.97366483383606 # Ar
1589 1589 1 0.0 444.49817565835895 295.99100706423457 437.4800091641167 # Ar
1590 1590 1 0.0 154.64876611040287 318.4945004384764 410.29074428096214 # Ar
1591 1591 1 0.0 227.85967298844412 394.1151819288592 477.1023663648769 # Ar
1592 1592 1 0.0 476.6074275006643 480.2364729039729 435.99588700221454 # Ar
1593 1593 1 0.0 86.19438035095162 14.694163246308497 8.520236035366493 # Ar
1594 1594 1 0.0 216.23163875138422 312.1259291171352 463.86081249846455 # Ar
1595 1595 1 0.0 259.9949234299544 223.35352696440506 332.639393568139 # Ar
1596 1596 1 0.0 112.41324139577146 417.75108854282985 32.180275599583865 # Ar
1597 1597 1 0.0 322.94437393562464 404.78748231393644 182.18354309342405 # Ar
1598 1598 1 0.0 58.117942283074335 301.18905885889706 76.3386159283704 # Ar
1599 1599 1 0.0 224.40567461616533 353.8774391931777 374.26875297137565 # Ar
1600 1600 1 0.0 61.86213155851194 37.242950963955344 128.93439712530557 # Ar
1601 1601 1 0.0 326.7176775457818 389.37828686015933 88.7915489351643 # Ar
1602 1602 1 0.0 465.02976638084795 106.39758336246862 212.05490186776134 # Ar
1603 1603 1 0.0 447.32886113241835 387.66130321463453 502.88324151778204 # Ar
1604 1604 1 0.0 485.8252104056231 212.09958072966143 314.98903765663925 # Ar
1605 1605 1 0.0 194.90597589567523 119.05308522570807 5.327294471766191 # Ar
1606 1606 1 0.0 86.27351443734372 331.5721450016929 322.7138301031393 # Ar
1607 1607 1 0.0 413.0359139588356 86.63898262518015 233.6498472179753 # Ar
1608 1608 1 0.0 193.63365870273918 343.4652748046757 330.3193106231785 # Ar
1609 1609 1 0.0 113.06586403888797 291.3330276546132 201.657123345343 # Ar
1610 1610 1 0.0 111.94646887411436 248.04476079776933 31.426101595120276 # Ar
1611 1611 1 0.0 360.98263053787025 514.3110115510359 376.9296788131886 # Ar
1612 1612 1 0.0 4.366546915307734 285.58979611260344 367.083478506293 # Ar
1613 1613 1 0.0 444.24116987033284 313.0316766542735 271.21319861126625 # Ar
1614 1614 1 0.0 85.50378668240386 55.65657511271646 499.7854162262448 # Ar
1615 1615 1 0.0 284.95471908474406 203.08797602213264 461.51600372564974 # Ar
1616 1616 1 0.0 54.996163447478715 445.54537595522015 432.0489259126795 # Ar
1617 1617 1 0.0 11.573764423545938 14.281699662657559 107.26323123773098 # Ar
1618 1618 1 0.0 147.3256765904899 469.7832434929869 373.47397922386335 # Ar
1619 1619 1 0.0 209.6925401254992 344.8040897065491 59.68882162860242 # Ar
1620 1620 1 0.0 255.31785805984936 274.9511669673813 156.10674224141758 # Ar
1621 1621 1 0.0 82.99624047508742 179.56263893806852 315.50059755058044 # Ar
1622 1622 1 0.0 220.61600196902455 332.8848173223831 344.682886672577 # Ar
1623 1623 1 0.0 21.790885230547506 451.9051194190966 91.38234556896941 # Ar
1624 1624 1 0.0 478.52633075051557 386.09508764649183 167.4081545397089 # Ar
1625 1625 1 0.0 29.12886153921616 400.05715965555385 32.17972581256223 # Ar
1626 1626 1 0.0 256.1469241217093 92.21280582155778 449.19943540643095 # Ar
1627 1627 1 0.0 214.88242032160974 279.92382503338297 347.18473959060384 # Ar
1628 1628 1 0.0 243.01850836762677 452.0736596524748 125.93610981064649 # Ar
1629 1629 1 0.0 277.8879947132151 332.0340986654956 370.51011814869116 # Ar
1630 1630 1 0.0 12.608142042273334 321.303281185623 451.63088101298257 # Ar
1631 1631 1 0.0 55.6521122535052 14.973050902929751 490.47350051207235 # Ar
1632 1632 1 0.0 334.3402301859415 443.0840748664326 507.3960588959894 # Ar
1633 1633 1 0.0 290.2577822161445 33.48711386104863 194.06524071419565 # Ar
1634 1634 1 0.0 246.89080162519738 214.9885306344698 180.63238842435973 # Ar
1635 1635 1 0.0 126.1646970564859 149.29350291093166 102.42238738646402 # Ar
1636 1636 1 0.0 498.19019608410014 411.6457102683108 168.2907567617961 # Ar
1637 1637 1 0.0 437.32876858003857 20.531933914103934 471.26251164530976 # Ar
1638 1638 1 0.0 178.69765818767982 45.744219294268404 97.31155256309339 # Ar
1639 1639 1 0.0 389.2333600991208 162.4511080221913 449.50032954727385 # Ar
1640 1640 1 0.0 394.60488527463707 250.8678471073525 466.7466676323971 # Ar
1641 1641 1 0.0 51.7595837853154 276.6541131822216 78.35030698895656 # Ar
1642 1642 1 0.0 36.54336086182063 359.7007521958472 110.36273216849696 # Ar
1643 1643 1 0.0 123.2618706302354 21.935375996431613 214.21053232310584 # Ar
1644 1644 1 0.0 168.94917737866515 281.67505018589844 383.8303261413096 # Ar
1645 1645 1 0.0 288.35809399319726 375.90696634578484 480.48737264091193 # Ar
1646 1646 1 0.0 277.86894549884124 433.46262546316945 183.61431881223055 # Ar
1647 1647 1 0.0 206.777596405774 88.68547143863154 113.67646711990983 # Ar
1648 1648 1 0.0 202.67304641588373 217.73584421996557 499.53631215424303 # Ar
1649 1649 1 0.0 187.04181633895627 435.7878993943448 483.1877526770966 # Ar
1650 1650 1 0.0 492.5061395391121 37.97853426474029 382.17730070774564 # Ar
1651 1651 1 0.0 25.64479116409877 400.7724126734046 282.26732569748 # Ar
1652 1652 1 0.0 418.73379166182184 344.8963314474035 178.53408414683855 # Ar
1653 1653 1 0.0 334.24604758493535 103.06640321513214 254.06149090236184 # Ar
1654 1654 1 0.0 511.85354612886204 234.98252352401744 502.3501999335255 # Ar
1655 1655 1 0.0 387.30279247239343 38.797428017359735 476.9032777939002 # Ar
1656 1656 1 0.0 190.47089024614993 184.15723146491055 49.16655355538088 # Ar
1657 1657 1 0.0 142.8724820293639 145.7046262885264 332.2797935322438 # Ar
1658 1658 1 0.0 36.09492694121789 142.8635896303761 100.5344445922862 # Ar
1659 1659 1 0.0 197.69376789679947 173.47275177690662 48.727590258701355 # Ar
1660 1660 1 0.0 156.10695004382302 450.4964058312433 246.10899339908823 # Ar
1661 1661 1 0.0 354.134432793101 376.99222863760207 190.32160547073906 # Ar
1662 1662 1 0.0 114.00652486552924 424.4232667820046 460.34894590785257 # Ar
1663 1663 1 0.0 379.99714193087834 196.03630956661917 70.56062012816189 # Ar
1664 1664 1 0.0 294.63723884183725 475.391349812948 420.16579233785006 # Ar
1665 1665 1 0.0 70.22327431426118 198.35346334341645 471.0410335263328 # Ar
1666 1666 1 0.0 311.34722133655754 69.40547867204124 386.41196291351224 # Ar
1667 1667 1 0.0 133.6095008379346 265.1383294479638 152.14325003343097 # Ar
1668 1668 1 0.0 299.6089401090442 189.28415189933273 322.86628993407555 # Ar
1669 1669 1 0.0 199.7119499978824 325.769416789119 349.6178194377995 # Ar
1670 1670 1 0.0 146.7104683149138 461.50095853356476 138.66776646143205 # Ar
1671 1671 1 0.0 331.89686653371524 215.94253483309853 430.32526783886004 # Ar
1672 1672 1 0.0 283.21785910087965 338.74996051040074 294.5601132136594 # Ar
1673 1673 1 0.0 306.2669040762774 498.46137536427517 52.92061546010913 # Ar
1674 1674 1 0.0 294.58307559163654 388.53211574479 185.23768333508332 # Ar
1675 1675 1 0.0 190.85900945391998 3.404833226914648 293.41608156981755 # Ar
1676 1676 1 0.0 327.29457866726733 86.96734965940955 232.11721115520854 # Ar
1677 1677 1 0.0 427.3777822205596 292.24202808599506 231.34578267784647 # Ar
1678 1678 1 0.0 191.84538733336407 447.51159801554826 456.424615908722 # Ar
1679 1679 1 0.0 269.79525127265083 20.12323380218269 317.75342395390925 # Ar
1680 1680 1 0.0 482.5224966656628 70.11405026158064 398.13698443066914 # Ar
1681 1681 1 0.0 100.82866654838448 273.22322498368396 2.860065985714669 # Ar
1682 1682 1 0.0 0.05932066888884452 259.3915554721813 107.92239537325797 # Ar
1683 1683 1 0.0 26.266999567654327 31.08235236704479 21.47743252246609 # Ar
1684 1684 1 0.0 261.11480265904714 212.9456486879454 475.70379029663786 # Ar
1685 1685 1 0.0 223.63936228866078 476.00673005649264 271.5925854633224 # Ar
1686 1686 1 0.0 134.6104921602517 427.69928619855335 441.5709791577713 # Ar
1687 1687 1 0.0 445.5379195108774 94.21885788498838 457.3959679724967 # Ar
1688 1688 1 0.0 129.33379562658178 351.3050709128689 35.34609846758281 # Ar
1689 1689 1 0.0 14.147649895743536 165.82766903462297 137.2184774171048 # Ar
1690 1690 1 0.0 104.30172781417633 385.1247679185703 192.1136062016855 # Ar
1691 1691 1 0.0 452.2125507308171 135.69390865174418 273.9507686539042 # Ar
1692 1692 1 0.0 298.69940212846404 505.5489546695425 504.41840774306985 # Ar
1693 1693 1 0.0 203.1649899533952 96.15752484951098 325.5340434094775 # Ar
1694 1694 1 0.0 349.64494057353556 491.64494894636334 457.83909834620795 # Ar
1695 1695 1 0.0 134.45727843858748 64.07846778274718 381.0457807108412 # Ar
1696 1696 1 0.0 284.4889832850468 496.84301863348657 27.752547767748855 # Ar
1697 1697 1 0.0 485.6361003684328 465.1123237828491 376.02911160257617 # Ar
1698 1698 1 0.0 220.20928238578645 244.65806469222548 441.4657557630583 # Ar
1699 1699 1 0.0 284.1066467801554 48.92076366531153 308.3683557666607 # Ar
1700 1700 1 0.0 144.3662491512955 3.5328979829179237 15.00632117090647 # Ar
1701 1701 1 0.0 159.72843344085481 397.13857761895326 75.19486184585067 # Ar
1702 1702 1 0.0 4.871463384392179 289.1711455485354 379.4142575956052 # Ar
1703 1703 1 0.0 491.0156709727308 129.57300385906802 406.5753785671385 # Ar
1704 1704 1 0.0 283.8471993766585 485.2080930675535 419.61111448157527 # Ar
1705 1705 1 0.0 390.1090802123124 252.65734279066552 398.0669119467201 # Ar
1706 1706 1 0.0 307.7378240346454 251.78489166607812 393.87458505043185 # Ar
1707 1707 1 0.0 454.68844375022303 232.4514128849974 280.1286068831762 # Ar
1708 1708 1 0.0 114.57585232868097 428.83547327633636 378.04158778020957 # Ar
1709 1709 1 0.0 76.50882004648726 412.30400386078185 133.50474194451647 # Ar
1710 1710 1 0.0 280.3722885194616 506.3037076999858 196.12870350976877 # Ar
1711 1711 1 0.0 129.24465159774908 288.929727478893 500.5343440391532 # Ar
1712 1712 1 0.0 405.04739217841893 255.2415775787425 59.08463373905168 # Ar
1713 1713 1 0.0 2.5321389990164116 178.83267517855026 219.73308215016564 # Ar
1714 1714 1 0.0 20.841528545975958 442.21812459071447 94.93671293120848 # Ar
1715 1715 1 0.0 173.60370795969584 343.1012553546904 175.80510701035186 # Ar
1716 1716 1 0.0 402.9311328015629 196.5926997714739 387.2991437257621 # Ar
1717 1717 1 0.0 7.8552853529743665 10.50917069405506 278.09657190191723 # Ar
1718 1718 1 0.0 129.79735672258695 411.6345653619032 357.07031375647733 # Ar
1719 1719 1 0.0 278.0764198711298 491.19301344833957 217.4865186442634 # Ar
1720 1720 1 0.0 148.12091749390214 83.84029070034157 366.17464433234585 # Ar
1721 1721 1 0.0 441.4588327295761 346.79171369349007 201.9219785859042 # Ar
1722 1722 1 0.0 132.4984083382217 224.55694969907776 472.6116354979807 # Ar
1723 1723 1 0.0 439.53186493063936 419.98891738319463 190.19140934533215 # Ar
1724 1724 1 0.0 98.96999577132055 447.35637696028186 350.1684419653715 # Ar
1725 1725 1 0.0 365.4053949963415 57.41691199295075 206.98789428463385 # Ar
1726 1726 1 0.0 108.2327422258882 427.7108105552965 457.91957555920413 # Ar
1727 1727 1 0.0 349.6806294235762 46.468171755100485 156.21414268999055 # Ar
1728 1728 1 0.0 321.89556439822644 111.35273239891256 159.29780664478557 # Ar
1729 1729 1 0.0 17.082028909267038 60.04115037834336 67.21518335136726 # Ar
1730 1730 1 0.0 110.95365051346256 349.1790117787923 468.70238235884705 # Ar
1731 1731 1 0.0 274.22758633904283 187.06834926678937 423.2665744794172 # Ar
1732 1732 1 0.0 15.557560314919476 322.08228723585944 256.8910764123259 # Ar
1733 1733 1 0.0 79.38250792026274 476.7529149971427 5.681763182586162 # Ar
1734 1734 1 0.0 255.46000574004262 174.13906609325758 371.14216632650493 # Ar
1735 1735 1 0.0 411.1548470591461 377.7548126393042 96.5806034400168 # Ar
1736 1736 1 0.0 50.92114427651832 456.0249251967418 417.8750523569592 # Ar
1737 1737 1 0.0 13.822794050992698 100.74001921637095 105.17775823769675 # Ar
1738 1738 1 0.0 97.26762244196463 490.83612953208933 307.13890318378253 # Ar
1739 1739 1 0.0 155.63945081356232 444.7838406757557 232.65691105085827 # Ar
1740 1740 1 0.0 124.4888843788919 22.836619332482968 365.5332429994923 # Ar
1741 1741 1 0.0 380.3242431401715 432.46849729447916 416.8958728757958 # Ar
1742 1742 1 0.0 197.43324939231556 116.03416727218688 91.11056768773227 # Ar
1743 1743 1 0.0 511.32784452727435 217.66912931930503 205.1679325674013 # Ar
1744 1744 1 0.0 165.4854143583127 286.1010103602152 34.03552402769163 # Ar
1745 1745 1 0.0 432.5374286462257 53.65658129080331 505.19291254729075 # Ar
1746 1746 1 0.0 166.53433648877504 171.4621166093775 57.00038850033384 # Ar
1747 1747 1 0.0 170.0898130151807 50.52633673089432 67.3937460083177 # Ar
1748 1748 1 0.0 447.01409636851423 166.8080476288036 290.2019688888156 # Ar
1749 1749 1 0.0 313.3469340106695 469.698476122278 58.831261399452885 # Ar
1750 1750 1 0.0 278.5548422275785 356.55415728417995 311.97336932856405 # Ar
1751 1751 1 0.0 396.8969345989042 132.3087432269311 422.9474920820253 # Ar
1752 1752 1 0.0 196.0080685433594 485.62221022422216 422.67119667711006 # Ar
1753 1753 1 0.0 117.21597965304984 272.31389554070586 412.8988250411193 # Ar
1754 1754 1 0.0 348.1762335506783 43.77712300242086 309.327881191472 # Ar
1755 1755 1 0.0 507.12595929216985 471.0212113701119 101.1563685570885 # Ar
1756 1756 1 0.0 350.10459473472446 365.5065809433759 360.2460755296758 # Ar
1757 1757 1 0.0 65.20724678271058 133.3016002171583 103.19498658628481 # Ar
1758 1758 1 0.0 92.68363908959827 102.29572815683716 93.79398573466585 # Ar
1759 1759 1 0.0 309.0604833525376 22.455883251555143 383.44124012680356 # Ar
1760 1760 1 0.0 451.6770076124822 264.32713422027314 296.94749657703505 # Ar
1761 1761 1 0.0 393.80247599545885 381.72810224504536 252.3696919018957 # Ar
1762 1762 1 0.0 385.1290119355415 505.8893383718347 475.21444626234614 # Ar
1763 1763 1 0.0 491.6456907081354 251.43162396508689 494.13073161378253 # Ar
1764 1764 1 0.0 33.32992711074035 57.406560592424626 503.8282529799174 # Ar
1765 1765 1 0.0 477.909456322865 211.97003038584654 244.8523644404398 # Ar
1766 1766 1 0.0 394.55565694262754 427.9296069988413 105.64135953854264 # Ar
1767 1767 1 0.0 313.823686320076 234.07768551143076 316.5606586258303 # Ar
1768 1768 1 0.0 323.72418671947594 94.28865980388821 125.47746864969167 # Ar
1769 1769 1 0.0 463.52646791355915 103.06785897539433 373.44222380084886 # Ar
1770 1770 1 0.0 482.7723211630625 410.29707948729396 204.39720922590575 # Ar
1771 1771 1 0.0 508.6331035306205 464.47824984838894 260.1707375962489 # Ar
1772 1772 1 0.0 1.1976589302359406 56.64773750646766 504.1634569118278 # Ar
1773 1773 1 0.0 97.3293895409398 307.7433882962484 366.15006675138073 # Ar
1774 1774 1 0.0 111.2092271411707 491.039525521242 220.9852690941977 # Ar
1775 1775 1 0.0 492.1744767819658 487.2634810156377 400.4724848759256 # Ar
1776 1776 1 0.0 386.63936917745303 418.7277158145959 267.6407787862235 # Ar
1777 1777 1 0.0 102.75726854287953 43.033291810419705 82.78732538761474 # Ar
1778 1778 1 0.0 76.40138746470933 227.48329925201813 41.88648044135265 # Ar
1779 1779 1 0.0 258.11542122969456 295.5948614485175 244.1757761018042 # Ar
1780 1780 1 0.0 482.4081046711424 74.62917878854579 42.842029539758634 # Ar
1781 1781 1 0.0 230.2302414948367 60.050943031428616 363.5682569056169 # Ar
1782 1782 1 0.0 205.9911110997575 41.05356962330329 298.02172113784496 # Ar
1783 1783 1 0.0 44.88513234689927 193.39669907143352 405.8794012946013 # Ar
1784 1784 1 0.0 186.110514117961 367.8588877235948 12.555902177644253 # Ar
1785 1785 1 0.0 116.11938120250664 308.4752495338749 365.95888719344885 # Ar
1786 1786 1 0.0 280.1969471504873 357.03792571792263 465.03942664436886 # Ar
1787 1787 1 0.0 283.5241403019647 162.06185261716996 71.28172210145681 # Ar
1788 1788 1 0.0 0.911521032739408 305.52111340322 73.71833155351376 # Ar
1789 1789 1 0.0 416.0123224945746 483.9621980071569 398.7658992618158 # Ar
1790 1790 1 0.0 498.2269382518023 436.75623499855095 201.39369140195691 # Ar
1791 1791 1 0.0 206.77241499350288 273.57985258363163 401.33844804833547 # Ar
1792 1792 1 0.0 324.7721375839913 276.505204357879 261.03979130905066 # Ar
1793 1793 1 0.0 423.6771000806065 80.29003657568092 213.70524718966522 # Ar
1794 1794 1 0.0 457.7903492335446 23.103168840233387 36.09236830331238 # Ar
1795 1795 1 0.0 506.7250093974514 355.2820291987377 32.58659005378844 # Ar
1796 1796 1 0.0 484.3020769572914 256.77579115004215 71.15394680374675 # Ar
1797 1797 1 0.0 296.19884485414923 173.08008280899926 278.3635707806225 # Ar
1798 1798 1 0.0 421.1186265190621 249.65379374051892 365.38589508065496 # Ar
1799 1799 1 0.0 447.0217407167596 459.5421876355791 27.881493715229453 # Ar
1800 1800 1 0.0 304.11303163426135 508.2408529785974 139.33976285598084 # Ar
1801 1801 1 0.0 198.33479138444395 165.96741278231394 460.3674432255583 # Ar
1802 1802 1 0.0 401.3762923162076 382.72938160540866 417.3407479532259 # Ar
1803 1803 1 0.0 484.70119784125745 352.5313294837733 457.70882327516193 # Ar
1804 1804 1 0.0 14.343239503499683 101.81476660180245 340.7765978641629 # Ar
1805 1805 1 0.0 108.6064837125213 380.9845038139192 330.58364259714386 # Ar
1806 1806 1 0.0 111.64110967127492 378.52680862990167 407.26776354898533 # Ar
1807 1807 1 0.0 61.56203965243565 217.00913467936647 445.5338231024782 # Ar
1808 1808 1 0.0 226.10505176366794 69.05390412228626 414.28588177419783 # Ar
1809 1809 1 0.0 408.39859581893865 264.85601308164894 39.68357829487142 # Ar
1810 1810 1 0.0 285.70763771767486 202.829760878634 435.20885467379446 # Ar
1811 1811 1 0.0 217.46264549965167 229.34264319043078 359.73985312534927 # Ar
1812 1812 1 0.0 461.6471370341812 237.59269265714443 314.62336806218906 # Ar
1813 1813 1 0.0 369.6177718370165 81.98317477565517 234.14001579963738 # Ar
1814 1814 1 0.0 435.9827688474071 415.24189964398505 78.38219069308724 # Ar
1815 1815 1 0.0 417.2830697932572 29.880497524346552 488.7763155609869 # Ar
1816 1816 1 0.0 218.15258568791694 339.94113660762787 124.42893778705559 # Ar
1817 1817 1 0.0 398.5542667142392 196.07096744606497 252.5100054721685 # Ar
1818 1818 1 0.0 175.02001994399643 167.89600628437753 245.23066488509744 # Ar
1819 1819 1 0.0 469.01415646429683 459.08347153738487 477.5217248005878 # Ar
1820 1820 1 0.0 103.83766145079576 303.903814070698 316.52530849775934 # Ar
1821 1821 1 0.0 254.77412064962385 309.536606239451 55.67029357513588 # Ar
1822 1822 1 0.0 408.54504418413677 156.550526488821 242.73338338777504 # Ar
1823 1823 1 0.0 166.1823230863966 130.33182181725587 198.73565068278083 # Ar
1824 1824 1 0.0 456.7828359966408 66.47626940954184 114.89681990774851 # Ar
1825 1825 1 0.0 374.392571516601 371.1077801120142 365.87837230812113 # Ar
1826 1826 1 0.0 463.79771370551356 464.80469688530627 423.6905544339011 # Ar
1827 1827 1 0.0 462.6267733671702 36.55470493621717 301.4098579511452 # Ar
1828 1828 1 0.0 177.66488667039627 56.44912854350856 470.3747411380778 # Ar
1829 1829 1 0.0 100.4525086377282 261.0364769559201 435.71863200737107 # Ar
1830 1830 1 0.0 428.3116226073207 418.67834230597623 314.3853912252028 # Ar
1831 1831 1 0.0 238.62888007180575 274.09617390138965 425.4681779946723 # Ar
1832 1832 1 0.0 170.7635460830141 334.08894655020856 40.58090595998259 # Ar
1833 1833 1 0.0 395.4480372194412 409.6488406142397 204.16898002727496 # Ar
1834 1834 1 0.0 282.7915231153533 399.7275734476372 292.8294021560611 # Ar
1835 1835 1 0.0 254.86674912900764 408.2577586483019 243.366925088004 # Ar
1836 1836 1 0.0 198.73789046713418 427.4998008615306 47.538076879929534 # Ar
1837 1837 1 0.0 232.71201286356427 332.9448808616616 437.1116631165799 # Ar
1838 1838 1 0.0 76.33809982941219 67.61112520383465 317.9167621897919 # Ar
1839 1839 1 0.0 499.3928705800422 340.1272457361271 112.3941683093706 # Ar
1840 1840 1 0.0 205.93161640393888 486.2195474813855 269.281458989803 # Ar
1841 1841 1 0.0 334.95408327483455 57.477352119758336 45.643091213269194 # Ar
1842 1842 1 0.0 122.13956092097344 107.10235183854776 478.7064482369855 # Ar
1843 1843 1 0.0 357.96358883836035 410.82438793273104 61.877998513616646 # Ar
1844 1844 1 0.0 484.3232682531406 253.56686579073403 262.21289466617094 # Ar
1845 1845 1 0.0 189.42416056236758 181.83626044344908 411.9723219709751 # Ar
1846 1846 1 0.0 335.7853597380338 192.47834147755137 455.98834500009923 # Ar
1847 1847 1 0.0 346.82326598137877 313.54067403627414 203.98602142542364 # Ar
1848 1848 1 0.0 329.906999635509 371.92838992267184 86.66482853598347 # Ar
1849 1849 1 0.0 109.88504767954666 108.44323036647906 391.4094340878157 # Ar
1850 1850 1 0.0 165.02437542880764 170.0406625619085 491.22061752016725 # Ar
1851 1851 1 0.0 23.763664378337317 471.0122685621769 349.30071260800787 # Ar
1852 1852 1 0.0 300.20670107341857 475.6470913987539 471.23966298319135 # Ar
1853 1853 1 0.0 263.96009147599733 67.84446499588766 475.0354267468416 # Ar
1854 1854 1 0.0 197.99859843100657 256.15055877160904 452.21805604010143 # Ar
1855 1855 1 0.0 306.600148847985 300.6799149554896 283.2046329473515 # Ar
1856 1856 1 0.0 55.79255416562708 428.65768899005064 312.70797823058535 # Ar
1857 1857 1 0.0 484.0422474431247 215.7702330280015 162.67481380851714 # Ar
1858 1858 1 0.0 387.99366257820213 30.164542194957644 336.43739799067043 # Ar
1859 1859 1 0.0 16.621306800780697 166.31427205548275 376.36263551451657 # Ar
1860 1860 1 0.0 152.0168161270754 199.16487806737973 36.998484428647366 # Ar
1861 1861 1 0.0 297.66478665176777 82.24973032066332 450.6366851214152 # Ar
1862 1862 1 0.0 186.85907112662872 168.86622128176256 320.68857239422994 # Ar
1863 1863 1 0.0 215.58220627465911 127.52546667469355 238.1600574092188 # Ar
1864 1864 1 0.0 349.32415075850287 457.548947191046 421.1386630488472 # Ar
1865 1865 1 0.0 463.3965159453119 14.53311424025405 101.92893449732424 # Ar
1866 1866 1 0.0 69.76613084800535 489.7907069532574 230.26908780971476 # Ar
1867 1867 1 0.0 295.31350601590214 209.30042300000736 294.6111902741613 # Ar
1868 1868 1 0.0 334.0361284572523 463.6002977565365 512.1727802388576 # Ar
1869 1869 1 0.0 213.5031310978166 459.5996591089245 456.1621746589652 # Ar
1870 1870 1 0.0 21.827073355390592 202.55603126045642 242.0573352727203 # Ar
1871 1871 1 0.0 478.8255083044049 289.37651822117283 46.59154750383757 # Ar
1872 1872 1 0.0 103.72320307069678 188.68882159647555 61.945924346155735 # Ar
1873 1873 1 0.0 97.76154399557652 381.67467841432784 321.9843142431469 # Ar
1874 1874 1 0.0 212.64983453983314 310.961613009232 461.47544278454836 # Ar
1875 1875 1 0.0 219.17824761253294 340.4287582366283 414.25956958991947 # Ar
1876 1876 1 0.0 90.9512170530542 335.718628045055 47.20242166825233 # Ar
1877 1877 1 0.0 176.6847992861567 56.041713136999824 72.40850524017877 # Ar
1878 1878 1 0.0 300.13019940355633 154.1569048460085 462.01398181149335 # Ar
1879 1879 1 0.0 458.56787560127134 289.03615732095176 183.41312835630782 # Ar
1880 1880 1 0.0 314.8533194435472 55.13038543214522 207.84835844298973 # Ar
1881 1881 1 0.0 87.89186260725707 108.68101266502647 144.91976959168724 # Ar
1882 1882 1 0.0 56.198149054518346 88.68496061789365 0.43093973699127136 # Ar
1883 1883 1 0.0 96.52183658143285 86.80164696479899 349.75380476810136 # Ar
1884 1884 1 0.0 493.28923461261724 343.03449450327946 112.83611866054117 # Ar
1885 1885 1 0.0 256.026203948543 419.6528783690487 111.54382377003752 # Ar
1886 1886 1 0.0 32.087406155446075 229.22072577598848 406.8844325684403 # Ar
1887 1887 1 0.0 339.5788842212891 288.5194986702463 410.38257234909906 # Ar
1888 1888 1 0.0 191.41679318263485 106.75066590293011 403.3260521733381 # Ar
1889 1889 1 0.0 149.03490173918593 314.3794235504887 37.655682346399466 # Ar
1890 1890 1 0.0 241.39204053442967 342.6072786644914 452.36515174629983 # Ar
1891 1891 1 0.0 108.81921707319856 351.19868501215643 16.63160749474767 # Ar
1892 1892 1 0.0 335.65810632873644 287.4314847973714 93.74502713686051 # Ar
1893 1893 1 0.0 228.0833434338475 148.6666968701881 10.444866428204367 # Ar
1894 1894 1 0.0 98.52761319103989 113.52252197352765 184.1307478020427 # Ar
1895 1895 1 0.0 51.29098041868738 36.485876297030856 377.2852089129395 # Ar
1896 1896 1 0.0 460.66733748619396 411.46577948864586 327.1688860951972 # Ar
1897 1897 1 0.0 295.2602257943453 309.9624927759327 446.0670070575407 # Ar
1898 1898 1 0.0 278.78372518732294 50.6205026711612 307.31694151191493 # Ar
1899 1899 1 0.0 66.55741673448554 80.40027599658107 400.71279293902205 # Ar
1900 1900 1 0.0 195.51048509609433 241.05168134142664 371.30015097116257 # Ar
1901 1901 1 0.0 390.67615897106714 508.9280331707437 157.66854974018574 # Ar
1902 1902 1 0.0 358.3470098748681 477.99708444188025 212.2458530094581 # Ar
1903 1903 1 0.0 166.3362804199743 210.55694158059228 332.62982922499 # Ar
1904 1904 1 0.0 84.98743007131141 396.6311296617876 108.86846525420356 # Ar
1905 1905 1 0.0 52.91962595133444 7.894639996825486 376.88980102938393 # Ar
1906 1906 1 0.0 100.93748920672122 146.5076497448457 38.35453304685779 # Ar
1907 1907 1 0.0 413.72700933000385 60.02746110897742 444.57520013370385 # Ar
1908 1908 1 0.0 15.322809947192287 171.59238753935412 194.4196106726457 # Ar
1909 1909 1 0.0 136.39242732661535 192.4446741043592 67.7691804977063 # Ar
1910 1910 1 0.0 310.17063603283566 338.26930305890096 37.73116201560724 # Ar
1911 1911 1 0.0 270.62581463704754 283.5656563334515 249.08085127441151 # Ar
1912 1912 1 0.0 162.03044838637 371.7831714450366 324.4938948670208 # Ar
1913 1913 1 0.0 172.49927428538393 371.85334334737917 71.77070305809893 # Ar
1914 1914 1 0.0 254.1185597177104 263.0617508737024 405.79165006228595 # Ar
1915 1915 1 0.0 492.131970381675 270.467272402141 450.556985490576 # Ar
1916 1916 1 0.0 94.09971285679292 499.89882319663576 189.28600954997398 # Ar
1917 1917 1 0.0 113.7470882417075 336.16197010482415 101.6864039348388 # Ar
1918 1918 1 0.0 55.881806473655715 180.7894308143776 10.933611375605679 # Ar
1919 1919 1 0.0 358.6952322257608 231.52298102234494 326.107949117575 # Ar
1920 1920 1 0.0 319.597694468997 110.6966472391259 458.6613577371754 # Ar
1921 1921 1 0.0 299.0943653157317 468.66393820647073 298.5556686372321 # Ar
1922 1922 1 0.0 97.68954666612318 116.82510768518517 144.68797205742038 # Ar
1923 1923 1 0.0 47.927806343293085 347.80527095034915 479.6253435203903 # Ar
1924 1924 1 0.0 151.97820218291145 136.22012403363388 375.563460632413 # Ar
1925 1925 1 0.0 194.8695298050281 31.210478079747656 224.40757130573283 # Ar
1926 1926 1 0.0 84.49904512981732 238.6204800074707 336.45752734008204 # Ar
1927 1927 1 0.0 291.8888535272494 44.997659700056104 47.48194086830117 # Ar
1928 1928 1 0.0 271.9398407583344 129.2192692833237 51.34131392211535 # Ar
1929 1929 1 0.0 90.06745322178713 306.4097730657324 19.79769400228831 # Ar
1930 1930 1 0.0 221.250707776421 334.4612650662174 290.15089775802255 # Ar
1931 1931 1 0.0 94.00516304249778 195.40906835051803 150.96212279074894 # Ar
1932 1932 1 0.0 459.3588548296143 454.41017735870264 240.8976082448494 # Ar
1933 1933 1 0.0 250.64799779431763 296.43299889364295 274.71231089722716 # Ar
1934 1934 1 0.0 463.82497350531895 463.1792671205387 14.947050188735885 # Ar
1935 1935 1 0.0 500.78693727953595 439.63690716234953 396.30138689507623 # Ar
1936 1936 1 0.0 229.1804989691198 64.68992369956808 422.3420681172823 # Ar
1937 1937 1 0.0 29.76238494511632 409.8281706365519 396.7015257714217 # Ar
1938 1938 1 0.0 389.9421795901529 414.31585705877933 67.54199316121667 # Ar
1939 1939 1 0.0 306.77274967812866 80.75422974677457 476.23646198780654 # Ar
1940 1940 1 0.0 162.45236212089878 139.0767132047465 348.6031008363897 # Ar
1941 1941 1 0.0 221.78121559251113 324.0343460118951 2.597290294431481 # Ar
1942 1942 1 0.0 496.0742385035506 364.7191054717304 205.6077575200995 # Ar
1943 1943 1 0.0 14.228237287863614 361.41164030812695 28.03361492609547 # Ar
1944 1944 1 0.0 460.4653986827827 415.6189439306984 83.65946536929422 # Ar
1945 1945 1 0.0 283.0086432587039 497.9971398266832 188.31047546110625 # Ar
1946 1946 1 0.0 10.980768576368337 55.053905082249535 107.63711087538401 # Ar
1947 1947 1 0.0 340.4275692858411 314.69975641186977 374.02395315794286 # Ar
1948 1948 1 0.0 461.0829356139945 198.9546877605336 181.7671631150806 # Ar
1949 1949 1 0.0 97.4162587477302 45.00972074108441 465.67411420701944 # Ar
1950 1950 1 0.0 319.4351010435721 140.22028866833827 384.1510515634657 # Ar
1951 1951 1 0.0 32.81084356925191 392.16349011502376 55.76759244021052 # Ar
1952 1952 1 0.0 376.2723317799171 80.04764925350142 494.54640244749277 # Ar
1953 1953 1 0.0 459.46271946082794 348.2555567633171 161.67224562530382 # Ar
1954 1954 1 0.0 381.0966666812698 414.6315006897264 267.1559882640361 # Ar
1955 1955 1 0.0 397.66897432053094 352.5686341314642 474.92165957396395 # Ar
1956 1956 1 0.0 512.115672785335 173.89843523628855 146.14282741084187 # Ar
1957 1957 1 0.0 26.285838243400136 73.64847855484508 360.16639224598765 # Ar
1958 1958 1 0.0 480.4877247984851 81.41997539436912 71.39149229596062 # Ar
1959 1959 1 0.0 320.6865892332676 405.76114791299216 342.8368753320716 # Ar
1960 1960 1 0.0 89.87160374682888 165.77610456933476 368.52760789612745 # Ar
1961 1961 1 0.0 335.96719643851253 25.421455704804007 169.06103054406123 # Ar
1962 1962 1 0.0 510.2358205165257 105.41391986889683 424.49929534418084 # Ar
1963 1963 1 0.0 295.82140176854165 224.06201069590722 466.958533978895 # Ar
1964 1964 1 0.0 351.9441887905743 28.81428033807177 80.54122268270926 # Ar
1965 1965 1 0.0 251.78761979328127 441.379154886029 395.3910778440107 # Ar
1966 1966 1 0.0 287.0543586188367 110.75275016800249 101.08161378424198 # Ar
1967 1967 1 0.0 250.1371154046853 389.2980815645988 373.35171900846467 # Ar
1968 1968 1 0.0 469.98863056414876 351.8600837533765 66.23816748932953 # Ar
1969 1969 1 0.0 418.8178729910169 299.0686156129987 131.0933668431102 # Ar
1970 1970 1 0.0 452.0167904952516 80.09311489702692 119.54527052287669 # Ar
1971 1971 1 0.0 333.0936365330778 420.0485024754069 492.0740860968994 # Ar
1972 1972 1 0.0 319.5170992016486 88.71571699043238 85.22241447783064 # Ar
1973 1973 1 0.0 349.3074811164306 363.93890412173727 74.48039546466465 # Ar
1974 1974 1 0.0 348.58794362762967 391.05132931935975 414.3927453420303 # Ar
1975 1975 1 0.0 367.8820406086898 260.47953881057475 142.39103490308312 # Ar
1976 1976 1 0.0 358.432406867808 193.63568217611484 484.44863843892523 # Ar
1977 1977 1 0.0 108.55065872706533 245.57557871710102 48.591148129227975 # Ar
1978 1978 1 0.0 88.51278592679024 184.70586642572283 196.95737513948313 # Ar
1979 1979 1 0.0 486.85205286427237 159.39950103232258 478.92995470152965 # Ar
1980 1980 1 0.0 291.84430917779616 46.866814237735476 102.90131866254964 # Ar
1981 1981 1 0.0 380.31148851979646 174.26118347638584 322.9695718397722 # Ar
1982 1982 1 0.0 47.788516795359634 212.2053001863719 476.9876113116314 # Ar
1983 1983 1 0.0 385.2359543420505 82.19459061912428 59.660136168751805 # Ar
1984 1984 1 0.0 13.295657568042886 483.89975293924084 396.5380928450666 # Ar
1985 1985 1 0.0 303.33564455763815 87.43541609939479 131.66858174227102 # Ar
1986 1986 1 0.0 506.7322191937275 293.7564889775792 310.21826646828004 # Ar
1987 1987 1 0.0 313.8011219896489 151.49265637543672 376.82428136439495 # Ar
1988 1988 1 0.0 2.5073229104207955 202.54417595411007 393.8090286364875 # Ar
1989 1989 1 0.0 471.0299050673836 230.45428231172002 412.7099139614728 # Ar
1990 1990 1 0.0 1.7279364099816719 37.68894427216884 281.24526000756873 # Ar
1991 1991 1 0.0 190.77293827477038 24.54191095181816 281.7980466956416 # Ar
1992 1992 1 0.0 207.1851278448419 131.63340994450692 92.82725363823008 # Ar
1993 1993 1 0.0 353.56829975419623 298.2536933626905 384.4497231280894 # Ar
1994 1994 1 0.0 468.86781438476044 197.06062252762996 45.13915757004939 # Ar
1995 1995 1 0.0 474.3455206986555 146.8776216847776 262.33376136868395 # Ar
1996 1996 1 0.0 98.48667916177992 463.5327128236754 214.5442975272278 # Ar
1997 1997 1 0.0 20.534385585089833 407.9498700391056 11.60366279551281 # Ar
1998 1998 1 0.0 390.8301436187325 471.3232959965917 489.9761662781142 # Ar
1999 1999 1 0.0 115.14415680135978 20.805313253635397 376.18521520096044 # Ar
2000 2000 1 0.0 206.80830250987302 293.08062947993955 446.0451522422845 # Ar
