LAMMPS data file -- atom_style full -- generated by chemfiles
150 atoms
0 bonds
0 angles
0 dihedrals
0 impropers
2 atom types
0 bond types
0 angle types
0 dihedral types
0 improper types
0.00000000 958.758975 xlo xhi
0.00000000 958.758975 ylo yhi
0.00000000 958.758975 zlo zhi

# Pair Coeffs
# 1 Ar
# 2 Ar+

Masses

1 39.948 # Ar
2 39.948 # Ar+

Atoms # full

1 1 1 0.0 816.7080774842948 355.46236905836804 93.39051948791975 # Ar
2 2 1 0.0 425.70801922995076 788.3385191303051 29.23220474643159 # Ar
3 3 1 0.0 185.51788278740054 407.25580672071436 523.4102098993933 # Ar
4 4 1 0.0 51.83585464805999 507.5397438091464 403.39494812890695 # Ar
5 5 1 0.0 350.1675604659154 642.5672086852617 424.93711457157315 # Ar
6 6 1 0.0 275.60286100152393 31.45631498890408 818.625558143559 # Ar
7 7 1 0.0 278.4829511490914 468.8527216156938 82.28462713379028 # Ar
8 8 1 0.0 357.26369281764437 748.3828882331935 134.19980378935904 # Ar
9 9 1 0.0 81.0589442579791 196.31965062533328 517.1256599966835 # Ar
10 10 1 0.0 521.9453782921537 121.66503288416604 596.0974178049165 # Ar
11 11 1 0.0 477.33397278339385 931.8185134276929 353.94772893587475 # Ar
12 12 1 0.0 437.80776423788814 288.3721388949057 40.08415678903455 # Ar
13 13 1 0.0 321.41737871438266 54.683213438737006 74.85806423106793 # Ar
14 14 1 0.0 547.9427272059012 206.57298360222848 349.5396832923773 # Ar
15 15 1 0.0 716.4942967088504 659.8713928312656 519.4003258787111 # Ar
16 16 1 0.0 946.7825395075729 325.08406651482244 712.0772881375592 # Ar
17 17 1 0.0 599.5331732329774 919.488399440223 513.3659067524782 # Ar
18 18 1 0.0 736.6143536783073 693.4056816955417 395.22089557041534 # Ar
19 19 1 0.0 99.25858988909958 50.15162015992246 100.5106892732666 # Ar
20 20 1 0.0 829.1369646375604 110.8257491511908 310.9670756492776 # Ar
21 21 1 0.0 809.5406905192148 737.8492377542069 497.64960984314337 # Ar
22 22 1 0.0 750.7131390371294 223.81038982942218 275.6250242293329 # Ar
23 23 1 0.0 822.99312218097 687.4624671509375 913.1711273640445 # Ar
24 24 1 0.0 918.656972450085 437.0342526985987 594.713280493609 # Ar
25 25 1 0.0 50.19878645754309 533.7456052262675 172.0178584468601 # Ar
26 26 1 0.0 439.8809269387257 447.21186952500665 870.0013914836304 # Ar
27 27 1 0.0 781.4296755080184 506.4192497923678 109.91362372956223 # Ar
28 28 1 0.0 395.958765643353 794.2598160488315 750.2786572339174 # Ar
29 29 1 0.0 157.09780194015 233.63015567096835 532.8637710055357 # Ar
30 30 1 0.0 152.7392706792097 732.8558257827971 680.8290051209294 # Ar
31 31 1 0.0 743.5731473294177 180.54461424737622 556.1574410203484 # Ar
32 32 1 0.0 84.46637415323228 215.46492154501425 346.3407330739502 # Ar
33 33 1 0.0 452.41796178836745 111.48059147281081 632.8629940660385 # Ar
34 34 1 0.0 586.4389900591843 809.2646131915184 303.30596856531633 # Ar
35 35 1 0.0 824.4099228728963 467.92930907889644 160.30346201391268 # Ar
36 36 1 0.0 866.7079639333458 631.9319928977104 888.3811732826107 # Ar
37 37 1 0.0 89.28705258241132 627.4559000219997 681.3296019640385 # Ar
38 38 1 0.0 259.9318880968192 793.5868542899525 408.2482720195203 # Ar
39 39 1 0.0 238.5995355564004 937.3545968431054 714.5203943248129 # Ar
40 40 1 0.0 510.2912087029996 229.4722740349032 490.8221418739375 # Ar
41 41 1 0.0 917.9283005077376 154.43974888333014 110.93410631274959 # Ar
42 42 1 0.0 291.3274159914646 842.9533408683311 860.5745797306158 # Ar
43 43 1 0.0 536.0760442032462 1.6532970767205077 307.07402845871104 # Ar
44 44 1 0.0 236.8771273805577 179.4534442474017 120.11841744464846 # Ar
45 45 1 0.0 414.67532112557427 915.0614400243444 758.8349148393327 # Ar
46 46 1 0.0 218.32949255115906 17.157475894232668 854.2438110190924 # Ar
47 47 1 0.0 466.6069407311814 805.3571753450309 499.56514875407174 # Ar
48 48 1 0.0 9.150942693760683 225.92568968803457 331.495834980965 # Ar
49 49 1 0.0 329.97873541391425 29.400955969878353 835.2254512668125 # Ar
50 50 1 0.0 649.6732066153851 894.2454886358485 526.5173987383224 # Ar
51 51 1 0.0 418.47800507373205 61.77697060946959 446.5775431652121 # Ar
52 52 1 0.0 103.53258831757714 59.57818740534967 683.3592151686286 # Ar
53 53 1 0.0 77.89265679467917 305.1576056503914 719.1623762235744 # Ar
54 54 1 0.0 706.1700124336622 359.21730735727886 201.37076212642125 # Ar
55 55 1 0.0 603.8576318443852 779.0313257938503 597.4490679976786 # Ar
56 56 1 0.0 887.1087592705923 900.9734697322148 747.3770633927193 # Ar
57 57 1 0.0 518.4395442242113 278.6509947299385 377.4012347993902 # Ar
58 58 1 0.0 376.475118658307 441.8450900647565 947.2936133218484 # Ar
59 59 1 0.0 414.0962908924516 699.1389694497489 951.6465317344863 # Ar
60 60 1 0.0 901.841775604795 661.694495370345 253.4672316798979 # Ar
61 61 1 0.0 122.57577058795931 950.9808036925413 667.2611142223526 # Ar
62 62 1 0.0 677.8148602144788 144.2580028845078 380.43262585261294 # Ar
63 63 1 0.0 136.6012857098561 609.2434236271604 146.71620586157377 # Ar
64 64 1 0.0 67.01406007575626 261.1678226514839 379.07137837799144 # Ar
65 65 1 0.0 568.2900220169043 584.2412201750308 787.1446892946001 # Ar
66 66 1 0.0 626.7082039418133 186.65349190061994 631.1161090905928 # Ar
67 67 1 0.0 787.5244608266329 127.68561953292452 439.31445101808555 # Ar
68 68 1 0.0 322.7270056090947 222.32075983929624 639.2484185489532 # Ar
69 69 1 0.0 641.5098107277635 360.97773833198556 307.50761038011143 # Ar
70 70 1 0.0 827.5431416001584 604.7758329507708 211.40649030910072 # Ar
71 71 1 0.0 300.46452004311226 288.6719862784617 747.0691931377104 # Ar
72 72 1 0.0 672.3910049876097 527.1725440401499 641.8911334235306 # Ar
73 73 1 0.0 942.6068889673619 522.9051806843495 213.68288720306646 # Ar
74 74 1 0.0 515.3089515557916 893.2063341356377 310.54370266230535 # Ar
75 75 1 0.0 798.2338226113288 921.9606533999439 647.6333509430016 # Ar
76 76 1 0.0 436.31872739443526 566.9943526987217 896.219121396477 # Ar
77 77 1 0.0 759.3402370366373 471.1675383198674 430.5761718000744 # Ar
78 78 1 0.0 246.4824067546649 64.62451041827588 856.0920199142197 # Ar
79 79 1 0.0 81.11636288684204 761.8588934431679 471.9950359793773 # Ar
80 80 1 0.0 399.10651262643495 141.4704383615739 903.6339026068428 # Ar
81 81 1 0.0 345.62575128394906 531.7300496379776 92.82118303069983 # Ar
82 82 1 0.0 395.0350216208354 816.9061705925725 716.302288047578 # Ar
83 83 1 0.0 926.8004184088002 248.98246175357534 878.5996424920534 # Ar
84 84 1 0.0 701.5374836722447 508.6139897737393 922.1035882377644 # Ar
85 85 1 0.0 937.2572427889439 493.1970058272841 7.390172251898953 # Ar
86 86 1 0.0 281.37187318362226 447.43045346152206 602.195743558659 # Ar
87 87 1 0.0 680.2860374376394 553.2984947408304 339.11167711963293 # Ar
88 88 1 0.0 872.0462115068898 785.0764163703939 530.3820352407588 # Ar
89 89 1 0.0 852.8834898347018 546.0446784414461 566.5679933554599 # Ar
90 90 1 0.0 204.79611849300608 171.32691378126637 713.8416567454765 # Ar
91 91 1 0.0 675.4522899786122 643.5634158550797 196.5419613080313 # Ar
92 92 1 0.0 508.1835058266327 837.9703456865522 70.20553572846427 # Ar
93 93 1 0.0 729.9945334898007 58.484513576401305 815.9693736201674 # Ar
94 94 1 0.0 603.2886361668304 630.1873660556668 559.2918300228536 # Ar
95 95 1 0.0 26.57527618694342 595.332945212273 608.7860609425816 # Ar
96 96 1 0.0 507.0414397081541 205.14087059381575 232.94347506391136 # Ar
97 97 1 0.0 315.41140995948126 11.88729012068692 194.62306001608974 # Ar
98 98 1 0.0 480.8564473303407 844.3448333770986 51.021466242400926 # Ar
99 99 1 0.0 525.2205151788743 476.4360234001661 190.8358814734679 # Ar
100 100 1 0.0 536.6385403336884 33.80330922570444 43.06158809800254 # Ar
101 101 1 0.0 826.0762877244864 583.4297177332659 927.0211297871656 # Ar
102 102 2 0.0 309.70246526616046 638.0971796128438 499.43820382111676 # Ar+
103 103 2 0.0 600.910083612438 638.0650938930644 429.86473643085105 # Ar+
104 104 2 0.0 738.858020358531 736.679329802759 122.0354486081823 # Ar+
105 105 2 0.0 903.8115038726492 305.33176187999 852.4763241005974 # Ar+
106 106 2 0.0 400.0184284526546 557.7656148901391 183.32785483782556 # Ar+
107 107 2 0.0 503.24590157596185 344.6913746067869 673.5253431732734 # Ar+
108 108 2 0.0 492.7254715908067 198.32373356907834 532.2438735895395 # Ar+
109 109 2 0.0 120.64023875284451 41.26214326589967 27.651424922118146 # Ar+
110 110 2 0.0 507.9937410266205 558.9465753664391 507.6185096640056 # Ar+
111 111 2 0.0 513.2245854509623 894.2962389838101 407.1926083686351 # Ar+
112 112 2 0.0 777.178922003738 146.5874948969539 937.2411613989545 # Ar+
113 113 2 0.0 451.8700517453144 867.5896677778418 870.8835666661416 # Ar+
114 114 2 0.0 774.4138167146419 576.4671918090927 364.31856005977914 # Ar+
115 115 2 0.0 191.8624906046871 698.4686891827192 900.8694464382219 # Ar+
116 116 2 0.0 768.5216532692868 958.2609455931517 91.28886792486475 # Ar+
117 117 2 0.0 373.67971956760806 567.2082034529096 177.68305698819728 # Ar+
118 118 2 0.0 122.40868545962435 797.0508034471234 261.3347336882241 # Ar+
119 119 2 0.0 9.22092459929731 22.490448295696982 80.87405079065361 # Ar+
120 120 2 0.0 322.0971623433851 145.3028017915756 173.2340271218003 # Ar+
121 121 2 0.0 165.0063377594111 520.813486502701 838.6765977744587 # Ar+
122 122 2 0.0 936.6930835192808 873.1098032101013 520.5677091890382 # Ar+
123 123 2 0.0 410.48747476277083 954.4377678990913 948.5205564372278 # Ar+
124 124 2 0.0 251.4024512983466 158.81784005598976 263.5955744213839 # Ar+
125 125 2 0.0 513.0065168063778 928.9249869343333 69.66384627239981 # Ar+
126 126 2 0.0 400.0154653271965 147.72452253726044 313.4836911536819 # Ar+
127 127 2 0.0 223.28279133316377 161.49324017955448 700.8066950088893 # Ar+
128 128 2 0.0 741.5049602585455 81.56254523188271 610.3584578142992 # Ar+
129 129 2 0.0 783.5105860376982 880.4915653637327 310.864111504124 # Ar+
130 130 2 0.0 66.37246757903866 8.432185586199266 294.38196078265526 # Ar+
131 131 2 0.0 357.43477268073207 420.5770787129988 191.05114585035105 # Ar+
132 132 2 0.0 456.80178732401583 668.718886964639 540.2406065443624 # Ar+
133 133 2 0.0 458.0022617061856 613.1880590428938 221.15131964549946 # Ar+
134 134 2 0.0 378.61548432701704 373.76400890294826 614.5494348747013 # Ar+
135 135 2 0.0 492.8031237664788 452.877710526996 857.6964982391872 # Ar+
136 136 2 0.0 944.181020743643 271.7520838341234 924.7416011208434 # Ar+
137 137 2 0.0 162.287801995714 525.3028355490493 89.52796258039348 # Ar+
138 138 2 0.0 391.304820946802 917.6772487527378 793.8578292151651 # Ar+
139 139 2 0.0 298.26429988770235 619.0023438246219 768.3577083354083 # Ar+
140 140 2 0.0 651.126847349714 680.4127433949564 164.52342515638054 # Ar+
141 141 2 0.0 315.5620390588189 215.88955465872036 749.5046645147778 # Ar+
142 142 2 0.0 98.29741659704266 798.6268989338244 785.2972900410307 # Ar+
143 143 2 0.0 496.9558280906007 656.0246511396734 687.6077753795021 # Ar+
144 144 2 0.0 783.6280721710443 380.70514532352 537.2687544131908 # Ar+
145 145 2 0.0 744.6954043687147 752.401197138418 257.11141783461585 # Ar+
146 146 2 0.0 375.1023850875653 447.84491054851355 344.2774630559605 # Ar+
147 147 2 0.0 190.06414421316342 269.44073264403636 598.1953823027777 # Ar+
148 148 2 0.0 934.1999168211472 128.78322947980138 796.1928841750246 # Ar+
149 149 2 0.0 14.248840068887075 844.7228022081141 365.85584863985883 # Ar+
150 150 2 0.0 660.8832755633646 753.5844800371225 270.92232755228866 # Ar+
