LAMMPS data file -- atom_style full -- generated by chemfiles
2000 atoms
0 bonds
0 angles
0 dihedrals
0 impropers
1 atom types
0 bond types
0 angle types
0 dihedral types
0 improper types
0.00000000 1296.66827 xlo xhi
0.00000000 1296.66827 ylo yhi
0.00000000 1296.66827 zlo zhi

# Pair Coeffs
# 1 Ar

Masses

1 39.948 # Ar

Atoms # full

1 1 1 0.0 498.56559771151893 665.969514616454 895.2257003504964 # Ar
2 2 1 0.0 174.49705810037622 60.69466293365788 502.18231463449644 # Ar
3 3 1 0.0 30.2870396617022 731.2023946795949 526.6697950491645 # Ar
4 4 1 0.0 240.66796814317075 398.7331915404873 482.5931185608079 # Ar
5 5 1 0.0 185.11550812996828 1193.362646233119 445.86060354671855 # Ar
6 6 1 0.0 1094.3015412896625 113.19617920238397 265.2742502070937 # Ar
7 7 1 0.0 825.6824386371156 40.07999798031661 781.3264147906556 # Ar
8 8 1 0.0 621.2745888770525 1038.3301549140508 1225.8450757119558 # Ar
9 9 1 0.0 1196.9672159177076 1221.186341083048 1012.6151423379854 # Ar
10 10 1 0.0 441.75298721604355 429.16561045360237 976.5485639335043 # Ar
11 11 1 0.0 920.6751919263901 485.1022137280893 972.9984441422048 # Ar
12 12 1 0.0 310.7657459972784 789.9936473346255 1059.828612067686 # Ar
13 13 1 0.0 310.24606206079494 767.252022302943 642.2644220507568 # Ar
14 14 1 0.0 708.7185547284349 374.0847356775705 1181.242043879452 # Ar
15 15 1 0.0 1058.0916695825683 1120.6734952045063 638.2945900289152 # Ar
16 16 1 0.0 879.928220047283 889.3053737172468 1198.5775363195473 # Ar
17 17 1 0.0 612.5892978246474 986.8785198077195 340.63366757475086 # Ar
18 18 1 0.0 546.2461277018474 23.226175985398793 537.1773078727755 # Ar
19 19 1 0.0 466.39213338418153 96.52392861629743 879.5388481895765 # Ar
20 20 1 0.0 609.4501051516523 752.9407292997832 119.69502068261303 # Ar
21 21 1 0.0 1005.6218711616647 908.5523913456041 146.39690628732748 # Ar
22 22 1 0.0 1151.7670912927838 1158.970639664534 778.5156436648933 # Ar
23 23 1 0.0 1021.7712175058383 973.3351557641219 788.1509975002488 # Ar
24 24 1 0.0 742.795618099805 1038.9420074767067 1203.6554534948998 # Ar
25 25 1 0.0 557.2761480786484 1276.4440606312994 931.6288191524445 # Ar
26 26 1 0.0 735.3764023726017 886.006260100205 942.1319618115119 # Ar
27 27 1 0.0 803.4894576414417 586.9567558584907 622.4742035652889 # Ar
28 28 1 0.0 1231.1828957103749 353.66660920804895 1155.567690332013 # Ar
29 29 1 0.0 15.223757039200862 846.0553590575329 1072.380489363331 # Ar
30 30 1 0.0 457.49220251190803 360.992397732811 182.28845706992828 # Ar
31 31 1 0.0 1149.401984502635 329.97690538256023 834.1318900419636 # Ar
32 32 1 0.0 86.86856258638086 195.74736932933683 660.8275494418282 # Ar
33 33 1 0.0 50.893782926050264 451.27534344838455 41.58778204685711 # Ar
34 34 1 0.0 462.69701996164116 671.3139275195975 50.73543838772574 # Ar
35 35 1 0.0 872.2585869572937 373.80032749069454 1029.539970915228 # Ar
36 36 1 0.0 895.0528933433166 143.750829953749 0.5495253127338251 # Ar
37 37 1 0.0 407.6306919369508 375.5595845128268 1060.059406591674 # Ar
38 38 1 0.0 433.855066484414 489.59647188176496 929.4791496833365 # Ar
39 39 1 0.0 1150.3209657568646 182.1389563132605 631.0126032844461 # Ar
40 40 1 0.0 192.53210530322235 99.09302806638505 441.66851306165654 # Ar
41 41 1 0.0 1226.885391496595 612.9788259693793 514.5106673696171 # Ar
42 42 1 0.0 396.32795236054864 89.07146635184735 906.7091504238244 # Ar
43 43 1 0.0 784.2598627844267 916.0370997557309 432.8004292209185 # Ar
44 44 1 0.0 773.9874927237224 813.3027778239973 922.5909139040156 # Ar
45 45 1 0.0 802.0516485547714 535.2758423639262 492.3495836626695 # Ar
46 46 1 0.0 676.9585157715412 785.2292365000973 792.8339201403239 # Ar
47 47 1 0.0 200.17182242946467 308.57364083029853 900.5485700330212 # Ar
48 48 1 0.0 1226.8565220415892 184.6964277887222 81.62428638283757 # Ar
49 49 1 0.0 1047.6447357649984 281.8947523123322 156.98678710421683 # Ar
50 50 1 0.0 1199.0164941324404 375.16927897692375 345.39455279117436 # Ar
51 51 1 0.0 285.6343915509419 576.9906790085253 319.88832462524675 # Ar
52 52 1 0.0 1288.8076335864707 1172.020108356656 74.42214590920958 # Ar
53 53 1 0.0 391.4586378915157 393.7881063256966 1157.2523602829442 # Ar
54 54 1 0.0 357.8194322940681 31.71580805052755 400.6019457910164 # Ar
55 55 1 0.0 944.5701429569865 364.5558968061531 1229.801199536692 # Ar
56 56 1 0.0 908.1819482727559 131.43738195107946 88.01653682279677 # Ar
57 57 1 0.0 617.7128374575877 773.6888122880588 320.96762100572715 # Ar
58 58 1 0.0 571.7909004307792 7.442949209151657 1010.4121068515523 # Ar
59 59 1 0.0 123.95312926217898 381.00867786221863 586.1622152340756 # Ar
60 60 1 0.0 1166.4490191685134 1129.8877569333638 379.49974287957764 # Ar
61 61 1 0.0 641.2868153854165 426.2101771780974 261.3883134628848 # Ar
62 62 1 0.0 489.1201205568329 824.396960440947 64.24123952599803 # Ar
63 63 1 0.0 990.8005389204632 676.521753324567 1094.3013099978793 # Ar
64 64 1 0.0 97.34837739256787 37.52726462073054 768.3956773102775 # Ar
65 65 1 0.0 1120.2605079981508 895.4234879600904 145.65909656694961 # Ar
66 66 1 0.0 841.5979685721535 1209.8723913212102 320.1444224437047 # Ar
67 67 1 0.0 625.4527332407155 1190.0168141105937 366.1801504766015 # Ar
68 68 1 0.0 607.4393123619916 387.3676587760236 1068.5138367281436 # Ar
69 69 1 0.0 675.8124898658672 320.71684374135606 719.9010575948711 # Ar
70 70 1 0.0 1220.1627449369566 407.3992453097727 291.86015997958583 # Ar
71 71 1 0.0 818.5506644444092 779.8894728640865 440.16335173143955 # Ar
72 72 1 0.0 896.5069861046734 624.0134834298836 56.301750428875316 # Ar
73 73 1 0.0 1234.1721640345513 678.350852955916 482.4863197901997 # Ar
74 74 1 0.0 736.3349342955944 192.88483538487424 1038.6699653156825 # Ar
75 75 1 0.0 275.11762026485417 506.4986364479758 280.27801783747117 # Ar
76 76 1 0.0 259.0839348060191 247.62029170097153 364.69543361133606 # Ar
77 77 1 0.0 276.9953686318378 145.36872623659065 833.5607253573908 # Ar
78 78 1 0.0 1031.4513986469062 511.48092971092274 491.8712551216752 # Ar
79 79 1 0.0 517.2530513314854 507.9411486411753 1032.6173235022602 # Ar
80 80 1 0.0 891.417872279576 286.6703025471928 473.35723441818357 # Ar
81 81 1 0.0 1112.7809085934362 45.20511805589096 397.2324192606347 # Ar
82 82 1 0.0 1100.283139819727 198.84211821447585 444.08466756536245 # Ar
83 83 1 0.0 32.96588695443952 1104.915524195748 312.60391782388314 # Ar
84 84 1 0.0 658.7889445447342 725.0216456075049 72.16650237544832 # Ar
85 85 1 0.0 886.7737202185461 726.5298857658642 260.81399039356353 # Ar
86 86 1 0.0 553.5370745538753 832.3228311478725 75.66332666204478 # Ar
87 87 1 0.0 180.36526180709268 811.7288095441994 427.0756658152729 # Ar
88 88 1 0.0 903.7167040067046 583.0893479702729 594.4007012967725 # Ar
89 89 1 0.0 232.54117960857067 921.046212418232 916.5939154915297 # Ar
90 90 1 0.0 287.53930844606793 1273.8370266843954 595.6743213966223 # Ar
91 91 1 0.0 993.3544158125326 944.7944994996476 662.7558216217964 # Ar
92 92 1 0.0 257.170378191091 185.9724245381939 1057.5346051470442 # Ar
93 93 1 0.0 129.91000118089937 385.19766773712144 489.0045325159908 # Ar
94 94 1 0.0 684.402138689234 1213.452579297079 1066.909965580043 # Ar
95 95 1 0.0 407.80225931306427 807.2803102870504 562.5156697296215 # Ar
96 96 1 0.0 389.8436385470235 1145.6827899943996 763.576034089703 # Ar
97 97 1 0.0 13.45362616375935 748.3659781145894 1205.9596181120571 # Ar
98 98 1 0.0 1177.8371554386142 1251.569252131021 1017.0480159825896 # Ar
99 99 1 0.0 979.5688261069346 452.54810033089416 8.19738006515335 # Ar
100 100 1 0.0 316.8231579996553 965.0445356231439 372.3843460949822 # Ar
101 101 1 0.0 62.15816232783814 330.73002382884135 85.98462419781542 # Ar
102 102 1 0.0 640.9630422046952 442.34261739883897 292.9134447089724 # Ar
103 103 1 0.0 1195.2356054359473 63.30949236002983 626.2508889533293 # Ar
104 104 1 0.0 691.9555027780823 23.302771514251365 39.54263869316719 # Ar
105 105 1 0.0 883.6236331758732 665.5673312200246 498.4058205918749 # Ar
106 106 1 0.0 1170.0384687248695 889.776655295945 625.9937852243132 # Ar
107 107 1 0.0 1241.1774197377788 372.16464586440367 356.72153203334113 # Ar
108 108 1 0.0 721.3265284319989 150.60202262545735 1179.4998437425127 # Ar
109 109 1 0.0 387.75807495883294 439.8165924983134 948.3482835263167 # Ar
110 110 1 0.0 883.9870975076171 1024.2096258782285 1223.7669437986603 # Ar
111 111 1 0.0 563.1962145238132 343.57668867851214 1108.3757627703098 # Ar
112 112 1 0.0 838.3992511872573 733.2426828600974 928.3500103138919 # Ar
113 113 1 0.0 506.12208007837046 953.9446680120524 731.8368767989789 # Ar
114 114 1 0.0 9.755772187338625 695.6923580833924 1218.885106854288 # Ar
115 115 1 0.0 145.64698632827876 1188.636845007211 625.7427156360345 # Ar
116 116 1 0.0 1273.1605663084215 690.0804075073951 802.5332448093234 # Ar
117 117 1 0.0 258.8158791515362 822.1833544282773 115.96793120944436 # Ar
118 118 1 0.0 523.7136164557952 873.0403298421814 1048.8621557734311 # Ar
119 119 1 0.0 639.7595472030896 713.9490055115514 667.4274671042646 # Ar
120 120 1 0.0 1245.0176242791042 793.8175870471996 352.02096529943765 # Ar
121 121 1 0.0 40.7982437951552 115.86675200743886 1214.0107741693669 # Ar
122 122 1 0.0 43.85265448454523 1156.736483991133 1176.0837298382714 # Ar
123 123 1 0.0 9.828728840545537 190.7006366092751 1124.0038426880221 # Ar
124 124 1 0.0 910.6265434523564 409.78041037031454 1259.8857966120163 # Ar
125 125 1 0.0 1036.8259464968394 502.0637568199964 624.8738096152199 # Ar
126 126 1 0.0 616.4507485710712 498.3044603899852 101.22454030039866 # Ar
127 127 1 0.0 24.866982615839955 1041.1107853434028 50.64229364647851 # Ar
128 128 1 0.0 228.5649437114876 987.6034330250943 912.44738261688 # Ar
129 129 1 0.0 999.2702090078621 147.57775835241785 209.47298007221025 # Ar
130 130 1 0.0 804.1278322239529 746.7750090639312 1097.6841775488926 # Ar
131 131 1 0.0 996.2241590552397 1083.5956143300273 961.3434892494515 # Ar
132 132 1 0.0 1234.4945572070956 953.1196752637519 174.36288140622457 # Ar
133 133 1 0.0 469.70916297672517 1037.4609734836322 255.54783316529 # Ar
134 134 1 0.0 365.7088349500784 1024.2278304019787 498.1055155414834 # Ar
135 135 1 0.0 971.1876775613891 193.6162465778135 374.1194399933443 # Ar
136 136 1 0.0 366.581534189368 883.8293657886713 816.5827282225797 # Ar
137 137 1 0.0 829.0746512953982 922.6154596185106 823.0920679915523 # Ar
138 138 1 0.0 609.9877091384352 1102.8022860429712 514.5753511658045 # Ar
139 139 1 0.0 145.94746765445842 286.22725075431293 295.51660718747416 # Ar
140 140 1 0.0 525.4831374270456 649.1670539481856 1021.1770462018133 # Ar
141 141 1 0.0 326.619077454541 835.884997463496 1164.9443824282084 # Ar
142 142 1 0.0 291.8446061673364 1201.4072918577776 459.41388751131944 # Ar
143 143 1 0.0 522.0637954738016 870.4134330318232 134.95714266076317 # Ar
144 144 1 0.0 1252.3736266719266 83.77670637177977 523.736098337239 # Ar
145 145 1 0.0 193.34499438299468 464.36326273035036 206.00506970699809 # Ar
146 146 1 0.0 734.3386200458219 220.2625941571404 1250.884570729742 # Ar
147 147 1 0.0 855.1365560536053 591.0969851020996 814.398013645293 # Ar
148 148 1 0.0 1004.1006225476681 955.6041328317605 976.6266821737519 # Ar
149 149 1 0.0 158.18704598236081 505.58647490515597 683.4295793794121 # Ar
150 150 1 0.0 277.39874676618894 213.2415897434023 646.2010639948138 # Ar
151 151 1 0.0 1246.3900925700643 1245.507980534319 932.591392612055 # Ar
152 152 1 0.0 1052.8593251209104 1019.417119707298 1070.9660984280408 # Ar
153 153 1 0.0 46.58380164664877 1276.175126361499 432.2955194564548 # Ar
154 154 1 0.0 1014.8395857654572 526.1761166768607 379.47404090970645 # Ar
155 155 1 0.0 927.3989764960526 1109.584950941107 638.2446247262313 # Ar
156 156 1 0.0 1145.4563565423066 272.23581475428773 76.08417905036298 # Ar
157 157 1 0.0 498.38201341318006 252.02609591748887 474.2337675800267 # Ar
158 158 1 0.0 1196.7635057095392 1083.3785241560793 652.2272300751777 # Ar
159 159 1 0.0 455.5214430324323 695.6355053229113 583.324717789878 # Ar
160 160 1 0.0 87.79510842083417 413.41443008840196 272.85532204925005 # Ar
161 161 1 0.0 495.8592913294389 590.9255813306501 92.39715644166463 # Ar
162 162 1 0.0 228.3750678548344 308.29483406772295 168.19793796215814 # Ar
163 163 1 0.0 792.8567760372164 1237.3809907419657 563.1653561001649 # Ar
164 164 1 0.0 824.1135659137826 1246.9588537456996 340.63406307122153 # Ar
165 165 1 0.0 168.98079488231588 831.8640930732126 999.5382107963144 # Ar
166 166 1 0.0 387.9312166794778 1115.6711158514963 1204.3296946196335 # Ar
167 167 1 0.0 1256.5987796597747 1253.2065380685362 203.9383666824405 # Ar
168 168 1 0.0 434.64470279386427 761.5251654554171 652.3690585322814 # Ar
169 169 1 0.0 263.73264458375684 383.10329815908653 374.95092919235884 # Ar
170 170 1 0.0 277.96668273356926 1103.161817547318 979.9961265492994 # Ar
171 171 1 0.0 87.08342089646644 174.89243657070588 1123.9021502939938 # Ar
172 172 1 0.0 634.227302344317 41.50455236813875 1272.7641067839838 # Ar
173 173 1 0.0 1205.3495347057328 826.8146349720404 1174.6895383232802 # Ar
174 174 1 0.0 1231.9540517818498 714.0423799014889 711.2835892633686 # Ar
175 175 1 0.0 945.3955802725468 728.3950051945678 1068.3862907445318 # Ar
176 176 1 0.0 1126.9452896518976 2.342362661444692 341.69263755137854 # Ar
177 177 1 0.0 657.7493610957277 374.50739539038557 499.23273799864427 # Ar
178 178 1 0.0 322.58083657317377 1213.7405650068429 908.6046481920135 # Ar
179 179 1 0.0 354.75467951040855 315.7508225160874 396.4818574358155 # Ar
180 180 1 0.0 859.3457910293226 973.0150933406069 417.62007440232975 # Ar
181 181 1 0.0 325.7714762541998 667.4719318452356 1037.8150680773197 # Ar
182 182 1 0.0 142.2847025193064 990.9232924787009 495.8904320064722 # Ar
183 183 1 0.0 335.0505929008507 1218.8644504025392 1036.9621606609219 # Ar
184 184 1 0.0 1238.1525764850119 1281.6987555534495 13.475375406470151 # Ar
185 185 1 0.0 305.701003298877 1177.7350001283996 323.69919689384136 # Ar
186 186 1 0.0 323.4088346866769 1251.49802089469 984.0654849570326 # Ar
187 187 1 0.0 242.6298943951523 1019.9909643142471 179.36095762328557 # Ar
188 188 1 0.0 534.2167931433609 1063.3276455797156 1110.342886412567 # Ar
189 189 1 0.0 50.130156875268604 34.39143366488959 1146.1548790305833 # Ar
190 190 1 0.0 479.4544049154292 176.11837705429045 333.30972316732294 # Ar
191 191 1 0.0 550.0832785200823 1163.6346631322067 950.7452503826737 # Ar
192 192 1 0.0 867.7567962446402 379.9413032745837 842.7560540247955 # Ar
193 193 1 0.0 818.4274873543105 413.22417138279604 35.02941955211383 # Ar
194 194 1 0.0 580.7588613348472 933.4733305037504 900.0507198643677 # Ar
195 195 1 0.0 20.00137317288877 648.7501136326749 307.4924618557907 # Ar
196 196 1 0.0 176.63046620685319 875.2473522472429 780.6823904854909 # Ar
197 197 1 0.0 952.2040039086958 728.1768002464212 1059.8056111920082 # Ar
198 198 1 0.0 147.67947770819146 167.21828493692632 995.8784340644916 # Ar
199 199 1 0.0 902.824087388836 758.8137288390881 1074.1127524767078 # Ar
200 200 1 0.0 382.0939311204401 669.2573930852288 453.6816241776084 # Ar
201 201 1 0.0 476.9761765134378 228.2983468364377 630.0082552083512 # Ar
202 202 1 0.0 110.11206884443584 994.5458803768303 133.3955416849233 # Ar
203 203 1 0.0 464.8656708729628 840.3229112632062 768.3906559825347 # Ar
204 204 1 0.0 119.17980812851675 532.5750456861587 438.65289518667134 # Ar
205 205 1 0.0 1246.8237924875941 891.5164450037857 1026.5583522709398 # Ar
206 206 1 0.0 799.2823685382912 753.5652483819484 372.0401850635425 # Ar
207 207 1 0.0 7.594816040020965 1245.1445790159494 624.0131659104818 # Ar
208 208 1 0.0 0.23689503508976087 1107.2900591206253 623.1702901305805 # Ar
209 209 1 0.0 155.5566875598518 652.9579699035825 282.8602577587259 # Ar
210 210 1 0.0 778.5132909009383 706.9211819317338 245.9212405318504 # Ar
211 211 1 0.0 260.74858478285375 520.9363584471503 730.9763933910671 # Ar
212 212 1 0.0 1139.8319172375832 752.4975222050776 721.2483790800225 # Ar
213 213 1 0.0 940.2608719501012 238.59635539650648 810.8685426786 # Ar
214 214 1 0.0 779.1712026007806 943.2708818294709 902.098557476869 # Ar
215 215 1 0.0 732.2985296349133 1276.1746747005766 1269.3495471127558 # Ar
216 216 1 0.0 962.9017526056473 1038.6271689594614 305.6382684662219 # Ar
217 217 1 0.0 891.9038464315549 452.33472844983515 203.02060645034425 # Ar
218 218 1 0.0 925.1031733548787 3.3081041099837663 1175.5665555961707 # Ar
219 219 1 0.0 336.21684243299217 557.903440026772 926.6924637466559 # Ar
220 220 1 0.0 476.64005770216346 329.5090700235083 728.2213685178745 # Ar
221 221 1 0.0 875.2085692037684 541.3216173378929 949.8658428033517 # Ar
222 222 1 0.0 580.5939775840964 654.3407208983601 251.50739955053285 # Ar
223 223 1 0.0 733.0835293100237 503.17707668713916 1280.7959601569755 # Ar
224 224 1 0.0 224.660469912995 838.3862790525943 179.70955110572345 # Ar
225 225 1 0.0 254.48681649095062 164.25748378119803 877.1070212945742 # Ar
226 226 1 0.0 89.97374252757706 1106.9432680333605 1116.2989703724088 # Ar
227 227 1 0.0 1227.107909707247 914.1409317313394 773.8903961174103 # Ar
228 228 1 0.0 923.6095421461239 816.6789335689143 1176.701289012489 # Ar
229 229 1 0.0 116.3882485346638 252.9907697330668 228.87868874282736 # Ar
230 230 1 0.0 645.936368955424 146.99989298409508 259.4844539711199 # Ar
231 231 1 0.0 84.86709324369569 755.2168717346578 1264.832128550581 # Ar
232 232 1 0.0 566.2587443534899 507.3543509922365 1163.070040187833 # Ar
233 233 1 0.0 608.6783192171342 221.41888889625542 809.2833975526364 # Ar
234 234 1 0.0 600.0927868569041 853.1405316204672 969.5905124355189 # Ar
235 235 1 0.0 372.38297769745816 1024.0386476559274 676.3897849497037 # Ar
236 236 1 0.0 297.6663510308989 47.8761293326465 81.88524833963795 # Ar
237 237 1 0.0 679.1819955847046 1072.5323739794853 548.7469499740472 # Ar
238 238 1 0.0 935.7587703714572 1167.7396038112183 831.4356507310731 # Ar
239 239 1 0.0 257.2827495601241 678.9716611107727 872.1368760735409 # Ar
240 240 1 0.0 1129.1251598375043 208.23989766619098 549.0956513009965 # Ar
241 241 1 0.0 460.9361340728418 212.79027729079016 340.9342719187865 # Ar
242 242 1 0.0 1188.5076299957416 760.1743847872518 1195.5570592729114 # Ar
243 243 1 0.0 1199.0887001590597 85.87089038756307 367.2306822217778 # Ar
244 244 1 0.0 368.6559614730507 370.20594901000624 903.8740512821619 # Ar
245 245 1 0.0 288.8047208905293 902.6444870641386 335.7272168750346 # Ar
246 246 1 0.0 490.8408108742338 1220.9475364178295 732.0313937988155 # Ar
247 247 1 0.0 609.8189223078132 716.5596644469033 879.6929622287973 # Ar
248 248 1 0.0 49.16592578581783 380.61769174732893 263.91758945110854 # Ar
249 249 1 0.0 137.9997303280297 892.5277732749566 1021.8901731951586 # Ar
250 250 1 0.0 46.6117777946616 638.7252830869433 1286.2045719462526 # Ar
251 251 1 0.0 128.48919166367966 888.1603564819255 868.6324427266132 # Ar
252 252 1 0.0 880.594783841258 790.6064133038115 56.64509969358128 # Ar
253 253 1 0.0 637.7383426903606 395.6162545905273 175.36803724636428 # Ar
254 254 1 0.0 595.6922774135231 1116.7496594230217 1088.218715829523 # Ar
255 255 1 0.0 1149.7085447758893 499.6446221571575 689.3749611457247 # Ar
256 256 1 0.0 299.4694585659858 484.41055102873753 624.5445404695865 # Ar
257 257 1 0.0 1046.5993115797655 168.8539121932929 983.1852383195674 # Ar
258 258 1 0.0 663.7357506743588 601.740271343868 583.5478060973727 # Ar
259 259 1 0.0 258.7724024761882 361.33791616953704 1261.1260859438362 # Ar
260 260 1 0.0 1275.6698166829729 19.183039702868122 604.8353401410153 # Ar
261 261 1 0.0 552.10584668377 1220.2232848154442 62.66151344465597 # Ar
262 262 1 0.0 591.7134705423592 636.0831269771188 631.0010176712849 # Ar
263 263 1 0.0 870.1834036668346 721.404756487272 794.8206937526916 # Ar
264 264 1 0.0 925.8637524910475 867.8478328807557 235.98761581829658 # Ar
265 265 1 0.0 1161.189157419706 888.57291403372 917.4408428796909 # Ar
266 266 1 0.0 1226.699933829297 849.7709393775402 415.65178757129956 # Ar
267 267 1 0.0 1284.9526230729782 198.67035575276827 236.45693863511684 # Ar
268 268 1 0.0 667.1140968105539 132.3149795483478 392.3752882275065 # Ar
269 269 1 0.0 917.2449999972768 224.89545026196333 166.38291398470693 # Ar
270 270 1 0.0 113.34629348993053 919.1859350908355 672.9159300494642 # Ar
271 271 1 0.0 1097.3957841628699 249.56028522965218 649.3630114237742 # Ar
272 272 1 0.0 555.4953047896097 693.996421696512 428.18144293215175 # Ar
273 273 1 0.0 10.30026396953595 773.7692480921536 592.1841967137435 # Ar
274 274 1 0.0 256.2691157109802 1288.9358327908972 460.77462398510187 # Ar
275 275 1 0.0 1079.2290075269711 1129.225803149187 569.3476195377237 # Ar
276 276 1 0.0 276.1042721689405 1185.1940340319995 533.377604960002 # Ar
277 277 1 0.0 68.65970614095356 0.9861958034752509 314.60628238176093 # Ar
278 278 1 0.0 684.2866057811996 664.488604315306 294.18542846334327 # Ar
279 279 1 0.0 475.3458145513396 1071.6372435231626 1180.2823002656455 # Ar
280 280 1 0.0 924.4494289951097 887.2755450883346 186.09817232323067 # Ar
281 281 1 0.0 1114.308989623137 280.3943066050199 557.2501542165455 # Ar
282 282 1 0.0 1173.545408212698 902.2269176821593 303.1734583611692 # Ar
283 283 1 0.0 75.24584247993756 862.9946751199844 249.2991512288342 # Ar
284 284 1 0.0 623.7030589406676 676.09011508874 464.97886195017526 # Ar
285 285 1 0.0 686.4401906658538 1148.8254250573611 238.48585487846853 # Ar
286 286 1 0.0 166.2335366048907 1049.7528020978866 1098.9249988906226 # Ar
287 287 1 0.0 978.3804684246255 350.06198899991443 937.7693027022734 # Ar
288 288 1 0.0 10.43251395615033 284.4333965621139 441.13016006253525 # Ar
289 289 1 0.0 1151.9423083968306 522.7267746055303 428.64667772048494 # Ar
290 290 1 0.0 831.8604460682211 560.4315630569051 827.8830969681873 # Ar
291 291 1 0.0 1250.4679489600703 348.7330485654807 439.45684558898006 # Ar
292 292 1 0.0 354.47174361514686 613.3599463558899 1252.4662913266422 # Ar
293 293 1 0.0 1252.7433053879736 429.05234759600074 488.7325353476645 # Ar
294 294 1 0.0 298.9879659184124 1048.8244344705622 519.8048430481399 # Ar
295 295 1 0.0 1029.1676688879213 882.8623086798575 283.4465521321239 # Ar
296 296 1 0.0 834.9577257351943 1124.894502961331 327.45789916651444 # Ar
297 297 1 0.0 618.6146679269868 625.2800986792192 726.4336307099461 # Ar
298 298 1 0.0 204.0036262290362 388.8108733246065 1143.7673347981415 # Ar
299 299 1 0.0 1204.6949171607982 160.14664064384812 382.53231021142324 # Ar
300 300 1 0.0 493.54535862828453 1041.6089810807696 68.5483200130972 # Ar
301 301 1 0.0 499.7902121653058 785.4297096290215 590.789141235193 # Ar
302 302 1 0.0 1060.576328911539 450.87947544860384 1209.7567333036654 # Ar
303 303 1 0.0 720.7613948740192 120.38237723788296 406.37351291777264 # Ar
304 304 1 0.0 629.0605155829774 1132.4045071088767 551.4945055232089 # Ar
305 305 1 0.0 545.9871586916275 493.9409799083873 779.7199778636391 # Ar
306 306 1 0.0 519.2339733839012 194.36453475370163 246.49429691264098 # Ar
307 307 1 0.0 532.7381543759833 761.8633990264992 387.8053334233776 # Ar
308 308 1 0.0 955.0154417979683 357.42927985005423 223.1473603664568 # Ar
309 309 1 0.0 344.00227124004044 1083.0343793493696 1096.960000680524 # Ar
310 310 1 0.0 413.99042229988044 708.2687226987882 140.35208338932736 # Ar
311 311 1 0.0 262.5153527651762 364.5490034518176 298.2874803807634 # Ar
312 312 1 0.0 1166.5568548343106 760.0816886049984 192.77158478695196 # Ar
313 313 1 0.0 121.41645657427826 446.48990781469007 538.2941283288161 # Ar
314 314 1 0.0 773.8909885354434 1260.1911511149067 288.25191780709616 # Ar
315 315 1 0.0 1010.0558270131768 489.40372231395327 779.633387857849 # Ar
316 316 1 0.0 1169.4340909377206 398.78062840439355 1057.1173629609596 # Ar
317 317 1 0.0 328.9405890326771 991.1794597406043 1206.719106824466 # Ar
318 318 1 0.0 570.9998341167957 753.5978486628281 713.2132656478364 # Ar
319 319 1 0.0 876.5171093146394 264.6080681386921 1004.3291642310838 # Ar
320 320 1 0.0 299.82042349584486 328.87947040849946 676.8326450078787 # Ar
321 321 1 0.0 1149.2571958366102 1244.8327541430142 367.71402979631847 # Ar
322 322 1 0.0 394.3258789181383 228.1501402710526 41.93589566614954 # Ar
323 323 1 0.0 851.6180486332162 1194.482497860041 743.0861140241793 # Ar
324 324 1 0.0 857.413515756556 1202.3552853469 6.094565294972928 # Ar
325 325 1 0.0 37.64084714125218 242.13268242270925 1074.3218985967937 # Ar
326 326 1 0.0 90.36771472502194 756.5009557373825 950.4952903803177 # Ar
327 327 1 0.0 618.9659418496111 865.3327682069068 94.79912719175748 # Ar
328 328 1 0.0 148.12684213461762 743.8038996228742 259.9074196165328 # Ar
329 329 1 0.0 399.40491084486666 778.7311417816186 383.1915075539919 # Ar
330 330 1 0.0 294.0537919351512 6.433146380997655 828.0482734298078 # Ar
331 331 1 0.0 1027.1454253866848 967.1252541617824 251.94654579400526 # Ar
332 332 1 0.0 717.5371882079424 613.937408543491 427.9663643674838 # Ar
333 333 1 0.0 912.6012977054112 841.0144385125438 835.6362352643584 # Ar
334 334 1 0.0 318.7468812995738 1024.100203779787 524.6686131040384 # Ar
335 335 1 0.0 199.9306093157468 545.6754094889694 841.1340306531108 # Ar
336 336 1 0.0 86.27076363368411 282.15834174164917 1242.658354049187 # Ar
337 337 1 0.0 105.91816957664197 923.639395171682 1054.0005637960746 # Ar
338 338 1 0.0 1122.3608672446262 709.5287970019368 1.080202018697706 # Ar
339 339 1 0.0 989.9517175182857 772.284898276541 5.531595080146467 # Ar
340 340 1 0.0 239.97999512423004 815.3879644529104 884.8860280678134 # Ar
341 341 1 0.0 414.6399251875582 374.29350516790385 623.382734979502 # Ar
342 342 1 0.0 667.5254776592881 1170.4653365800707 516.1180705402693 # Ar
343 343 1 0.0 1227.901455443859 1005.1452245097271 339.90564444345057 # Ar
344 344 1 0.0 263.9775841666428 1059.0355593265986 1275.7659899696944 # Ar
345 345 1 0.0 948.8464061592675 162.17706153752547 148.95810968178174 # Ar
346 346 1 0.0 506.987213275296 42.4103987346624 912.1053780876367 # Ar
347 347 1 0.0 535.2639575216675 837.2404786335675 377.19168453529244 # Ar
348 348 1 0.0 509.0081772881313 290.9679055898346 1061.4288107002503 # Ar
349 349 1 0.0 807.6418976414825 887.7137718439931 490.2377163646924 # Ar
350 350 1 0.0 236.42334977750534 836.5983066050107 459.6508677157381 # Ar
351 351 1 0.0 962.5589310842028 237.1415019452386 942.2971136323881 # Ar
352 352 1 0.0 221.29327018563785 104.66313527118032 1091.136484331648 # Ar
353 353 1 0.0 1155.903737240501 1194.9065595923025 632.0081356595043 # Ar
354 354 1 0.0 433.84385105343335 1117.5067299291063 976.0526396516256 # Ar
355 355 1 0.0 821.903405579868 266.2118952925419 479.9138967103505 # Ar
356 356 1 0.0 881.2400966960791 323.0409932381507 932.3742782703298 # Ar
357 357 1 0.0 64.4416097392974 287.4458900245352 921.5220824752595 # Ar
358 358 1 0.0 552.8427508918675 843.0246729077741 528.1059749206222 # Ar
359 359 1 0.0 636.9166357472203 114.08353907656722 775.2665772755721 # Ar
360 360 1 0.0 589.2274922968022 411.333978075706 1264.7536608380885 # Ar
361 361 1 0.0 478.68622961218375 534.8109867573862 742.4471551928951 # Ar
362 362 1 0.0 871.1364928735298 385.4536133801152 983.6936973075145 # Ar
363 363 1 0.0 1027.0725812659532 211.88168193246608 621.7534908965027 # Ar
364 364 1 0.0 1157.5355328143596 311.16337697696923 1071.899957950341 # Ar
365 365 1 0.0 51.074493038652456 413.61208695158757 361.1517748029373 # Ar
366 366 1 0.0 649.3261845699068 99.25317297111754 904.3011081510543 # Ar
367 367 1 0.0 1076.9069796954718 327.15781151347954 1069.2490100659354 # Ar
368 368 1 0.0 49.13602002272283 655.1064200582995 198.3295941533333 # Ar
369 369 1 0.0 336.380480931432 347.93570778005505 1219.455464486834 # Ar
370 370 1 0.0 195.5915789432677 350.7977424762132 656.2306514342594 # Ar
371 371 1 0.0 916.1866543155371 764.5114949606312 519.878919750753 # Ar
372 372 1 0.0 1189.6977546151497 67.67344006495182 732.609179245462 # Ar
373 373 1 0.0 29.45864939398178 1051.9149976947533 1049.807759627968 # Ar
374 374 1 0.0 201.15791592528623 724.1046185613914 819.7830498188455 # Ar
375 375 1 0.0 343.66197312236756 105.243193370528 1202.5756488899706 # Ar
376 376 1 0.0 1054.1061863138602 599.4035127577998 587.4761674390688 # Ar
377 377 1 0.0 550.1355675423341 178.672500101867 323.82890699215153 # Ar
378 378 1 0.0 484.0326963421884 1176.3164325040393 175.34874805327695 # Ar
379 379 1 0.0 1216.1049002774141 29.48717217791494 419.4986610995595 # Ar
380 380 1 0.0 618.4685450206051 219.02616058451625 154.23900426498716 # Ar
381 381 1 0.0 434.30995965023175 1024.5041024644083 1162.7724601702996 # Ar
382 382 1 0.0 577.8001937083359 230.97458072558953 1128.8561438828353 # Ar
383 383 1 0.0 1081.049290672229 473.3054773321572 143.36590762693285 # Ar
384 384 1 0.0 679.2298268995421 882.6754715745192 832.7410713691997 # Ar
385 385 1 0.0 918.607289910072 649.3961549393919 843.4667332501858 # Ar
386 386 1 0.0 422.0106164593288 719.2742462119029 407.5223911500796 # Ar
387 387 1 0.0 19.659003402566945 422.646688334762 514.4382487686842 # Ar
388 388 1 0.0 324.2594032148686 943.2527822183669 1113.2257729887788 # Ar
389 389 1 0.0 578.375756498611 346.1958552691375 1108.2363523227289 # Ar
390 390 1 0.0 395.3322253316234 1193.8698802863087 1197.1579530415788 # Ar
391 391 1 0.0 83.85440314563134 1112.7253290467079 708.7371197438068 # Ar
392 392 1 0.0 661.4602975441736 382.5170686931622 1195.9501131459233 # Ar
393 393 1 0.0 1080.9635026390956 1289.220505411657 122.11236688199914 # Ar
394 394 1 0.0 1277.6817454810553 434.2913510423324 1229.0059668578956 # Ar
395 395 1 0.0 864.4993695274959 117.68024329155412 933.3952371178173 # Ar
396 396 1 0.0 741.6308173439242 736.9863308901265 400.57937741773844 # Ar
397 397 1 0.0 455.6447332743199 550.4127751982991 622.1531755143319 # Ar
398 398 1 0.0 1006.7370843207092 1289.7715450369424 1281.1867554858356 # Ar
399 399 1 0.0 779.6475158933159 984.6826808602893 171.20288302673774 # Ar
400 400 1 0.0 245.52682538773158 205.6713703514417 782.6732553196829 # Ar
401 401 1 0.0 1033.3750424883626 1199.377421396689 1033.1344072511622 # Ar
402 402 1 0.0 1185.8189093178048 1287.5839937175053 1134.6276156727065 # Ar
403 403 1 0.0 692.5007891113935 964.7044215422004 596.3197297018052 # Ar
404 404 1 0.0 116.00203368162843 325.37356642999686 1072.2909335013821 # Ar
405 405 1 0.0 215.24713637770563 1246.5953811552752 125.50375037032961 # Ar
406 406 1 0.0 1017.606106242347 110.66695064539876 733.9826772768489 # Ar
407 407 1 0.0 190.84714934403715 964.9057083982995 467.91366504929596 # Ar
408 408 1 0.0 701.2581354350383 914.1912631628311 583.9011866494973 # Ar
409 409 1 0.0 892.6487516098347 805.8762477218555 310.48753331616774 # Ar
410 410 1 0.0 632.5700638761684 1166.8568807072486 924.7085507945319 # Ar
411 411 1 0.0 134.3764778688571 269.55162018075833 292.27243507792707 # Ar
412 412 1 0.0 1295.1423536592677 816.6537323839974 696.7609613617121 # Ar
413 413 1 0.0 1085.3456424812057 1119.0366559609452 403.22142130642476 # Ar
414 414 1 0.0 609.0337126006939 602.6377653748181 1069.0749984320464 # Ar
415 415 1 0.0 17.517956517096074 308.19901266099123 919.6999325332433 # Ar
416 416 1 0.0 528.1778231136651 1276.4676048078225 421.37327232196054 # Ar
417 417 1 0.0 969.6266666996877 1002.6066906853133 372.6027901588186 # Ar
418 418 1 0.0 1203.6408615760224 949.9207166842854 1002.8034099846218 # Ar
419 419 1 0.0 57.40345791283317 939.7062412608907 538.6855413464167 # Ar
420 420 1 0.0 480.14300153152857 40.94544798468056 1019.546893125732 # Ar
421 421 1 0.0 152.06705876914623 491.98279688284146 316.1926849408779 # Ar
422 422 1 0.0 92.18714842762196 1081.5501771328939 161.00529292234395 # Ar
423 423 1 0.0 683.5903262785433 1120.1780119481627 236.50318705979834 # Ar
424 424 1 0.0 928.4171275123373 514.7125379756326 755.9158866476148 # Ar
425 425 1 0.0 998.9648812895548 140.0532112929519 1008.1640391615316 # Ar
426 426 1 0.0 1011.1565872681813 840.6238062616195 475.7855983009817 # Ar
427 427 1 0.0 793.3654289221546 1283.7602590639951 295.6431349350429 # Ar
428 428 1 0.0 1278.7529835269202 338.2793591248309 1111.0489371734877 # Ar
429 429 1 0.0 329.447824275413 449.393811021732 424.0154728904611 # Ar
430 430 1 0.0 1148.8594048282994 1046.484718138749 96.52774406219925 # Ar
431 431 1 0.0 771.186079455365 99.77472848061404 296.55609996990086 # Ar
432 432 1 0.0 966.6763152579812 302.87576664222655 458.6477029895967 # Ar
433 433 1 0.0 550.8038855601574 814.1286580605884 725.2111525675008 # Ar
434 434 1 0.0 1088.7364057512048 887.7079046909926 118.78548144551169 # Ar
435 435 1 0.0 76.10425054428381 924.0816778127482 253.9534917413837 # Ar
436 436 1 0.0 529.0539638084061 1159.2246391378628 816.4484209851603 # Ar
437 437 1 0.0 1062.3730783833582 1089.7431165519615 563.6422474542271 # Ar
438 438 1 0.0 967.9509405014745 427.55938619025227 645.2723444611576 # Ar
439 439 1 0.0 923.3159802041915 1084.161899913421 1210.0431392860705 # Ar
440 440 1 0.0 381.55443724843286 578.7745137399381 549.6101516077798 # Ar
441 441 1 0.0 1134.1934868192038 765.0023216227531 106.44448889726958 # Ar
442 442 1 0.0 38.26290193761114 277.88486016026854 493.59613381120363 # Ar
443 443 1 0.0 74.99769307089811 995.8464884768647 884.637962480908 # Ar
444 444 1 0.0 389.5545968011733 892.9961891678969 1129.2760019136767 # Ar
445 445 1 0.0 1157.1166898213123 1002.6722109018672 80.25365765361205 # Ar
446 446 1 0.0 399.6758868238804 138.7200476441654 1204.481575860961 # Ar
447 447 1 0.0 1241.061730491483 891.8723933617374 686.2041910261025 # Ar
448 448 1 0.0 760.8066995775807 728.8608678170087 619.3537177793318 # Ar
449 449 1 0.0 463.4107624318181 783.9619621684749 586.3783631537215 # Ar
450 450 1 0.0 689.477766498617 1218.1671764307134 840.2543065365414 # Ar
451 451 1 0.0 633.1119581297098 1286.015551205599 337.3922406108677 # Ar
452 452 1 0.0 1224.4210562219512 529.7920392517143 349.20009439481544 # Ar
453 453 1 0.0 1111.7969459317308 838.0054953602644 346.47650935697317 # Ar
454 454 1 0.0 914.8373965498444 480.11587809360606 406.6155029087675 # Ar
455 455 1 0.0 632.7737748851328 1244.2967434020181 1172.0350170547824 # Ar
456 456 1 0.0 884.2086473921552 780.7152979917694 1111.422457845589 # Ar
457 457 1 0.0 198.277244815886 1064.8107170833819 1146.5376164236548 # Ar
458 458 1 0.0 78.1870732353605 607.9142953104715 900.6149923177311 # Ar
459 459 1 0.0 169.42866700932277 704.5858156267809 663.5724733980389 # Ar
460 460 1 0.0 903.3192555157264 44.23620218921071 1152.5368686012441 # Ar
461 461 1 0.0 696.0002059921679 270.30356250037136 745.997112572215 # Ar
462 462 1 0.0 665.8199370961622 842.6627121612158 157.29293159945806 # Ar
463 463 1 0.0 1063.6897869262518 1030.994249867873 284.28126776836615 # Ar
464 464 1 0.0 816.3608254115284 658.0262217172725 1206.1853277634787 # Ar
465 465 1 0.0 20.516761249495822 205.3053940818052 527.0243015519433 # Ar
466 466 1 0.0 635.924784479752 708.5250974502484 910.2899325348052 # Ar
467 467 1 0.0 639.5491471671751 661.8500860168896 246.39802040345785 # Ar
468 468 1 0.0 552.1461285838664 665.8655936676465 933.2650078291572 # Ar
469 469 1 0.0 140.29358474066973 557.683658171771 96.88602075106736 # Ar
470 470 1 0.0 1270.3962462657698 1101.8498329929007 1152.3348640733427 # Ar
471 471 1 0.0 1260.602517376533 1184.844991345139 1161.6631659130865 # Ar
472 472 1 0.0 874.0342081079494 1086.4407851041533 1295.48658791676 # Ar
473 473 1 0.0 1017.4179242327377 165.78891972524772 170.63668184881212 # Ar
474 474 1 0.0 562.0194538542714 569.3010284388632 132.65383545119738 # Ar
475 475 1 0.0 1058.358513394929 426.6290980905444 265.7247540860164 # Ar
476 476 1 0.0 378.9597330713251 556.0793348514968 1060.729662658492 # Ar
477 477 1 0.0 3.3415837633043677 474.34398924523845 846.7642318167099 # Ar
478 478 1 0.0 201.0607536219491 988.352669486887 1121.823995467826 # Ar
479 479 1 0.0 976.1257277027996 693.489306494911 1234.4907845665095 # Ar
480 480 1 0.0 39.177167018930895 1276.0770312222908 717.3014543600879 # Ar
481 481 1 0.0 250.024056327704 902.4817610452155 819.937992758695 # Ar
482 482 1 0.0 983.5455814102106 1019.0836785344995 988.589677522449 # Ar
483 483 1 0.0 244.1675625849696 1007.336401525106 738.0787847034019 # Ar
484 484 1 0.0 79.05141896604702 939.7440576786215 598.2712446006366 # Ar
485 485 1 0.0 205.0564513328763 163.58044677973766 700.9774336931606 # Ar
486 486 1 0.0 270.7848085320899 14.146396075448855 230.08785471465018 # Ar
487 487 1 0.0 984.391131065862 1212.0050897496792 313.0427854134586 # Ar
488 488 1 0.0 1155.7802089518032 420.6778498551763 727.3049042586498 # Ar
489 489 1 0.0 331.3135814596911 994.3676891623879 688.0802629560246 # Ar
490 490 1 0.0 1003.7197918003565 201.5365070513383 824.6842604851674 # Ar
491 491 1 0.0 329.74645176865124 830.3485010222744 612.8211988358311 # Ar
492 492 1 0.0 512.783887074511 402.7861217154246 535.2669481977383 # Ar
493 493 1 0.0 794.5673036249423 1213.833063576323 585.0242215945522 # Ar
494 494 1 0.0 985.5942922015513 704.2477406946751 804.5411099631683 # Ar
495 495 1 0.0 469.94190597263247 1013.1450655831319 451.033024337249 # Ar
496 496 1 0.0 85.37666294016502 1238.8573287848683 727.8330893874974 # Ar
497 497 1 0.0 1268.4133768140507 235.83079334007678 316.9583583785757 # Ar
498 498 1 0.0 122.96237104766871 303.05535020973764 673.908136468566 # Ar
499 499 1 0.0 603.7134259508144 158.03521057953324 691.8336560419278 # Ar
500 500 1 0.0 854.0892661456725 1169.00378100749 1262.8978357139208 # Ar
501 501 1 0.0 442.36207282504637 625.8545582826272 100.35842737766474 # Ar
502 502 1 0.0 122.32801613293925 584.0138648387813 244.9458499226169 # Ar
503 503 1 0.0 149.6774089489623 732.285047781046 43.32900927369023 # Ar
504 504 1 0.0 31.331954396543942 220.7398388488356 453.4919329297709 # Ar
505 505 1 0.0 1193.5556094524334 278.9329906228161 876.7106470634097 # Ar
506 506 1 0.0 259.63392285915836 289.3879231539216 148.76487293990579 # Ar
507 507 1 0.0 237.54305748146442 1248.9485244332193 1187.3314763189221 # Ar
508 508 1 0.0 644.7282276831334 464.74501680567073 680.5599965965283 # Ar
509 509 1 0.0 421.4714752055619 22.21093154953506 1119.025940435851 # Ar
510 510 1 0.0 113.7924987550271 454.50747695021374 1170.4301742106063 # Ar
511 511 1 0.0 1143.973503926377 1137.8957975274566 89.82137550020848 # Ar
512 512 1 0.0 656.3552919961071 289.7452742501523 1105.2526694047008 # Ar
513 513 1 0.0 1087.6373647353373 1145.2431594094408 91.1420288121315 # Ar
514 514 1 0.0 47.03717993409375 469.77079704051795 535.3059775388372 # Ar
515 515 1 0.0 212.5921787121729 106.1523824932743 585.3797375887992 # Ar
516 516 1 0.0 417.9136051521464 612.6081147921755 94.95950436227189 # Ar
517 517 1 0.0 557.6341949470545 379.18418398775583 567.377599327275 # Ar
518 518 1 0.0 684.3417582093043 312.1453963155074 400.62545839084794 # Ar
519 519 1 0.0 658.9046274420567 1061.1822388590772 715.4334631269214 # Ar
520 520 1 0.0 48.49803740192849 437.33663503280627 747.0683132292824 # Ar
521 521 1 0.0 427.19631741204483 592.3693962164497 825.4857905077505 # Ar
522 522 1 0.0 931.0079665994884 754.1486402811374 54.28993834340907 # Ar
523 523 1 0.0 737.8454795208243 908.3620784238707 1176.7200611930975 # Ar
524 524 1 0.0 288.9604717686287 423.53318633399977 29.334889586804472 # Ar
525 525 1 0.0 200.51324115225358 978.7462852568067 945.3043154581342 # Ar
526 526 1 0.0 729.321188289058 430.0398688672614 71.04218148618072 # Ar
527 527 1 0.0 130.2648827071066 1156.6691610611326 1072.8122760433864 # Ar
528 528 1 0.0 5.3746962160026515 771.4372853744853 1062.6342989155432 # Ar
529 529 1 0.0 945.1924393768411 714.0770516402839 429.6596922136667 # Ar
530 530 1 0.0 66.83496547496672 592.6227923504047 240.46643430170894 # Ar
531 531 1 0.0 506.84668628472207 1017.3343131722529 76.66328478876434 # Ar
532 532 1 0.0 784.2091704665141 657.628686861644 858.2538582925355 # Ar
533 533 1 0.0 7.829928722778909 231.3266334416249 742.361477099433 # Ar
534 534 1 0.0 304.12749027153563 1236.2054941965876 911.738417218767 # Ar
535 535 1 0.0 1188.4702920721272 1075.9593425222934 228.72125541494194 # Ar
536 536 1 0.0 985.8498124346012 8.858590104119756 509.5318977524911 # Ar
537 537 1 0.0 657.8193417568904 665.5488419280831 81.32174167789194 # Ar
538 538 1 0.0 15.719874336532412 1293.9653772522881 1261.057070775282 # Ar
539 539 1 0.0 1097.7793515391454 1209.2854277590347 712.1055353005472 # Ar
540 540 1 0.0 1135.112021940271 916.1140572283077 93.42382687067439 # Ar
541 541 1 0.0 572.0266102589574 658.6926504453158 588.9676130461868 # Ar
542 542 1 0.0 600.1945049738173 62.4018732787581 1047.0374175793845 # Ar
543 543 1 0.0 1173.673492802942 355.67509555002954 1198.7063271700342 # Ar
544 544 1 0.0 1295.78125044019 597.2639719975036 6.627052547041215 # Ar
545 545 1 0.0 6.956011179825293 45.4738582279778 1260.3513160009265 # Ar
546 546 1 0.0 941.1304249875525 862.7404146248758 269.617923990102 # Ar
547 547 1 0.0 970.247679996753 1077.373615844587 1239.271034406609 # Ar
548 548 1 0.0 1237.305989370939 506.0381516190483 690.4600765419302 # Ar
549 549 1 0.0 638.8880485360627 597.2720669973548 321.4716773543914 # Ar
550 550 1 0.0 833.6545736955529 387.0294637790372 229.07328467545443 # Ar
551 551 1 0.0 998.368019502011 313.4509408439251 953.7305622794181 # Ar
552 552 1 0.0 320.5410125458322 632.5185213664078 291.3917252557773 # Ar
553 553 1 0.0 319.4345610106623 750.4809369321525 1167.1491783739543 # Ar
554 554 1 0.0 745.4247031220383 1105.7243829545596 255.1818437668376 # Ar
555 555 1 0.0 944.97170646192 605.6657718372019 201.3401890410074 # Ar
556 556 1 0.0 631.8312051877607 896.6286364559734 458.39982016927223 # Ar
557 557 1 0.0 676.5857692147695 597.0133716528529 570.1873073189676 # Ar
558 558 1 0.0 65.22219541031811 37.4923130819011 301.2432621283864 # Ar
559 559 1 0.0 70.97445412625049 1043.3107002364136 1039.188267811102 # Ar
560 560 1 0.0 93.39644532731256 221.79413854101628 555.5499689031512 # Ar
561 561 1 0.0 66.10509839151914 158.86665936818594 30.10291279426664 # Ar
562 562 1 0.0 852.5744559173086 662.2566266030012 602.3708348072415 # Ar
563 563 1 0.0 977.0375169204285 1286.7320055992536 1037.715089300007 # Ar
564 564 1 0.0 1166.6858161048413 341.0008998331451 483.68880257425593 # Ar
565 565 1 0.0 199.62284161201524 162.0288046556774 735.4135587171297 # Ar
566 566 1 0.0 104.9971697848633 661.7494628087287 422.5668983595169 # Ar
567 567 1 0.0 824.5138170681096 1163.1678458944086 1067.5666381259875 # Ar
568 568 1 0.0 984.2804958836493 88.29006536399334 656.1841542766966 # Ar
569 569 1 0.0 1188.3529807057087 711.4841022399767 1131.9307111345333 # Ar
570 570 1 0.0 1182.199374096014 866.7248283546348 1238.3472932198351 # Ar
571 571 1 0.0 236.70428684043327 576.3774964725809 836.5261644377923 # Ar
572 572 1 0.0 357.77576261768075 91.92530294757972 690.38614874273 # Ar
573 573 1 0.0 381.98991461404574 979.5856117523641 174.72040911213537 # Ar
574 574 1 0.0 1135.935850914894 145.24559064719372 861.1535696391414 # Ar
575 575 1 0.0 775.3394868220302 296.1061711832306 398.2103249532537 # Ar
576 576 1 0.0 187.46751403331047 373.663789055313 1266.973567517332 # Ar
577 577 1 0.0 901.3604043433161 943.7393221774358 453.2250435301087 # Ar
578 578 1 0.0 1165.2374223988907 1175.1942894920774 1230.9496914862304 # Ar
579 579 1 0.0 1057.8938428825352 953.3281791483683 854.1153122526109 # Ar
580 580 1 0.0 632.9624041641284 227.44554222271998 358.9674939647966 # Ar
581 581 1 0.0 202.39124700266467 783.0347789951946 978.6246445507285 # Ar
582 582 1 0.0 852.2637288422181 280.2298634753394 808.0713553158936 # Ar
583 583 1 0.0 756.549001467592 644.966688968207 10.580360023278274 # Ar
584 584 1 0.0 96.49852814135554 416.0747058758158 1062.034556179155 # Ar
585 585 1 0.0 412.569279072399 1220.2072230228052 1013.8383034085916 # Ar
586 586 1 0.0 1156.7058483450617 608.1856263501545 829.4671415572544 # Ar
587 587 1 0.0 579.3705053829741 863.7944772125209 179.28697143995092 # Ar
588 588 1 0.0 550.4734973081877 472.0109420589985 1289.827833765022 # Ar
589 589 1 0.0 431.05907441796285 691.8021306814479 961.4339062352818 # Ar
590 590 1 0.0 412.1626633969044 277.69164668649955 657.3643707077953 # Ar
591 591 1 0.0 168.84742437080263 1172.3999240387602 775.4766638530516 # Ar
592 592 1 0.0 542.1964993591448 364.15330513787103 293.33143602460785 # Ar
593 593 1 0.0 374.5129605979048 699.6310242570181 2.91456750380399 # Ar
594 594 1 0.0 346.8042911359928 328.2805758610372 1171.7516766775677 # Ar
595 595 1 0.0 212.6895182184457 325.2011491103064 676.8892528404747 # Ar
596 596 1 0.0 1232.8964272761023 467.43135477323057 562.2089313041683 # Ar
597 597 1 0.0 153.4654033461109 526.7352214062142 286.54049499512394 # Ar
598 598 1 0.0 314.0960916309682 1066.6996965975652 127.85899032899826 # Ar
599 599 1 0.0 746.4119568294553 687.0534186707689 993.3053746541997 # Ar
600 600 1 0.0 507.5183603103777 217.16738764791452 640.2459664553562 # Ar
601 601 1 0.0 365.0866506204908 125.44342238415965 1137.7294544008766 # Ar
602 602 1 0.0 41.74063149279597 1167.665674763251 1108.8272893207356 # Ar
603 603 1 0.0 293.4231867643945 538.8490693672976 66.25573796723812 # Ar
604 604 1 0.0 257.58390774610984 375.2695846386247 568.6822783452127 # Ar
605 605 1 0.0 802.2248890916818 1014.6793617428452 1118.0557720456611 # Ar
606 606 1 0.0 258.2195161711267 945.5597618552254 1066.6490343548414 # Ar
607 607 1 0.0 509.9586597465678 684.0952095832091 1057.3187962938728 # Ar
608 608 1 0.0 181.24073334123133 256.01005288354054 306.332322323982 # Ar
609 609 1 0.0 762.5293656721007 1015.1372773847388 210.00418371221465 # Ar
610 610 1 0.0 596.0031609423866 803.0812879781986 1265.232260036153 # Ar
611 611 1 0.0 464.91072077891573 345.99438856956067 977.672107984731 # Ar
612 612 1 0.0 719.3787114642666 977.9617554060723 505.95580344972035 # Ar
613 613 1 0.0 756.4097839515147 989.7891878221646 1228.181668832358 # Ar
614 614 1 0.0 908.8005627990161 1092.2439719303268 167.58931802834906 # Ar
615 615 1 0.0 875.1613807795256 295.4162064418132 542.9012746324892 # Ar
616 616 1 0.0 836.4993533620575 455.7716448261785 801.7350117066055 # Ar
617 617 1 0.0 524.538550897746 1091.374067061018 1225.1353563439889 # Ar
618 618 1 0.0 1271.9820809258908 154.57716426097176 764.7472793224536 # Ar
619 619 1 0.0 980.2901952162902 392.29914682590663 392.1206497542521 # Ar
620 620 1 0.0 417.2256894087972 1050.9948262232674 953.0004621853006 # Ar
621 621 1 0.0 1027.5472256805574 997.4813679586516 139.26572544947416 # Ar
622 622 1 0.0 391.3391706101035 398.4067086095572 491.71058097647773 # Ar
623 623 1 0.0 519.9984205358122 126.28609387849116 521.4861628024488 # Ar
624 624 1 0.0 452.3450912731266 892.209311583678 834.5283123542963 # Ar
625 625 1 0.0 1112.8480354947176 960.9505748567103 918.7188893452819 # Ar
626 626 1 0.0 92.64646326268596 226.47955998677077 1069.238120710374 # Ar
627 627 1 0.0 928.4297402975532 860.3818270851838 1023.8816169216262 # Ar
628 628 1 0.0 856.6428251450427 832.4722242461648 1069.4763227406202 # Ar
629 629 1 0.0 365.42891484976724 1193.5399356244718 1083.3592403391724 # Ar
630 630 1 0.0 249.79996290578458 69.39144231928259 1222.120749011651 # Ar
631 631 1 0.0 1115.8724634840432 848.3746175229126 308.47301806223953 # Ar
632 632 1 0.0 930.0196177768964 342.43442314055426 561.1178476731891 # Ar
633 633 1 0.0 455.98529223204986 1198.8480646268574 442.96047735403874 # Ar
634 634 1 0.0 83.40201566188762 980.318891187183 428.9559331500917 # Ar
635 635 1 0.0 899.6650618924112 720.4123406744812 1085.8368015978992 # Ar
636 636 1 0.0 827.5090764292427 120.83795261534233 1034.6499829143943 # Ar
637 637 1 0.0 1232.3128153365835 633.9471379934727 668.9700556289613 # Ar
638 638 1 0.0 1081.1579871680913 937.5449645736201 415.53642578912616 # Ar
639 639 1 0.0 272.74112011208626 523.6740919024159 750.5672912476539 # Ar
640 640 1 0.0 95.8353514748307 962.6991939997101 399.79707112804795 # Ar
641 641 1 0.0 346.2533404602268 737.4503997627264 735.0215319997506 # Ar
642 642 1 0.0 686.6401830553827 1.3641717083076155 575.5250656664643 # Ar
643 643 1 0.0 531.4739351560152 1272.1207700013965 761.7275387260846 # Ar
644 644 1 0.0 863.6582230383999 479.28766485490934 261.6783444821051 # Ar
645 645 1 0.0 787.601551143956 458.0474513333051 226.02885522614235 # Ar
646 646 1 0.0 773.6593005597639 830.7539258027184 806.1838021557915 # Ar
647 647 1 0.0 778.760411662378 577.1967192697067 296.6697264248394 # Ar
648 648 1 0.0 570.2717853878581 962.8056569845733 783.2424311049383 # Ar
649 649 1 0.0 396.78133264721276 1122.7754215774978 384.02516536114075 # Ar
650 650 1 0.0 802.5270424988857 141.52612016107747 992.9137430859577 # Ar
651 651 1 0.0 1156.9575704454608 464.84304705017234 919.4009988053024 # Ar
652 652 1 0.0 353.3413178074941 1171.20883341109 12.756210328313056 # Ar
653 653 1 0.0 547.487706963767 721.599629283459 680.8909312649649 # Ar
654 654 1 0.0 773.2102787346669 1173.624074992687 1145.369186813738 # Ar
655 655 1 0.0 872.0498185840295 987.5357413250503 1223.4881311001348 # Ar
656 656 1 0.0 477.6522392810086 751.0333787477614 639.7194871677472 # Ar
657 657 1 0.0 92.65614968429665 355.3142393637346 564.2468315615072 # Ar
658 658 1 0.0 919.9541082488513 425.06280472262716 658.5310989569259 # Ar
659 659 1 0.0 1130.2121247790897 163.8901519892976 823.5358977489518 # Ar
660 660 1 0.0 571.4893638867658 1271.3412797199421 404.8298399833087 # Ar
661 661 1 0.0 545.8940702553527 817.1841156048438 114.86726819539898 # Ar
662 662 1 0.0 1234.0426364812345 995.5439035321368 940.8916062190697 # Ar
663 663 1 0.0 735.906784813613 1269.4912289107072 1145.3769688785158 # Ar
664 664 1 0.0 7.908490343288779 1031.5864852450586 985.8693030437089 # Ar
665 665 1 0.0 925.232195524803 240.87092450232942 868.8690693799854 # Ar
666 666 1 0.0 1169.4261692174468 563.576165503674 85.04987864092112 # Ar
667 667 1 0.0 235.82961630304447 108.93236424402492 696.8220456227393 # Ar
668 668 1 0.0 93.18059182558969 1090.995846810702 652.8197548076729 # Ar
669 669 1 0.0 435.16230142504236 734.2511054824092 752.5028740900113 # Ar
670 670 1 0.0 1276.0056676311692 573.3304415910612 760.0757794387397 # Ar
671 671 1 0.0 1153.4733431192826 788.5572224513987 765.4357856799421 # Ar
672 672 1 0.0 354.40288557892256 444.2547610524491 812.0785180294098 # Ar
673 673 1 0.0 35.50245843893533 850.7921737769475 941.2976491184568 # Ar
674 674 1 0.0 541.5382798207701 137.60123317993217 435.11007749877956 # Ar
675 675 1 0.0 1176.805504157744 75.88484166645256 154.45973725621087 # Ar
676 676 1 0.0 872.013220973311 857.1106082968639 967.2903522792489 # Ar
677 677 1 0.0 621.6855912909259 128.7577299198041 1256.236796958518 # Ar
678 678 1 0.0 293.77085898134425 1103.4265799579339 506.15861279061437 # Ar
679 679 1 0.0 486.4373197823634 150.06494774928595 488.28030705900983 # Ar
680 680 1 0.0 224.72799855716937 982.9689003604883 533.1232699802082 # Ar
681 681 1 0.0 673.5619127475182 1214.4151163474226 1273.8265002069095 # Ar
682 682 1 0.0 1215.6595899470237 70.41959253713574 1174.0533610756706 # Ar
683 683 1 0.0 500.4017189662622 1272.4076739804518 1259.1013762885898 # Ar
684 684 1 0.0 20.076055405697872 256.7048503760904 544.2717201014825 # Ar
685 685 1 0.0 1007.8424908255012 1287.9345468982597 1225.688400255619 # Ar
686 686 1 0.0 995.8767191827898 83.37205180621835 86.53495618722819 # Ar
687 687 1 0.0 1264.1221862987927 60.785174776801774 24.610508865692758 # Ar
688 688 1 0.0 1195.9726140071596 580.738341311669 853.261427728411 # Ar
689 689 1 0.0 108.03258037442544 1080.902807894193 268.53739705762183 # Ar
690 690 1 0.0 739.759359113473 686.8248781740133 897.1672966260952 # Ar
691 691 1 0.0 768.1203073483889 439.1235450184332 198.27335168822586 # Ar
692 692 1 0.0 571.6210257837851 188.85710998578122 120.19756290491821 # Ar
693 693 1 0.0 193.82177658458974 777.9429052160383 36.93712446385779 # Ar
694 694 1 0.0 27.02056102923669 345.77453087992 451.139360026887 # Ar
695 695 1 0.0 410.0097347225009 1274.451697812212 456.3697601424792 # Ar
696 696 1 0.0 117.15919985876884 101.292790026459 331.1932367089969 # Ar
697 697 1 0.0 216.96226944783726 57.61192494106015 105.42599280495493 # Ar
698 698 1 0.0 1075.1809578488158 891.1638411215635 976.5126891092685 # Ar
699 699 1 0.0 564.6948064606964 31.66921981391271 1274.828451054367 # Ar
700 700 1 0.0 216.88440854257695 411.8898880008774 571.8119427872617 # Ar
701 701 1 0.0 464.142002841533 787.0294919426709 57.362044834399946 # Ar
702 702 1 0.0 699.5632779154939 84.15934825956991 658.6801063819357 # Ar
703 703 1 0.0 397.398203383057 297.6038940066308 404.68764696963495 # Ar
704 704 1 0.0 1087.8107850547176 13.957566093073202 1149.2053148138657 # Ar
705 705 1 0.0 418.6631025126085 529.5711148161764 774.6171524806958 # Ar
706 706 1 0.0 18.702400930041307 688.2882047484794 1037.478939769087 # Ar
707 707 1 0.0 446.5164851292187 789.7292688818727 109.0407503592705 # Ar
708 708 1 0.0 918.823450743181 1293.4054399727345 142.60840182674124 # Ar
709 709 1 0.0 1211.6562309468222 101.28792637775551 85.24961428209077 # Ar
710 710 1 0.0 1058.4514992252682 700.7175346596001 70.97423772431094 # Ar
711 711 1 0.0 558.8149953745046 203.64665546699504 951.6215699023919 # Ar
712 712 1 0.0 169.32770501433222 348.6711866282943 1107.5341207182887 # Ar
713 713 1 0.0 737.7031195610233 566.4461621063207 10.27543846374002 # Ar
714 714 1 0.0 28.318897694253735 475.8088576190459 1151.874005493104 # Ar
715 715 1 0.0 692.1313247408606 42.42173367435684 61.62248721275897 # Ar
716 716 1 0.0 1234.2362638581467 474.2314128349167 280.93004733411766 # Ar
717 717 1 0.0 395.8229196905531 750.8035651040208 897.1195215652815 # Ar
718 718 1 0.0 503.36090401991504 481.38241679645193 280.7384036263239 # Ar
719 719 1 0.0 465.7060400407662 955.9055783463591 1034.7603078516834 # Ar
720 720 1 0.0 254.16300014848252 41.670346040062036 450.77297321327273 # Ar
721 721 1 0.0 1281.7918387412512 923.7609271075385 551.381499192958 # Ar
722 722 1 0.0 663.5307342897022 839.5887610174733 884.6488678737375 # Ar
723 723 1 0.0 767.1069419362394 765.8669410389595 94.69406947304623 # Ar
724 724 1 0.0 265.775266364644 1117.5654513204443 290.1098624304073 # Ar
725 725 1 0.0 800.5602783585157 620.7292425031322 399.4607763260621 # Ar
726 726 1 0.0 352.45939063583984 779.9617760688426 151.30366560967926 # Ar
727 727 1 0.0 324.6522874320709 61.19225884604764 1077.9070963008683 # Ar
728 728 1 0.0 566.8384333322522 584.6924934949989 1159.320074354212 # Ar
729 729 1 0.0 522.137660116091 1040.5096525000513 1035.103672866736 # Ar
730 730 1 0.0 479.5856154241112 1234.6537734877543 858.8050622353925 # Ar
731 731 1 0.0 368.2868904970738 194.69739285124717 9.724995688142515 # Ar
732 732 1 0.0 217.70839431893137 789.8265385406925 661.330834583244 # Ar
733 733 1 0.0 215.12062883455695 259.09415793197917 869.8414101287635 # Ar
734 734 1 0.0 69.53522277732647 851.9315743085207 1114.5644901250603 # Ar
735 735 1 0.0 1288.880683123439 1058.330607961789 824.1797827143062 # Ar
736 736 1 0.0 24.136895578909623 933.2658957688976 880.3989796656798 # Ar
737 737 1 0.0 894.3086815376365 758.5013269870159 924.624778975786 # Ar
738 738 1 0.0 1261.870516274011 689.3314612542836 1103.144391412266 # Ar
739 739 1 0.0 1080.5572044312587 47.84605599030409 225.16760337723792 # Ar
740 740 1 0.0 30.793461145072065 3.635357619470326 446.0647165488198 # Ar
741 741 1 0.0 574.9477500558992 792.1542754891145 995.0549825747299 # Ar
742 742 1 0.0 293.6857831467349 168.16697861916333 236.0543873845777 # Ar
743 743 1 0.0 514.2388119970985 939.885598649955 746.0669206681953 # Ar
744 744 1 0.0 667.4835613615473 387.69351255948675 234.79948974091687 # Ar
745 745 1 0.0 898.8172420294659 285.8295783997506 1201.7580797946343 # Ar
746 746 1 0.0 1006.8064992913477 801.8404283453091 432.21470383728126 # Ar
747 747 1 0.0 529.6383932054835 234.8982666192498 591.3820079358634 # Ar
748 748 1 0.0 1114.0684673671844 246.818579101057 80.55828736041492 # Ar
749 749 1 0.0 497.5929265333804 869.4355993210976 1291.9793252169202 # Ar
750 750 1 0.0 1028.2336245589654 493.91858728577785 428.36069231899637 # Ar
751 751 1 0.0 594.121707854497 174.613897613604 831.4475230215793 # Ar
752 752 1 0.0 725.5843872235961 484.74176886357094 828.1554172394021 # Ar
753 753 1 0.0 1206.782396651256 390.4087890720539 790.796074827911 # Ar
754 754 1 0.0 201.92265567807357 257.5752437131561 306.1172900810056 # Ar
755 755 1 0.0 584.2343415824979 640.9703395532982 594.9776965464004 # Ar
756 756 1 0.0 802.6272355247327 700.9440131045732 406.1250519489742 # Ar
757 757 1 0.0 603.0637172848407 336.75664417435866 635.048931600274 # Ar
758 758 1 0.0 1169.8494024375098 813.9422948538595 890.5119934808056 # Ar
759 759 1 0.0 931.843490380546 1240.0618208419032 379.83416076558194 # Ar
760 760 1 0.0 1244.0994785309244 650.619581599555 114.11156022438539 # Ar
761 761 1 0.0 310.42249660695063 749.7386526044561 321.1565835435055 # Ar
762 762 1 0.0 17.461051364249087 446.7764731017659 9.31636705350748 # Ar
763 763 1 0.0 1268.0196998533618 1156.3762839359404 1238.7879519744333 # Ar
764 764 1 0.0 1022.8196159264977 111.09268795599257 1110.1732340172082 # Ar
765 765 1 0.0 420.3923129047682 901.9352017268035 877.3497958896279 # Ar
766 766 1 0.0 798.4336720511071 812.2473430250332 576.9253476301981 # Ar
767 767 1 0.0 934.6371777983602 387.9917803185844 869.3027195240411 # Ar
768 768 1 0.0 757.1391813928246 1263.6682969191936 1152.3666947282227 # Ar
769 769 1 0.0 901.109313066724 1133.108456491416 75.94252501715941 # Ar
770 770 1 0.0 314.55003995228265 435.41260066191563 849.4264532942898 # Ar
771 771 1 0.0 895.8237620108778 291.7293237641783 566.2124885836928 # Ar
772 772 1 0.0 733.0329783127046 694.3419604276272 436.0274245200345 # Ar
773 773 1 0.0 46.14562252517872 336.74836892194935 1284.6177561242966 # Ar
774 774 1 0.0 1144.9089176484229 1258.6088245302833 1049.9976762845442 # Ar
775 775 1 0.0 1007.9386939237768 59.98857065522315 396.31860203904563 # Ar
776 776 1 0.0 325.8320909257113 834.5951902589536 769.2698793402265 # Ar
777 777 1 0.0 20.17533131577445 641.1329066345041 1065.352020785211 # Ar
778 778 1 0.0 807.649685063294 505.8151168354627 267.7317920090667 # Ar
779 779 1 0.0 633.5124019503153 936.1296360843152 565.7978706242575 # Ar
780 780 1 0.0 1119.7125273790148 184.49644916714422 545.4956796257975 # Ar
781 781 1 0.0 621.2155557719456 1219.5326081844707 871.0592060755165 # Ar
782 782 1 0.0 1167.5314968766154 974.2780701460629 1156.059550353181 # Ar
783 783 1 0.0 286.60063492862724 262.83786946332435 677.9667075252403 # Ar
784 784 1 0.0 793.030497251283 289.66994191316303 509.51818301987925 # Ar
785 785 1 0.0 488.80869659164404 653.1266891730023 1236.0357407908123 # Ar
786 786 1 0.0 968.0796649435719 623.3430652327561 149.29663922726374 # Ar
787 787 1 0.0 1009.637350837685 1001.2350288082381 549.6024353833421 # Ar
788 788 1 0.0 745.9059331091177 74.80498118521766 664.6243180286813 # Ar
789 789 1 0.0 948.978558601093 784.9078047591913 1037.6571704953835 # Ar
790 790 1 0.0 760.8990146301816 729.1936620148148 993.3079100207734 # Ar
791 791 1 0.0 1038.0617377889814 1201.7077518041542 117.79658303151763 # Ar
792 792 1 0.0 1.0440890161631022 70.46929810859098 129.38451502146742 # Ar
793 793 1 0.0 437.67609709678874 561.0725462626494 903.9141936129619 # Ar
794 794 1 0.0 370.1154719506907 824.2099648160481 638.9590683175419 # Ar
795 795 1 0.0 564.9073069213249 645.5758014412627 1013.9294207260948 # Ar
796 796 1 0.0 685.3307412000844 1073.6353554640573 127.74234259019585 # Ar
797 797 1 0.0 381.6988736340459 1234.3836496020376 303.8406773553913 # Ar
798 798 1 0.0 97.90298075767558 543.4101085921583 999.12013415471 # Ar
799 799 1 0.0 0.09827778738584936 556.0266346204077 885.0244616697778 # Ar
800 800 1 0.0 15.666546937856262 68.8158804890287 751.5237922889073 # Ar
801 801 1 0.0 1148.4172814185656 252.670314755729 54.67657237542105 # Ar
802 802 1 0.0 751.8244809409777 548.3015232850007 494.683598696253 # Ar
803 803 1 0.0 1009.5244581123972 562.8514939984691 1048.8543221561567 # Ar
804 804 1 0.0 150.61837661816574 1023.354257292856 379.320138358662 # Ar
805 805 1 0.0 303.05454639532485 1282.1620770888173 574.292589567598 # Ar
806 806 1 0.0 526.4243888993968 185.49421298985368 516.8667213098589 # Ar
807 807 1 0.0 38.490474803567125 1021.6223141141472 971.4270031118914 # Ar
808 808 1 0.0 784.3129362642785 546.2377851133908 1252.0208503724998 # Ar
809 809 1 0.0 600.2866080322674 664.5699198768303 1162.664988741086 # Ar
810 810 1 0.0 673.6115284564735 1283.49371974709 737.9520759268884 # Ar
811 811 1 0.0 215.10603952652022 971.9400655071141 1180.4269149410386 # Ar
812 812 1 0.0 518.3066452001797 512.6445931987122 863.0020563623478 # Ar
813 813 1 0.0 1193.985600744131 262.96898095412365 399.8387317597999 # Ar
814 814 1 0.0 1136.392388809102 57.058088670896986 51.6888685097829 # Ar
815 815 1 0.0 88.64347557736362 328.8919352688739 1023.5805426852797 # Ar
816 816 1 0.0 379.1499688795172 203.24838211326266 612.8599570736973 # Ar
817 817 1 0.0 1060.4357238896305 652.9891210880224 1175.271274135721 # Ar
818 818 1 0.0 1145.3334900899645 168.96109236164793 423.75335447266116 # Ar
819 819 1 0.0 1112.0702194718656 1214.8800267794138 149.89768693043754 # Ar
820 820 1 0.0 558.6037972550107 87.22660145659677 1036.511757092966 # Ar
821 821 1 0.0 362.0260291311767 811.9338457529659 204.57574372527634 # Ar
822 822 1 0.0 278.93744707548626 15.491042437480683 752.1451288755417 # Ar
823 823 1 0.0 672.6639551163311 862.4969334115414 760.7957405858767 # Ar
824 824 1 0.0 753.8683415103535 346.81853359311776 458.8574815200971 # Ar
825 825 1 0.0 432.78841787884943 1052.5239168072876 894.8439443650265 # Ar
826 826 1 0.0 1063.0957100734574 608.5620159033142 847.7932014814623 # Ar
827 827 1 0.0 899.6280137517227 1225.9785742962565 1240.2453432132543 # Ar
828 828 1 0.0 978.368645958094 514.0251059384605 779.5286329840342 # Ar
829 829 1 0.0 79.61868149856316 1.1031842066031934 1093.2307191556454 # Ar
830 830 1 0.0 449.7927524503291 306.3714783729405 771.5938541547631 # Ar
831 831 1 0.0 161.0089799746155 1225.826942171047 458.23850690885035 # Ar
832 832 1 0.0 901.6690532583842 1179.0545629005355 920.6650750700002 # Ar
833 833 1 0.0 99.56655909916371 1262.4501321362454 592.9349243313593 # Ar
834 834 1 0.0 965.9029176532292 166.11734508847653 803.358441633792 # Ar
835 835 1 0.0 307.056391949029 9.155145283875877 932.5361439588047 # Ar
836 836 1 0.0 999.241376069666 350.15399852737244 485.8013165443795 # Ar
837 837 1 0.0 1277.0631132533529 584.3503048809158 1261.7801989413138 # Ar
838 838 1 0.0 789.3721335418895 999.793880210041 139.23084461916056 # Ar
839 839 1 0.0 452.2002805184867 61.9294350743446 726.8006605807395 # Ar
840 840 1 0.0 23.526464827142785 420.07716445075556 708.7555059453065 # Ar
841 841 1 0.0 384.06715193386447 853.2939951300295 974.1456606670573 # Ar
842 842 1 0.0 741.3890701268078 590.3149087394613 425.0207860846678 # Ar
843 843 1 0.0 1078.9775697230216 681.7547433781638 1100.7919015259668 # Ar
844 844 1 0.0 1209.2813351125835 688.5136661176134 336.70708560996127 # Ar
845 845 1 0.0 441.8170558741347 1248.6159403773604 910.6989783837613 # Ar
846 846 1 0.0 207.43371115660486 101.28275143794086 1077.7590809914943 # Ar
847 847 1 0.0 875.0508849294115 561.6214683920728 1201.3558453350317 # Ar
848 848 1 0.0 1294.2728005226315 530.2474838078884 302.4878669350963 # Ar
849 849 1 0.0 922.3718027262264 563.9839043167506 351.628799810066 # Ar
850 850 1 0.0 1181.1573190823585 14.624109161796966 261.7643897656163 # Ar
851 851 1 0.0 538.9195086504154 458.32105093736146 197.08519443147966 # Ar
852 852 1 0.0 1197.8025147219355 263.16490037461443 187.16307786116172 # Ar
853 853 1 0.0 303.61796419205973 1053.6553963242532 83.03938785966551 # Ar
854 854 1 0.0 496.4634882162185 831.2929494753924 1130.0875137708979 # Ar
855 855 1 0.0 1015.7398897628566 1284.3135920163238 135.6057999576406 # Ar
856 856 1 0.0 300.8235818218301 738.4690763491217 112.68689854030204 # Ar
857 857 1 0.0 883.7574377392294 447.3679871455807 608.2408884621595 # Ar
858 858 1 0.0 290.75076411967376 923.453124041244 406.30049576508765 # Ar
859 859 1 0.0 276.8521439017729 899.9257357836079 625.3174643476815 # Ar
860 860 1 0.0 748.1046831124817 981.1865358516189 679.0755120823163 # Ar
861 861 1 0.0 864.8982079844833 211.2702998935873 748.1140311248217 # Ar
862 862 1 0.0 1156.597523782301 655.6461471872306 54.150128501839134 # Ar
863 863 1 0.0 413.6289150827282 375.90491233137254 738.9757000915386 # Ar
864 864 1 0.0 638.9435129022783 674.4355653216243 568.770970707815 # Ar
865 865 1 0.0 1230.3399146086388 51.47064669976936 1271.7333852068678 # Ar
866 866 1 0.0 293.6560676200905 545.1399649210705 455.08156504532235 # Ar
867 867 1 0.0 975.8166232377366 1250.236668092857 493.9288909474754 # Ar
868 868 1 0.0 644.9330234119712 981.2537468582324 1126.5290836180761 # Ar
869 869 1 0.0 1227.6905624365193 587.9582033971768 766.6876969631425 # Ar
870 870 1 0.0 1240.1043280228105 1111.0354974195725 1067.4687342232542 # Ar
871 871 1 0.0 611.8199731684218 7.033275730389531 677.6861333665565 # Ar
872 872 1 0.0 69.93119762783297 778.484466066574 632.8057209105641 # Ar
873 873 1 0.0 785.6714803239913 887.9134740846581 375.9378810338008 # Ar
874 874 1 0.0 239.69696177786494 1033.1431404881118 547.1736635915569 # Ar
875 875 1 0.0 1265.254739531594 942.5109053335628 327.17815847156425 # Ar
876 876 1 0.0 1274.9648198523503 821.6034289936913 964.4329992366655 # Ar
877 877 1 0.0 505.9015385438607 1198.173691500155 468.6473531466445 # Ar
878 878 1 0.0 644.42402782126 1273.1123239678384 574.1512374413982 # Ar
879 879 1 0.0 424.48615987294306 618.3401382253999 413.11970055478895 # Ar
880 880 1 0.0 41.24361081919994 1227.2824842325188 310.7121250186951 # Ar
881 881 1 0.0 472.19349640317216 699.0709056508215 1170.017119297762 # Ar
882 882 1 0.0 438.0154489161461 845.5044985016651 795.5734736169396 # Ar
883 883 1 0.0 1180.723973769333 791.7254706274028 1047.9855483104404 # Ar
884 884 1 0.0 1182.728636322958 863.0395266476971 256.7884949443608 # Ar
885 885 1 0.0 274.12658607528505 1279.61041423919 155.08611720940343 # Ar
886 886 1 0.0 690.7671274909259 1000.6354358056368 918.6336481641927 # Ar
887 887 1 0.0 816.0736113238146 703.3732830159935 1125.6725354508585 # Ar
888 888 1 0.0 994.3878149201354 837.2155064704448 1184.5176727593112 # Ar
889 889 1 0.0 1012.1691011449525 1063.649787595283 910.7036104021562 # Ar
890 890 1 0.0 96.153731172961 1092.5137691981095 1226.2027773345935 # Ar
891 891 1 0.0 375.65660514146623 83.54985086192394 528.5192044985054 # Ar
892 892 1 0.0 516.167269755589 651.9987894848158 248.81257290439058 # Ar
893 893 1 0.0 231.25461100064362 634.115128943974 458.5491955052075 # Ar
894 894 1 0.0 533.1465835048002 1018.0490700958918 921.3913776235617 # Ar
895 895 1 0.0 977.0985027393258 195.86025712163084 1237.198589287975 # Ar
896 896 1 0.0 359.20609270605826 154.29027178695677 355.03088169630996 # Ar
897 897 1 0.0 1233.0280178013109 225.8658562428172 177.1731004136486 # Ar
898 898 1 0.0 1159.3286816371167 939.9645643267456 512.5018327027489 # Ar
899 899 1 0.0 843.200022751937 323.5223636320481 1205.1849325599721 # Ar
900 900 1 0.0 117.29454403444976 759.9177543464615 1029.2778218155318 # Ar
901 901 1 0.0 1221.7160684847831 829.4496580784846 250.8037298863918 # Ar
902 902 1 0.0 1283.577784006924 572.4490470178017 780.1407225337472 # Ar
903 903 1 0.0 262.54015510911114 173.2498251464333 97.10102771843593 # Ar
904 904 1 0.0 358.875143954957 688.8129141423291 503.260664173703 # Ar
905 905 1 0.0 401.478166591301 988.7592165759274 956.7775311728374 # Ar
906 906 1 0.0 3.577490515858618 559.3847871169727 108.29758193094038 # Ar
907 907 1 0.0 811.9944367180595 94.81694000767656 207.1209284578105 # Ar
908 908 1 0.0 941.1339327757844 162.41751718908193 31.8285384234684 # Ar
909 909 1 0.0 1291.4051404931195 1172.9965816851172 1148.0947301868432 # Ar
910 910 1 0.0 1184.5675197219994 139.05094823350828 357.18828012261804 # Ar
911 911 1 0.0 421.02219519093995 328.65477251130864 538.7753074876317 # Ar
912 912 1 0.0 824.5698671319127 929.563604732563 356.42006919549004 # Ar
913 913 1 0.0 836.6842300769116 990.952065379074 711.5416555719457 # Ar
914 914 1 0.0 300.52530593487353 340.6877802287125 934.0882777383182 # Ar
915 915 1 0.0 63.290819219668926 775.9335052576283 780.2725001600644 # Ar
916 916 1 0.0 73.55099822844183 456.0945539198304 1230.559767364379 # Ar
917 917 1 0.0 568.160930509917 237.58638643979253 14.498736035929547 # Ar
918 918 1 0.0 290.5936541404491 36.208058824685025 861.8240940263684 # Ar
919 919 1 0.0 920.6240970150062 587.305521961025 220.4496052958864 # Ar
920 920 1 0.0 158.20165147796976 29.653642836885197 340.5597963073626 # Ar
921 921 1 0.0 1125.2559168728685 1199.732031796033 592.7270565093949 # Ar
922 922 1 0.0 183.5472562974829 250.0543150780536 1142.53112306876 # Ar
923 923 1 0.0 1072.5245281233297 872.6731628290289 594.6052116759768 # Ar
924 924 1 0.0 515.9164532921948 613.0357833709861 712.3683530418036 # Ar
925 925 1 0.0 536.0834751584486 78.05741205843304 540.8415068424463 # Ar
926 926 1 0.0 653.5470913826995 1160.413513874299 1094.112033639563 # Ar
927 927 1 0.0 1059.0440882409969 560.7125160628334 348.2012226419805 # Ar
928 928 1 0.0 669.720695088399 1179.038530993653 439.3021732235787 # Ar
929 929 1 0.0 817.3250387712537 586.2575175379523 591.6472203741725 # Ar
930 930 1 0.0 838.9650954079576 418.45324119511855 1272.2726036802294 # Ar
931 931 1 0.0 566.0596183948038 894.3121189477129 1036.4230526107697 # Ar
932 932 1 0.0 98.19212413807618 354.677611239085 641.7037288519437 # Ar
933 933 1 0.0 1221.6515648339 384.78071174526224 618.7823383475538 # Ar
934 934 1 0.0 199.8863648285879 520.1313197985635 887.443687892155 # Ar
935 935 1 0.0 197.12376253138083 660.6557028760764 1137.336093543859 # Ar
936 936 1 0.0 923.9362176151254 11.535590427806046 283.97945256313545 # Ar
937 937 1 0.0 294.87426092300757 900.7047356049634 523.3038884266566 # Ar
938 938 1 0.0 147.9329626779297 1275.781955112737 797.4982053233954 # Ar
939 939 1 0.0 171.51098191580047 1055.694858114252 483.5134799932627 # Ar
940 940 1 0.0 1170.3314651319608 1073.3806318778918 97.38717229636983 # Ar
941 941 1 0.0 264.8835743284017 824.2701492666714 193.30801617574744 # Ar
942 942 1 0.0 791.3552218778625 520.6306951053683 515.2703864321393 # Ar
943 943 1 0.0 751.3664850318119 479.4930654981758 1149.186872585362 # Ar
944 944 1 0.0 753.4778738701922 43.66778772847031 108.83170516838683 # Ar
945 945 1 0.0 1226.7312079256662 354.2103954042163 1017.9779189959783 # Ar
946 946 1 0.0 440.3272558643863 439.78052261874063 679.7912415083864 # Ar
947 947 1 0.0 257.32068367601585 1152.9418474698577 431.6124386710319 # Ar
948 948 1 0.0 1040.5864074937328 616.0606836666949 724.4277638855125 # Ar
949 949 1 0.0 219.3432230197884 830.2143070785085 701.0092082106754 # Ar
950 950 1 0.0 934.7488026448386 598.6053142477102 297.89324658040084 # Ar
951 951 1 0.0 739.308624921318 1027.004211787808 262.36227001289416 # Ar
952 952 1 0.0 325.39444251387545 83.07515117803617 524.6117310066509 # Ar
953 953 1 0.0 545.5041282274195 1141.839061794872 952.219749236177 # Ar
954 954 1 0.0 102.1880721231673 152.7216257999845 592.4533823964052 # Ar
955 955 1 0.0 420.391719917597 468.798131907807 429.60152218781445 # Ar
956 956 1 0.0 659.6363866697254 107.02641386874362 512.7294821526596 # Ar
957 957 1 0.0 592.7927378574741 424.9236202411499 163.9383579873382 # Ar
958 958 1 0.0 954.8461089809576 967.7899141412688 1256.2900151305773 # Ar
959 959 1 0.0 1136.6146880362255 858.5139615094131 930.4676609624507 # Ar
960 960 1 0.0 187.30564836500687 152.4744730607335 1190.0569452828854 # Ar
961 961 1 0.0 436.62547549947107 264.02612641193747 496.0236882731454 # Ar
962 962 1 0.0 1283.5826410467225 11.053936564443859 430.613203672314 # Ar
963 963 1 0.0 268.40644586269497 358.1321729462095 437.238832820314 # Ar
964 964 1 0.0 569.3299922238349 870.3161954848567 506.1044243833633 # Ar
965 965 1 0.0 595.5390509092238 204.7289214247206 685.9955570879245 # Ar
966 966 1 0.0 393.0755045403339 1190.841999327465 1100.7973100376992 # Ar
967 967 1 0.0 1183.074165255182 10.337914241939176 612.44955174875 # Ar
968 968 1 0.0 747.0395961615175 18.750590339559125 226.53104964795364 # Ar
969 969 1 0.0 109.14247748919857 52.43892250299338 734.2083211731258 # Ar
970 970 1 0.0 596.05275937894 475.3054950875015 310.95360644405474 # Ar
971 971 1 0.0 1023.7865083757274 887.1205714645208 143.5493198992504 # Ar
972 972 1 0.0 794.5502062019486 242.10423722704795 308.8317251466056 # Ar
973 973 1 0.0 498.0070941297145 171.61632582911545 758.57085468188 # Ar
974 974 1 0.0 520.2948319300169 395.825283693637 1277.584426375735 # Ar
975 975 1 0.0 466.94100381575817 231.79111843519078 1145.6297931816705 # Ar
976 976 1 0.0 410.2554906950239 984.9409076419684 470.3346071814052 # Ar
977 977 1 0.0 1090.5465684459114 756.6397772815054 1009.9856073719818 # Ar
978 978 1 0.0 340.03575083245426 455.63680048347504 686.4620224520064 # Ar
979 979 1 0.0 165.35134830001354 732.9192912794213 1259.5653378680606 # Ar
980 980 1 0.0 491.0965575059342 754.4777264267941 149.01471278296918 # Ar
981 981 1 0.0 1265.748922162856 274.7882495582258 446.3012370199556 # Ar
982 982 1 0.0 631.4576829995826 525.1627119186259 292.32355884659154 # Ar
983 983 1 0.0 189.68136256490112 1041.786911716194 769.1397055399002 # Ar
984 984 1 0.0 740.3611120042584 222.74889140894575 757.9568575949796 # Ar
985 985 1 0.0 665.4877080297008 288.5781220068244 157.34710472190724 # Ar
986 986 1 0.0 773.175338379118 218.4938438796628 1073.4764194207016 # Ar
987 987 1 0.0 908.9174924376866 1194.9761192818596 75.77810143008413 # Ar
988 988 1 0.0 204.73327081775227 576.9165049496735 544.8155286768412 # Ar
989 989 1 0.0 488.60460724676693 707.9061258230596 499.36534153366455 # Ar
990 990 1 0.0 905.4368545464938 228.37920754929712 176.34937492241326 # Ar
991 991 1 0.0 1060.2899655260376 250.58885970879376 414.63130646474303 # Ar
992 992 1 0.0 706.9274804009376 1212.3453692106766 453.61691360322493 # Ar
993 993 1 0.0 1289.9692751430593 705.902651924865 1246.5985404678813 # Ar
994 994 1 0.0 1113.2370839868968 304.12748324401224 134.07797785684622 # Ar
995 995 1 0.0 704.0843842263894 52.2843842793622 1083.6022162684824 # Ar
996 996 1 0.0 694.803182591701 573.4719689742275 793.768836586196 # Ar
997 997 1 0.0 172.43013417157874 1064.5675441209432 1142.0379201296419 # Ar
998 998 1 0.0 157.20778461525197 591.3124057233939 283.34584203876585 # Ar
999 999 1 0.0 699.5372149704749 923.93037434806 776.3839146411838 # Ar
1000 1000 1 0.0 981.2215322619359 1018.9425029819851 724.2998039374016 # Ar
1001 1001 1 0.0 771.6423466449587 668.8896395339226 968.4936934091902 # Ar
1002 1002 1 0.0 463.898998971531 67.04858106669707 1010.0014015010545 # Ar
1003 1003 1 0.0 780.8967644898454 1274.6059010615472 840.6811592228711 # Ar
1004 1004 1 0.0 607.9172895804566 310.2524422209482 565.661771588528 # Ar
1005 1005 1 0.0 495.8172006017108 1057.90388605482 1114.8345987210357 # Ar
1006 1006 1 0.0 678.8137481492007 459.0266970579374 1282.2246291784215 # Ar
1007 1007 1 0.0 1083.4491359243539 1109.561541159556 678.3148638799266 # Ar
1008 1008 1 0.0 914.4528545709952 736.4257600647627 850.5478837830468 # Ar
1009 1009 1 0.0 154.5211973443043 371.09217405842503 43.27016526273408 # Ar
1010 1010 1 0.0 224.0347481462779 1171.728737916868 1043.2058705469542 # Ar
1011 1011 1 0.0 1108.8128403833293 133.59068653568968 132.09651616101797 # Ar
1012 1012 1 0.0 701.3725522853653 696.8308657577807 502.4267071367889 # Ar
1013 1013 1 0.0 455.0296646585242 801.2504638807143 706.0534740039622 # Ar
1014 1014 1 0.0 271.65564643262496 695.8447547949892 1137.6272444646647 # Ar
1015 1015 1 0.0 1150.6801871738005 567.6457757886717 661.1125516773233 # Ar
1016 1016 1 0.0 846.3004177335223 1189.6142226637685 773.8667384249487 # Ar
1017 1017 1 0.0 821.6033943637418 481.99452191942123 557.6739862741582 # Ar
1018 1018 1 0.0 789.0807369534255 1141.416887018188 458.38532445783824 # Ar
1019 1019 1 0.0 957.2748596345333 999.600485371987 475.5832411783869 # Ar
1020 1020 1 0.0 526.0400757870441 88.79767881750728 1295.2356839156369 # Ar
1021 1021 1 0.0 398.43447599348275 397.95103988060305 1181.709585909477 # Ar
1022 1022 1 0.0 479.4977185832674 350.1082698844292 680.0859930886716 # Ar
1023 1023 1 0.0 933.4589623139358 75.60076422032104 1292.656764178452 # Ar
1024 1024 1 0.0 520.4829667714469 1036.9315093858545 27.552966798476437 # Ar
1025 1025 1 0.0 777.940655932573 487.68322519708295 1116.6144232300462 # Ar
1026 1026 1 0.0 367.2445536806303 698.2183643168421 545.783859843843 # Ar
1027 1027 1 0.0 75.7048476520083 973.3905132818353 382.97247744327194 # Ar
1028 1028 1 0.0 653.0388707508748 74.75992180946702 852.5752634251409 # Ar
1029 1029 1 0.0 347.4236146747431 210.38498761804624 260.79000549648174 # Ar
1030 1030 1 0.0 123.62504463776446 994.4667732483204 1189.9701965211514 # Ar
1031 1031 1 0.0 140.25273733616885 561.208758775234 564.1707432189642 # Ar
1032 1032 1 0.0 16.555135209468705 667.6717007484212 263.6565311719529 # Ar
1033 1033 1 0.0 98.3045977742687 1069.6853291791251 6.098337066565745 # Ar
1034 1034 1 0.0 863.6281957278503 249.56214306178484 499.2451615872497 # Ar
1035 1035 1 0.0 1122.228601882841 781.7649420545233 1208.7279695225748 # Ar
1036 1036 1 0.0 1065.4098141646537 307.46595243047926 73.74173177151847 # Ar
1037 1037 1 0.0 831.3827915921416 1168.417961740205 121.36049581598505 # Ar
1038 1038 1 0.0 142.02285184686912 1217.6929903678697 700.310965355183 # Ar
1039 1039 1 0.0 576.3070395359763 132.99078737697454 982.3297261420017 # Ar
1040 1040 1 0.0 681.1546627389331 1040.5508219437754 807.4719207189659 # Ar
1041 1041 1 0.0 1194.6027130861162 220.36891445094165 704.744625911147 # Ar
1042 1042 1 0.0 433.4150892364248 200.3122525110832 502.059665100596 # Ar
1043 1043 1 0.0 764.360474972261 232.71957005046355 397.64367017356153 # Ar
1044 1044 1 0.0 366.2146032777709 1071.4268446928795 1088.7739636338515 # Ar
1045 1045 1 0.0 261.1860044038823 924.6302381106641 1124.3145144665523 # Ar
1046 1046 1 0.0 576.9347486270393 247.96389538905672 1169.957470233482 # Ar
1047 1047 1 0.0 74.31194727952614 950.1613016079106 1096.558194525552 # Ar
1048 1048 1 0.0 491.0333888067621 598.6035106252874 782.7190741999934 # Ar
1049 1049 1 0.0 165.01720514025791 326.95137515555376 1064.7474295587456 # Ar
1050 1050 1 0.0 1138.0349290586885 528.3942002521602 296.109610653126 # Ar
1051 1051 1 0.0 165.01557365520566 24.292332600210973 468.291278593942 # Ar
1052 1052 1 0.0 988.9583854065959 790.6816418100941 739.5250189169951 # Ar
1053 1053 1 0.0 1086.9789546489221 876.3650873751297 1140.696847242221 # Ar
1054 1054 1 0.0 377.06368209572844 810.6333873962178 1072.8918200613914 # Ar
1055 1055 1 0.0 210.12683115022682 313.1164320073264 654.1397416305551 # Ar
1056 1056 1 0.0 195.66838538879156 286.51955280395566 88.92562106549738 # Ar
1057 1057 1 0.0 358.6878692747576 1190.676437991857 457.65459644209005 # Ar
1058 1058 1 0.0 776.8331097083278 591.193517323595 1200.416647837592 # Ar
1059 1059 1 0.0 488.0343731044771 976.426509495097 462.95338037787945 # Ar
1060 1060 1 0.0 607.7550218612918 753.2202595440706 861.3836217279196 # Ar
1061 1061 1 0.0 265.4478994758631 271.7431578437813 266.06819115744514 # Ar
1062 1062 1 0.0 303.04173406024137 928.3566831756426 344.12441811162427 # Ar
1063 1063 1 0.0 676.3202508149864 1071.5033073644186 64.95214937538506 # Ar
1064 1064 1 0.0 23.5845050987208 319.2250400556246 441.57203909699695 # Ar
1065 1065 1 0.0 873.3365116912598 672.667533246559 1187.979605910179 # Ar
1066 1066 1 0.0 1007.779251016918 1118.2305566277096 985.3503991097207 # Ar
1067 1067 1 0.0 1190.7153213964775 462.1226644111644 298.6187558060473 # Ar
1068 1068 1 0.0 400.7173448684051 1052.4049390793418 257.1759814725641 # Ar
1069 1069 1 0.0 692.7711579509136 519.0917061404512 1285.750126522812 # Ar
1070 1070 1 0.0 831.7547140151165 485.5366190721349 441.2815432714465 # Ar
1071 1071 1 0.0 419.8629492959166 138.63807095450446 477.34362748113375 # Ar
1072 1072 1 0.0 261.4529372683966 1204.9453768391609 1205.1541950049955 # Ar
1073 1073 1 0.0 29.76976374262994 1038.8936455179671 43.50801003465969 # Ar
1074 1074 1 0.0 1201.483751917451 179.6954556094002 1216.3789208626442 # Ar
1075 1075 1 0.0 785.2533284240367 783.0797290043436 220.23465346976118 # Ar
1076 1076 1 0.0 632.1862422715586 15.831288180514289 344.8565425617562 # Ar
1077 1077 1 0.0 317.3711681047243 546.8670187527484 341.0510481622979 # Ar
1078 1078 1 0.0 1098.8229990453367 549.4677513137032 1245.0541228919958 # Ar
1079 1079 1 0.0 1238.1455714075792 43.24697893484424 404.0077135735575 # Ar
1080 1080 1 0.0 736.1693425734954 447.6161246810746 114.63858879660941 # Ar
1081 1081 1 0.0 10.138037934600014 1084.8088493665339 1013.2068477545901 # Ar
1082 1082 1 0.0 58.51921142169637 1075.201963775373 1257.5640796565492 # Ar
1083 1083 1 0.0 169.93643988885543 187.6747001841384 627.4713398593224 # Ar
1084 1084 1 0.0 122.3980779882995 1159.7587249877067 867.8940206558261 # Ar
1085 1085 1 0.0 1227.1410616063754 1182.9022926518467 227.42333633592082 # Ar
1086 1086 1 0.0 1295.973229510336 196.69401472984174 355.0543009942555 # Ar
1087 1087 1 0.0 914.0750433742119 234.64437487878902 1035.8102706323891 # Ar
1088 1088 1 0.0 139.52089421066518 1117.8576489876573 954.0966647686635 # Ar
1089 1089 1 0.0 251.4321850955718 558.2344388192769 1011.236899186186 # Ar
1090 1090 1 0.0 802.6187093088548 399.59698826483066 861.2787746152513 # Ar
1091 1091 1 0.0 812.2922058608596 871.0565136979841 1193.3396119704264 # Ar
1092 1092 1 0.0 1172.5275910065357 191.37369137073168 1181.3460077343855 # Ar
1093 1093 1 0.0 981.6302579651233 130.87203952225786 999.624818179189 # Ar
1094 1094 1 0.0 260.5784076160853 1276.696576634002 251.19586360234078 # Ar
1095 1095 1 0.0 1277.1808569469747 608.5283638463228 946.8130177348286 # Ar
1096 1096 1 0.0 71.00529704881578 415.9191824589525 338.08914622231634 # Ar
1097 1097 1 0.0 480.96519127110446 206.15772034418814 762.7027475208199 # Ar
1098 1098 1 0.0 761.5086990464216 50.74124231097629 686.0839682712266 # Ar
1099 1099 1 0.0 298.38034518671634 491.10757374663825 501.18230816496146 # Ar
1100 1100 1 0.0 340.85684223989085 712.2638663117391 489.7475760126193 # Ar
1101 1101 1 0.0 203.47871890577977 160.60294606578339 14.175726706744122 # Ar
1102 1102 1 0.0 254.03304255226493 583.4083632983669 281.1442650108011 # Ar
1103 1103 1 0.0 434.048591897663 848.7694815010145 983.94100702289 # Ar
1104 1104 1 0.0 568.2983193016629 737.0679490714426 502.33663397298346 # Ar
1105 1105 1 0.0 7.078910949379853 1160.6239477181646 403.29559922941894 # Ar
1106 1106 1 0.0 574.4677912789251 667.3827017928215 1125.3936037647138 # Ar
1107 1107 1 0.0 172.91720373022582 307.64087297305014 808.514969300182 # Ar
1108 1108 1 0.0 395.207842668712 1121.857372729631 1070.5880720899518 # Ar
1109 1109 1 0.0 265.17167834223494 899.3702415706853 381.7358045716079 # Ar
1110 1110 1 0.0 234.40811297284864 1022.0699283387995 1234.8233964855783 # Ar
1111 1111 1 0.0 1231.2094435561753 908.8796268872743 795.9814807039724 # Ar
1112 1112 1 0.0 138.64832726300443 458.8373052979845 182.36270650659478 # Ar
1113 1113 1 0.0 429.9744092110165 550.678625082839 787.1856379462577 # Ar
1114 1114 1 0.0 937.7756735886903 391.36633567146856 588.7427129681467 # Ar
1115 1115 1 0.0 586.0610294775719 72.6126833128815 1257.8917934489496 # Ar
1116 1116 1 0.0 770.3397350029094 25.89989568318938 351.9262240474316 # Ar
1117 1117 1 0.0 1104.7065029620667 1144.7778638300006 1147.893301683121 # Ar
1118 1118 1 0.0 763.6278839915401 373.83332000550973 1037.6739174688635 # Ar
1119 1119 1 0.0 804.4968707721778 626.6194632450956 833.5038837476156 # Ar
1120 1120 1 0.0 267.5291888928815 896.9442340528767 862.1047967228893 # Ar
1121 1121 1 0.0 71.39336740276057 419.99763922155864 466.0318674409774 # Ar
1122 1122 1 0.0 449.1115980269334 1215.536284930529 649.9865672034441 # Ar
1123 1123 1 0.0 54.99460634998835 442.1531031377185 800.3720325449681 # Ar
1124 1124 1 0.0 182.36337289593487 1046.9130308140998 555.0936104422141 # Ar
1125 1125 1 0.0 1039.665090136848 630.2410335854181 915.9174011697335 # Ar
1126 1126 1 0.0 585.0512053779017 51.98521883595332 1191.4360185991904 # Ar
1127 1127 1 0.0 802.4316371325568 668.4332360934468 786.6280554349365 # Ar
1128 1128 1 0.0 487.0327414998412 1080.8194437838479 829.2157436910235 # Ar
1129 1129 1 0.0 391.6907124951702 1123.6205363283734 115.75620202837025 # Ar
1130 1130 1 0.0 870.7625718814783 51.60373268604483 245.86819476328333 # Ar
1131 1131 1 0.0 616.3222147635312 712.3391130806506 1196.089484873372 # Ar
1132 1132 1 0.0 808.7489423800163 1251.9781500598574 311.9465290543201 # Ar
1133 1133 1 0.0 179.3375349275869 224.18931091556124 412.45957129467524 # Ar
1134 1134 1 0.0 106.42873395948916 886.124374776901 940.9444400183577 # Ar
1135 1135 1 0.0 645.279484730272 912.9134169110441 615.6630233292765 # Ar
1136 1136 1 0.0 700.0143446884251 41.21016467569313 1036.621820667307 # Ar
1137 1137 1 0.0 594.5129598908782 753.1900200058571 1212.0750436665146 # Ar
1138 1138 1 0.0 493.3476013046609 1054.872999139999 857.5382590132931 # Ar
1139 1139 1 0.0 530.6354002605864 745.2393082412678 47.232117106179494 # Ar
1140 1140 1 0.0 335.5135344585485 794.7991620491292 538.1499798851237 # Ar
1141 1141 1 0.0 567.2833816704606 1271.881398692461 546.8958873178022 # Ar
1142 1142 1 0.0 10.338523917935525 1123.4639873181438 792.1311724828978 # Ar
1143 1143 1 0.0 804.5423214759863 1291.669625052299 245.5768478514679 # Ar
1144 1144 1 0.0 1034.8242597687765 900.0117165940051 510.46464894357104 # Ar
1145 1145 1 0.0 1046.28457384452 676.7027400120705 1005.3222223730744 # Ar
1146 1146 1 0.0 1092.7208769400356 796.0801651696737 1074.2486531789489 # Ar
1147 1147 1 0.0 138.97656451020427 963.3675661017259 754.9446541141085 # Ar
1148 1148 1 0.0 833.6269385454674 1263.130288542517 162.6401350783173 # Ar
1149 1149 1 0.0 1063.4320789418734 589.3574796217741 715.9912581214027 # Ar
1150 1150 1 0.0 433.80638252399206 1204.882823492147 284.9818572317584 # Ar
1151 1151 1 0.0 964.672658616868 220.54249813421535 732.3908361397412 # Ar
1152 1152 1 0.0 624.727461328523 41.19001282988239 800.7850711958941 # Ar
1153 1153 1 0.0 732.187388293269 868.8575015905534 211.31162766682976 # Ar
1154 1154 1 0.0 1211.608527334996 491.94947363278 104.52416918236429 # Ar
1155 1155 1 0.0 759.193203189509 948.1051967050773 572.2931411159112 # Ar
1156 1156 1 0.0 547.9202141972186 260.9154156544645 669.7741725853164 # Ar
1157 1157 1 0.0 231.86213664256996 226.8906385986379 585.9557592625556 # Ar
1158 1158 1 0.0 753.8677754500465 42.96688865483848 1068.7786586466555 # Ar
1159 1159 1 0.0 1129.380457419149 24.94132624847787 447.91565436260714 # Ar
1160 1160 1 0.0 1089.9562540546642 401.05696059195986 343.12022562333993 # Ar
1161 1161 1 0.0 242.89872199322105 167.3528565601726 799.4392831671244 # Ar
1162 1162 1 0.0 1129.0765032649495 729.2778055353959 183.57895982038156 # Ar
1163 1163 1 0.0 414.95104952304666 678.2780982061272 143.96738007154428 # Ar
1164 1164 1 0.0 1240.9975677670507 157.1304232982011 1027.0371785982884 # Ar
1165 1165 1 0.0 100.0787091427878 1134.9751271225637 1167.3394189458318 # Ar
1166 1166 1 0.0 204.41245232187384 332.47206796316254 1196.421880122429 # Ar
1167 1167 1 0.0 1157.7415067715885 359.97594264808794 212.68841166751832 # Ar
1168 1168 1 0.0 66.18254380656484 472.6176734106503 532.7949942816125 # Ar
1169 1169 1 0.0 336.6923497392238 160.56450621523032 119.08736909747735 # Ar
1170 1170 1 0.0 776.9684074317166 340.62055841687857 652.2160774214951 # Ar
1171 1171 1 0.0 1139.6148075096282 993.3210138374901 757.2776409093436 # Ar
1172 1172 1 0.0 1176.760409710564 985.4663226564594 1033.3774647484913 # Ar
1173 1173 1 0.0 238.92260480067333 829.1673926470056 1013.8704508425961 # Ar
1174 1174 1 0.0 1124.8795288846943 621.3434629407461 565.7613503698004 # Ar
1175 1175 1 0.0 12.404338320115379 1152.5810827489045 153.0502799645454 # Ar
1176 1176 1 0.0 361.19059384448605 1214.8845494178838 979.9278988517747 # Ar
1177 1177 1 0.0 623.4930600863404 1017.9309797750464 1155.167780174565 # Ar
1178 1178 1 0.0 491.55212001753165 1176.4097825732556 42.51013208715365 # Ar
1179 1179 1 0.0 587.2333556861327 913.7569864634538 586.1693653779575 # Ar
1180 1180 1 0.0 419.6460705895329 874.4557948808932 525.268851259466 # Ar
1181 1181 1 0.0 1002.7961271291183 774.2002758554436 1072.4665222108908 # Ar
1182 1182 1 0.0 758.7292567135136 558.9139971158727 383.51961689058675 # Ar
1183 1183 1 0.0 140.7892076182178 526.4785924719051 559.2907345644535 # Ar
1184 1184 1 0.0 1119.2720770932178 339.7527458083975 1006.5455990750105 # Ar
1185 1185 1 0.0 283.23199752692733 289.72272418996977 47.03423930000153 # Ar
1186 1186 1 0.0 309.2540746129696 179.83144992618608 1130.7231807176772 # Ar
1187 1187 1 0.0 1255.3884256127465 294.9108157677209 1092.160122387576 # Ar
1188 1188 1 0.0 1238.640709968697 479.1711216421967 635.6949169131609 # Ar
1189 1189 1 0.0 228.6879858820357 922.8043850751166 1264.8767808079601 # Ar
1190 1190 1 0.0 944.3912051505706 151.22847453172713 734.6998941493357 # Ar
1191 1191 1 0.0 867.1656941045032 382.23048986553135 85.48900874396 # Ar
1192 1192 1 0.0 459.5021467585201 310.244277251184 802.1839080010784 # Ar
1193 1193 1 0.0 1139.6389756240785 793.1805253240528 1078.319912091477 # Ar
1194 1194 1 0.0 1119.118353615433 1283.3221292268024 200.41605150851612 # Ar
1195 1195 1 0.0 1099.2764717703162 935.594336203563 560.2784746320684 # Ar
1196 1196 1 0.0 418.6504861079058 574.0992905038232 1075.0119417241278 # Ar
1197 1197 1 0.0 200.9590788204624 256.5877102186487 311.37329141465466 # Ar
1198 1198 1 0.0 1185.4014877169905 13.943770774017299 189.33533101284186 # Ar
1199 1199 1 0.0 503.69030309336114 959.2849869569995 284.16917154974067 # Ar
1200 1200 1 0.0 141.99247119194328 187.5921374900103 775.9233986146314 # Ar
1201 1201 1 0.0 1180.3441535166733 855.2889990170193 636.2127123087206 # Ar
1202 1202 1 0.0 111.46062014704765 167.85807033244944 1131.5408066938035 # Ar
1203 1203 1 0.0 943.3902936133361 1291.0963226158194 916.4559453944593 # Ar
1204 1204 1 0.0 595.1446033068119 268.3387248673492 318.55225356496277 # Ar
1205 1205 1 0.0 792.3845934783257 1012.6573923316687 152.01672820463804 # Ar
1206 1206 1 0.0 898.791040394373 905.2788219920899 182.09643306502963 # Ar
1207 1207 1 0.0 216.22319389185105 38.96458981888297 239.58701136330836 # Ar
1208 1208 1 0.0 855.8658191550153 159.8838221375597 967.3216245250213 # Ar
1209 1209 1 0.0 55.728509963699835 18.18071109612348 391.80130082418594 # Ar
1210 1210 1 0.0 375.14102807606236 1102.3994261753671 1165.5393392949647 # Ar
1211 1211 1 0.0 857.7583872243256 520.5153084418536 235.7186953643689 # Ar
1212 1212 1 0.0 448.89483141867134 900.9805177353044 1079.5122935829825 # Ar
1213 1213 1 0.0 96.68583758401188 1035.2112026554014 221.5732962750246 # Ar
1214 1214 1 0.0 1152.963779911229 588.9926718264309 738.810683690625 # Ar
1215 1215 1 0.0 281.90497865058387 123.81747885310847 972.4143470840446 # Ar
1216 1216 1 0.0 396.6411912846689 854.7754061061867 1144.311253200482 # Ar
1217 1217 1 0.0 545.0037836531823 95.87505250776809 553.5959709909632 # Ar
1218 1218 1 0.0 12.247487537907917 507.61087286458985 863.3167202004701 # Ar
1219 1219 1 0.0 294.6874051148919 1216.2070178189274 1187.898505616199 # Ar
1220 1220 1 0.0 1206.4096616314332 140.08118300443124 745.2575280693882 # Ar
1221 1221 1 0.0 716.3260711412612 360.1271222434267 392.5376657844967 # Ar
1222 1222 1 0.0 442.4292776398604 1047.7749158162126 861.3086242851921 # Ar
1223 1223 1 0.0 633.3388739051047 992.2160533547769 752.844693518986 # Ar
1224 1224 1 0.0 142.22019961421555 71.70374869609829 489.61280727410286 # Ar
1225 1225 1 0.0 390.8947235988718 738.0703049936687 104.75338926561452 # Ar
1226 1226 1 0.0 575.1331735489789 714.9542971846267 604.3989489901688 # Ar
1227 1227 1 0.0 532.7301269606168 160.86562804267723 1064.8426651310713 # Ar
1228 1228 1 0.0 750.1365732007274 299.03928316052856 1234.7538424481288 # Ar
1229 1229 1 0.0 364.62909056387593 1173.775143779374 945.199345916401 # Ar
1230 1230 1 0.0 132.7325557873382 1046.3214285506456 1266.3314720912288 # Ar
1231 1231 1 0.0 1152.2461138548538 79.48697239696232 504.0656558977554 # Ar
1232 1232 1 0.0 761.0677104753802 740.6782100139167 684.961118726525 # Ar
1233 1233 1 0.0 610.9728639784798 482.23874589593333 634.4867726786284 # Ar
1234 1234 1 0.0 388.4688422565253 427.7901686517807 708.3576752016886 # Ar
1235 1235 1 0.0 872.9122215242095 243.5689465669885 912.9572436651398 # Ar
1236 1236 1 0.0 711.2845138661944 332.53861747116014 491.97387729389317 # Ar
1237 1237 1 0.0 261.28557535868606 1025.3064084024315 827.3397535580201 # Ar
1238 1238 1 0.0 0.05808815561394018 72.78421317207533 324.840706098761 # Ar
1239 1239 1 0.0 256.8316792448493 710.83892769977 804.5004591872978 # Ar
1240 1240 1 0.0 334.9290508469672 996.0340324963639 835.3886779305492 # Ar
1241 1241 1 0.0 1103.8741763677092 1039.7700714967596 658.8316035657904 # Ar
1242 1242 1 0.0 839.3696452776412 1073.0644090876683 412.76333149930036 # Ar
1243 1243 1 0.0 350.7429263127629 447.0036968450057 577.637479926175 # Ar
1244 1244 1 0.0 588.8493520251658 738.4446907477275 114.65128993030355 # Ar
1245 1245 1 0.0 1268.9523843955992 183.1028330656426 847.4640081016962 # Ar
1246 1246 1 0.0 426.38064441053217 67.71729853863101 1074.0024955468286 # Ar
1247 1247 1 0.0 342.4738144314971 1023.6968432381401 461.97719243990144 # Ar
1248 1248 1 0.0 922.0151677176103 454.27120983031614 260.9921353201985 # Ar
1249 1249 1 0.0 779.08954396777 1018.1195933179006 59.380900369497425 # Ar
1250 1250 1 0.0 512.9431332312932 380.65222349947453 275.3508167365377 # Ar
1251 1251 1 0.0 715.4717934287885 1154.3937048849343 239.87348086730876 # Ar
1252 1252 1 0.0 1249.8197758901886 650.2331974272407 12.002052206093865 # Ar
1253 1253 1 0.0 1087.007960811894 627.4519727872192 196.16719586841185 # Ar
1254 1254 1 0.0 163.63021428525852 993.465514084146 976.969753455372 # Ar
1255 1255 1 0.0 891.9249965640793 367.49275570591647 219.42395824953837 # Ar
1256 1256 1 0.0 1136.6855464893636 326.6956309020522 131.01032323817608 # Ar
1257 1257 1 0.0 826.5017731968151 342.4787062303596 880.0984121113831 # Ar
1258 1258 1 0.0 474.97888517940004 514.0833527400226 697.5474197397936 # Ar
1259 1259 1 0.0 435.5124064313507 186.54590722050958 516.0882482609279 # Ar
1260 1260 1 0.0 1252.8527877059166 332.1049427888916 890.1399517989423 # Ar
1261 1261 1 0.0 752.0636220595524 1028.0180762392692 1014.3027075465184 # Ar
1262 1262 1 0.0 1208.820385195145 842.3598964965776 765.0039376114415 # Ar
1263 1263 1 0.0 898.8195593017352 938.3183303576974 200.54239624362552 # Ar
1264 1264 1 0.0 967.0556401267589 346.70541485547864 121.73375410552428 # Ar
1265 1265 1 0.0 1073.4534801945463 896.1445189242452 1091.7132194195249 # Ar
1266 1266 1 0.0 526.099312316118 1269.532799944745 346.0462413925438 # Ar
1267 1267 1 0.0 609.5777587896422 247.13664859322282 1253.490513485933 # Ar
1268 1268 1 0.0 563.5583095986864 913.6121035902925 390.50426916839973 # Ar
1269 1269 1 0.0 72.43785886508081 1095.9856983683424 1215.1125822365475 # Ar
1270 1270 1 0.0 500.72140646346816 247.50454738076107 344.3986679244174 # Ar
1271 1271 1 0.0 776.0966218687497 201.54041327333624 123.81832963712583 # Ar
1272 1272 1 0.0 722.7918530578968 457.37938545743657 145.88542038024343 # Ar
1273 1273 1 0.0 523.919375645466 1149.5655728436027 145.73973032016954 # Ar
1274 1274 1 0.0 638.7505340644077 46.21170498353874 530.4825780466698 # Ar
1275 1275 1 0.0 387.5425504894018 584.9879862886627 287.74173337697584 # Ar
1276 1276 1 0.0 172.90274461983444 1119.5794632274874 28.437429468542746 # Ar
1277 1277 1 0.0 247.4083867333487 1008.5203205838648 410.67316811292574 # Ar
1278 1278 1 0.0 334.5731140516594 1027.672754794359 166.26700728850102 # Ar
1279 1279 1 0.0 147.5964949789382 1261.667335075698 185.03970353137268 # Ar
1280 1280 1 0.0 952.1004203105193 332.4042121256498 1137.8871396745515 # Ar
1281 1281 1 0.0 20.444060342942723 39.745463426119095 99.47030000778997 # Ar
1282 1282 1 0.0 971.7230631895529 868.5879937675325 1282.4374562356268 # Ar
1283 1283 1 0.0 508.8924095902693 592.151506038961 22.590599729648073 # Ar
1284 1284 1 0.0 607.2513212855744 667.97345817636 169.0916697654385 # Ar
1285 1285 1 0.0 495.3522131282527 690.0804727705523 287.7658748879368 # Ar
1286 1286 1 0.0 684.5969868624254 1259.3090447808033 366.7280715544631 # Ar
1287 1287 1 0.0 513.5477361136728 1246.4251293592017 531.6683915756538 # Ar
1288 1288 1 0.0 1236.0388424879905 1107.6964532994095 1078.8005814162423 # Ar
1289 1289 1 0.0 1127.1733384989593 214.59378352507431 176.70984807359827 # Ar
1290 1290 1 0.0 194.6203443877605 223.39050327436078 1131.595129039363 # Ar
1291 1291 1 0.0 1020.8920740761142 297.14104299344154 1263.9083963045287 # Ar
1292 1292 1 0.0 1022.3704804734854 319.93955559767255 646.6734953820882 # Ar
1293 1293 1 0.0 427.253546942174 1115.3476110742063 994.0184605440355 # Ar
1294 1294 1 0.0 835.3799463377497 852.5910886880841 835.3653599679272 # Ar
1295 1295 1 0.0 79.14121438669775 720.7973155374774 223.17966510117174 # Ar
1296 1296 1 0.0 1030.3236197034025 1124.6892902061109 807.6138500537162 # Ar
1297 1297 1 0.0 933.7663959494772 774.6474173858187 595.0628623238813 # Ar
1298 1298 1 0.0 1288.9309655445736 922.5995435703683 398.09027148749425 # Ar
1299 1299 1 0.0 894.5434069581578 190.4309328887079 345.4404241861506 # Ar
1300 1300 1 0.0 1006.7000284247933 242.50003871603326 141.47410168128107 # Ar
1301 1301 1 0.0 1181.7394949309646 289.2065189497416 1037.9058728735954 # Ar
1302 1302 1 0.0 768.0652842266924 58.66175789138713 155.63649641263214 # Ar
1303 1303 1 0.0 766.2519149349743 21.636667429708744 1187.306119750594 # Ar
1304 1304 1 0.0 1292.9797150085801 727.2543443330497 1141.461083813749 # Ar
1305 1305 1 0.0 807.6155991180098 1207.8130023776846 1163.2713898708862 # Ar
1306 1306 1 0.0 412.3636108330689 307.80436407247436 362.1881696601788 # Ar
1307 1307 1 0.0 0.5375638855237244 225.05136417929796 872.3316363387221 # Ar
1308 1308 1 0.0 262.1007028508121 610.1081055367546 931.6903352406862 # Ar
1309 1309 1 0.0 497.06827095067933 243.49483889632188 1252.838764319221 # Ar
1310 1310 1 0.0 1213.07553991438 513.1917176938266 1140.9943227889867 # Ar
1311 1311 1 0.0 683.1640375993701 324.55628969562486 784.8509160969423 # Ar
1312 1312 1 0.0 1209.0991766562727 1260.885522784834 857.3707675798789 # Ar
1313 1313 1 0.0 948.3783331214302 425.8843726224957 439.93766231218495 # Ar
1314 1314 1 0.0 365.2078610181964 1117.2071895551153 1160.8300276333125 # Ar
1315 1315 1 0.0 108.11478031630777 623.5560204561893 179.62885076551015 # Ar
1316 1316 1 0.0 520.1112959254671 885.6001701690626 765.0157771831128 # Ar
1317 1317 1 0.0 989.6661489640823 1036.685449965406 393.5696575129133 # Ar
1318 1318 1 0.0 603.6981606362655 587.1531951306532 763.2226537161614 # Ar
1319 1319 1 0.0 153.83082988287921 1141.5621558544678 717.971437533159 # Ar
1320 1320 1 0.0 556.9524526885581 1160.2708076512338 157.1019244853026 # Ar
1321 1321 1 0.0 677.3248911497237 802.9339013321606 733.0629842342389 # Ar
1322 1322 1 0.0 943.7020652686872 175.95624704354918 77.08769072308515 # Ar
1323 1323 1 0.0 525.1399043071393 1220.3767272025782 770.9622230389913 # Ar
1324 1324 1 0.0 1132.1772262521129 1190.1529870176025 400.709024635642 # Ar
1325 1325 1 0.0 946.4173735859353 1171.1959213310472 295.024692704049 # Ar
1326 1326 1 0.0 731.2106136604289 99.13301370087335 661.4356717457985 # Ar
1327 1327 1 0.0 1253.9324705773085 1216.0149415765422 959.9696809195186 # Ar
1328 1328 1 0.0 919.9933400770965 273.1453668439962 237.73455693833876 # Ar
1329 1329 1 0.0 678.6333908058191 34.775807393012386 662.9435189082893 # Ar
1330 1330 1 0.0 411.25305661572787 21.102398169886257 184.76297869416314 # Ar
1331 1331 1 0.0 1009.1984175350251 1193.4160079353624 508.2609872002014 # Ar
1332 1332 1 0.0 1005.7914608816017 446.41867543088233 1279.5206642145256 # Ar
1333 1333 1 0.0 685.3285407591106 195.31180266944716 527.1896743145586 # Ar
1334 1334 1 0.0 487.8411769560117 823.5566110195605 854.8206208161246 # Ar
1335 1335 1 0.0 1117.7635191632928 198.4740144370029 502.2700678672625 # Ar
1336 1336 1 0.0 685.6823065957367 559.1802617100969 817.1266420006955 # Ar
1337 1337 1 0.0 230.88568094847392 135.80675837474715 892.9063340285818 # Ar
1338 1338 1 0.0 1183.9330277102083 1278.3377661693826 898.086962683913 # Ar
1339 1339 1 0.0 604.3914522838053 31.95171957548566 371.0461964215081 # Ar
1340 1340 1 0.0 81.08455274615483 605.9285902413277 527.6551764303833 # Ar
1341 1341 1 0.0 8.226796718464401 480.90921955032184 1274.691257585777 # Ar
1342 1342 1 0.0 12.70024970609344 1037.0109825457873 562.9262097984234 # Ar
1343 1343 1 0.0 615.6630005970079 1074.6904769425091 385.1666625701972 # Ar
1344 1344 1 0.0 1008.2940387451175 400.0133211459915 1179.5166850439305 # Ar
1345 1345 1 0.0 761.3498587960904 990.4210748154629 1103.312653418938 # Ar
1346 1346 1 0.0 495.55178593974125 853.8175621350701 993.2727570443705 # Ar
1347 1347 1 0.0 790.0718363337901 1264.2439256619164 778.6865223860322 # Ar
1348 1348 1 0.0 928.6373618779694 1153.6329012516317 1014.3992129437266 # Ar
1349 1349 1 0.0 737.6588712386865 370.14845761910664 98.88356941340106 # Ar
1350 1350 1 0.0 1273.0807134272911 829.5555267212219 780.772999088612 # Ar
1351 1351 1 0.0 207.52672395527853 1233.4227960982557 121.8928394569323 # Ar
1352 1352 1 0.0 1248.7097206106823 259.7939109582866 1062.4041801823957 # Ar
1353 1353 1 0.0 810.9687363590873 350.47941415753036 943.3090503817035 # Ar
1354 1354 1 0.0 42.59450491044449 21.30938258618905 1141.9228963035982 # Ar
1355 1355 1 0.0 1202.358309934873 989.2758011823499 89.05558412889334 # Ar
1356 1356 1 0.0 160.43458101494087 711.2860799584355 622.9734656280444 # Ar
1357 1357 1 0.0 1125.5030941409618 336.39563889062947 5.2482512647178 # Ar
1358 1358 1 0.0 649.4064747637395 117.12565635966972 408.6629648123912 # Ar
1359 1359 1 0.0 916.5312691428146 450.9837758169914 137.66300913833976 # Ar
1360 1360 1 0.0 599.765885431534 251.56774555944747 1154.2659050731693 # Ar
1361 1361 1 0.0 219.99383013275911 1108.6529459005067 974.7989666873227 # Ar
1362 1362 1 0.0 838.1671491862742 470.0502255339698 129.5739919659337 # Ar
1363 1363 1 0.0 267.8544680057245 935.150266574432 642.0067179179315 # Ar
1364 1364 1 0.0 1129.8124911015893 547.1629852541598 631.5693472490822 # Ar
1365 1365 1 0.0 369.17322607261065 475.0020243916534 603.5004939332456 # Ar
1366 1366 1 0.0 1062.5129628183658 447.2438375762593 667.0159516271683 # Ar
1367 1367 1 0.0 891.0994449221549 550.9186337982371 1046.285482756267 # Ar
1368 1368 1 0.0 1081.2672066966459 545.9979989490535 372.22257777413046 # Ar
1369 1369 1 0.0 375.58232661652625 376.8055351323364 732.6513019115172 # Ar
1370 1370 1 0.0 676.9939124533389 862.3479658251374 1133.120714017946 # Ar
1371 1371 1 0.0 339.9032561147198 1226.9145903211397 898.5129031454503 # Ar
1372 1372 1 0.0 4.265838085111285 759.8330493497056 172.93877525463833 # Ar
1373 1373 1 0.0 637.0721983734413 725.2882170552034 659.0416326693439 # Ar
1374 1374 1 0.0 511.1646037996152 1219.4166221153248 845.3656747187687 # Ar
1375 1375 1 0.0 390.08807602684357 687.865630245043 1224.0526004186481 # Ar
1376 1376 1 0.0 1104.3260924032738 518.5971279153913 738.1679053463531 # Ar
1377 1377 1 0.0 423.2190342342888 964.4193461845762 809.1398913976187 # Ar
1378 1378 1 0.0 1035.0202750527612 767.544376116311 199.7590787222054 # Ar
1379 1379 1 0.0 1158.7525923491453 178.24501217689163 421.3217061502409 # Ar
1380 1380 1 0.0 132.71673080538773 259.97486490874957 544.8150997671233 # Ar
1381 1381 1 0.0 11.307748277089704 220.96038248642566 1247.4060420016904 # Ar
1382 1382 1 0.0 155.55462507948417 396.57824114242186 765.1570265178086 # Ar
1383 1383 1 0.0 651.0796788423089 621.5612460729647 625.0086515491386 # Ar
1384 1384 1 0.0 89.2046437623746 428.38626952667113 1019.655390194824 # Ar
1385 1385 1 0.0 575.3437037802485 680.1501843612152 219.8725741674726 # Ar
1386 1386 1 0.0 17.367648144354767 26.853721501281257 693.9921520311623 # Ar
1387 1387 1 0.0 519.2533416670486 1274.0603029631097 388.47566235254504 # Ar
1388 1388 1 0.0 722.8177979284051 497.83935922293267 575.5280075937723 # Ar
1389 1389 1 0.0 1275.8129912735276 174.09866262515797 517.4369270521363 # Ar
1390 1390 1 0.0 536.5552162903894 1234.0322777992203 965.7950305268798 # Ar
1391 1391 1 0.0 190.93992183342857 762.4895109266463 146.75411355362755 # Ar
1392 1392 1 0.0 907.5728803911243 739.1242160808604 202.52851546967233 # Ar
1393 1393 1 0.0 388.6928657977104 472.1379521980762 631.790083382848 # Ar
1394 1394 1 0.0 421.5639720770364 246.42350585676445 910.243823859707 # Ar
1395 1395 1 0.0 123.51257129189888 1008.7718164786369 1062.7840039460245 # Ar
1396 1396 1 0.0 728.908797359019 1204.0083560402957 628.6892875771752 # Ar
1397 1397 1 0.0 778.6195387175396 229.59605647647155 975.4982483232503 # Ar
1398 1398 1 0.0 715.4832447850521 283.17907397971993 520.8123778151888 # Ar
1399 1399 1 0.0 1015.0735172164948 554.5719723602068 285.63272870116333 # Ar
1400 1400 1 0.0 280.89476732600355 1068.145564398053 444.884724425426 # Ar
1401 1401 1 0.0 702.2768038485447 947.5747114741473 674.9105512681738 # Ar
1402 1402 1 0.0 385.5627968128015 1186.8529785134672 116.21461822796796 # Ar
1403 1403 1 0.0 886.1867900689542 927.119285239293 995.3172985644733 # Ar
1404 1404 1 0.0 576.6136414970514 512.5469645340758 1294.0423354274553 # Ar
1405 1405 1 0.0 857.1071882107974 503.1969905005469 44.12161536092313 # Ar
1406 1406 1 0.0 624.6095772751055 315.2412509160356 1195.983380454601 # Ar
1407 1407 1 0.0 745.0946016841652 136.6337934598124 635.2775806455932 # Ar
1408 1408 1 0.0 192.1302790876497 620.8728574415896 84.75863482583289 # Ar
1409 1409 1 0.0 548.9931593981702 1052.5307681209158 433.6992215794629 # Ar
1410 1410 1 0.0 736.0188796640854 674.6877784832628 1283.9644599967164 # Ar
1411 1411 1 0.0 794.7774960293202 404.8411166357523 375.91021513848517 # Ar
1412 1412 1 0.0 179.9635170256731 204.83867399979482 88.06284942068366 # Ar
1413 1413 1 0.0 572.679838257511 668.2626299742883 246.84924025247966 # Ar
1414 1414 1 0.0 297.46001277687 623.8761626952968 532.4557029490536 # Ar
1415 1415 1 0.0 594.0262805202304 799.5437828789624 836.8975621603852 # Ar
1416 1416 1 0.0 338.13307950006185 46.792205176477886 898.8607337006632 # Ar
1417 1417 1 0.0 776.5795314106468 234.40004289748734 573.8197150845847 # Ar
1418 1418 1 0.0 231.57746266401028 895.9275658996205 728.6670912902694 # Ar
1419 1419 1 0.0 769.5979096412525 971.0590369060671 582.3446527874218 # Ar
1420 1420 1 0.0 922.9841405604534 644.9099080509891 100.99070728418452 # Ar
1421 1421 1 0.0 994.9281242934933 540.8833528615871 623.9711371396611 # Ar
1422 1422 1 0.0 672.0944931847679 365.5489929176895 170.930973294182 # Ar
1423 1423 1 0.0 1068.9915568788476 677.3755851430492 1123.448567270545 # Ar
1424 1424 1 0.0 934.5975702862858 80.10354825776884 77.52625853092837 # Ar
1425 1425 1 0.0 413.6140153531799 1291.0146549145893 229.75386467539164 # Ar
1426 1426 1 0.0 941.7443216641279 673.7005435623552 296.4731665546425 # Ar
1427 1427 1 0.0 445.7747000773086 169.3963650312139 533.4186205814372 # Ar
1428 1428 1 0.0 641.1635969906265 545.243530286824 145.0413963431087 # Ar
1429 1429 1 0.0 1265.2515486472441 394.80180475514106 1281.6551317584951 # Ar
1430 1430 1 0.0 337.81099600119967 1069.6579732318692 757.2475428643711 # Ar
1431 1431 1 0.0 1210.4636921447477 906.5598903574407 1077.4651869988543 # Ar
1432 1432 1 0.0 441.7547779327132 1219.2314051591682 252.1075435316341 # Ar
1433 1433 1 0.0 1052.230590696279 1006.1959865274948 213.15515464515477 # Ar
1434 1434 1 0.0 1081.391472640736 1058.3980014522747 655.9444172305452 # Ar
1435 1435 1 0.0 16.34819233539923 918.6304095061313 483.41631851477763 # Ar
1436 1436 1 0.0 427.96911328736974 1211.2262348222805 636.5752441871695 # Ar
1437 1437 1 0.0 742.9684958972864 1141.03950452036 142.75406023610063 # Ar
1438 1438 1 0.0 1033.3523705673088 423.4878154225002 734.3786301569176 # Ar
1439 1439 1 0.0 633.4080824148465 337.48736237964306 1082.3532621338293 # Ar
1440 1440 1 0.0 282.0995790171149 671.1964211544263 482.2057808908606 # Ar
1441 1441 1 0.0 763.8878810855365 502.43546067250537 917.7341892971008 # Ar
1442 1442 1 0.0 288.21911169977227 282.25927932826045 467.85563725057625 # Ar
1443 1443 1 0.0 449.2398405390753 682.9264711270803 1197.5574084046657 # Ar
1444 1444 1 0.0 190.39943265709857 534.4994850979978 139.02170911868845 # Ar
1445 1445 1 0.0 131.13930217678904 473.88321742968463 552.5029799390738 # Ar
1446 1446 1 0.0 1184.6635964623426 595.936376220247 1177.960331352633 # Ar
1447 1447 1 0.0 514.5337850951297 854.041425752067 1082.60365292276 # Ar
1448 1448 1 0.0 1174.6669448044895 375.5888527832835 410.1541017498133 # Ar
1449 1449 1 0.0 59.221132753334224 1156.7352866460824 28.189425655653142 # Ar
1450 1450 1 0.0 288.3172097051851 124.71482226869878 780.1927762332995 # Ar
1451 1451 1 0.0 783.1465783677495 403.4346263027828 902.4517724446129 # Ar
1452 1452 1 0.0 457.7404026128054 217.98890423484252 246.63271489464597 # Ar
1453 1453 1 0.0 110.19431204688024 845.6733254927531 702.5575990926382 # Ar
1454 1454 1 0.0 424.3034179405882 323.6572325737111 747.3300653255852 # Ar
1455 1455 1 0.0 367.30305713144077 1136.7545585687033 598.9092558778891 # Ar
1456 1456 1 0.0 471.7015053429695 1259.8031561390164 724.9851389229678 # Ar
1457 1457 1 0.0 684.0450144848306 78.8852087835977 202.62951462398098 # Ar
1458 1458 1 0.0 1239.524283701735 404.5587160363509 909.2732282601837 # Ar
1459 1459 1 0.0 1254.0381689261867 81.19404694284937 1295.7728589739706 # Ar
1460 1460 1 0.0 785.9319073967273 272.760873928989 533.1999855557408 # Ar
1461 1461 1 0.0 6.139940737714791 1217.1801658575316 497.97852932148663 # Ar
1462 1462 1 0.0 1112.3887970662086 672.3904678085539 1291.8331050514028 # Ar
1463 1463 1 0.0 1107.4124670113004 214.7445086730918 798.4724800398213 # Ar
1464 1464 1 0.0 923.8164317366164 252.84120198512764 691.205499429092 # Ar
1465 1465 1 0.0 1225.6886688601821 292.14916516089147 347.36909514819405 # Ar
1466 1466 1 0.0 843.7404399046027 889.7298289053576 647.2083795884715 # Ar
1467 1467 1 0.0 762.6210428681846 513.2327963779893 1005.8677220889736 # Ar
1468 1468 1 0.0 79.74616079314524 507.2174789264725 674.3278854983599 # Ar
1469 1469 1 0.0 1271.3168067056013 105.11539893931715 1146.6675566025826 # Ar
1470 1470 1 0.0 799.2995402719595 1068.580102387115 239.18176980306131 # Ar
1471 1471 1 0.0 475.6664164255747 518.1557491956465 982.1831217151262 # Ar
1472 1472 1 0.0 746.057374792036 689.4835756795318 1286.3950557869375 # Ar
1473 1473 1 0.0 330.87549513174696 951.072443598063 1274.42544689041 # Ar
1474 1474 1 0.0 37.925470349042754 472.39445402642116 178.18094258964726 # Ar
1475 1475 1 0.0 238.20170942158285 98.1531928203141 38.21375711963471 # Ar
1476 1476 1 0.0 687.4385309531726 189.81174301686016 758.1901911598537 # Ar
1477 1477 1 0.0 480.8936829046813 768.1891529612292 513.343799367077 # Ar
1478 1478 1 0.0 1110.0499893259428 604.4815432221699 908.5808642156029 # Ar
1479 1479 1 0.0 429.75604018925475 250.38331030912764 543.2443878451261 # Ar
1480 1480 1 0.0 642.9075862559124 349.5500578141809 464.1010340722874 # Ar
1481 1481 1 0.0 654.1588354516705 1248.8067575663058 934.8221503816958 # Ar
1482 1482 1 0.0 1230.3428253545828 617.5068279794324 704.7176160353499 # Ar
1483 1483 1 0.0 302.75776934381014 427.521519897459 667.0231927497557 # Ar
1484 1484 1 0.0 984.1899971811343 101.80715443868085 130.75438934292941 # Ar
1485 1485 1 0.0 688.9450715418848 259.95758013028194 243.90040566180076 # Ar
1486 1486 1 0.0 719.4958980390072 959.4865596528571 1294.9851439669021 # Ar
1487 1487 1 0.0 1075.2912610364733 1014.3535138015146 273.2400871862468 # Ar
1488 1488 1 0.0 739.5906951290233 831.6495637849962 451.51356329158693 # Ar
1489 1489 1 0.0 188.76696826143436 339.93921305266474 334.2501639973716 # Ar
1490 1490 1 0.0 448.66904681170473 373.17539149357964 87.96067299699173 # Ar
1491 1491 1 0.0 449.80781121969204 138.96553303901786 506.8895153586803 # Ar
1492 1492 1 0.0 565.9387520892691 705.8136740166652 256.39103151542184 # Ar
1493 1493 1 0.0 447.8641748619289 272.6448654966906 1071.4696366790304 # Ar
1494 1494 1 0.0 900.7373932940188 937.6385394035805 2.596427830247726 # Ar
1495 1495 1 0.0 416.3433369999473 1239.9857783151754 299.36260945307123 # Ar
1496 1496 1 0.0 876.6155828099971 268.78686747073897 344.7267141181734 # Ar
1497 1497 1 0.0 1274.2905266569683 507.52274523502393 850.5573947959152 # Ar
1498 1498 1 0.0 57.43750241190614 1251.5158364745726 410.93305952421 # Ar
1499 1499 1 0.0 852.1858253803842 666.0694591724153 706.2428405760768 # Ar
1500 1500 1 0.0 769.2379352114915 1248.6809208685802 978.2480174733264 # Ar
1501 1501 1 0.0 897.5561931502756 197.84804058528016 1050.1952003200688 # Ar
1502 1502 1 0.0 62.35636982367588 956.4755415845132 564.3390427472467 # Ar
1503 1503 1 0.0 50.1970356592909 92.57264909202526 383.01974486832876 # Ar
1504 1504 1 0.0 276.50642863655315 1203.2022930152636 1124.9783428561225 # Ar
1505 1505 1 0.0 493.999123731234 724.2528803548308 1030.5131024011623 # Ar
1506 1506 1 0.0 1138.7849524124167 1160.1619675558245 282.1687011388817 # Ar
1507 1507 1 0.0 819.9466246768397 1049.9986652003256 1194.9881333667595 # Ar
1508 1508 1 0.0 774.2227277924826 269.1082033710934 815.986461687714 # Ar
1509 1509 1 0.0 872.5081923475765 294.22997657591094 1211.9816734222134 # Ar
1510 1510 1 0.0 1274.7566022019787 237.29940442647361 125.38039017631836 # Ar
1511 1511 1 0.0 273.4785917416792 356.1887145300223 455.7045031158093 # Ar
1512 1512 1 0.0 861.2112900081389 75.17571775361739 1077.2795191009977 # Ar
1513 1513 1 0.0 473.2189529381161 592.7095598116324 503.0306724271497 # Ar
1514 1514 1 0.0 467.68162616193143 473.13492263277647 411.2694406236911 # Ar
1515 1515 1 0.0 1088.3540485966869 839.7178470138471 884.4928803101652 # Ar
1516 1516 1 0.0 171.40828815923817 858.055273309644 351.68622814241894 # Ar
1517 1517 1 0.0 693.6390609400469 850.1966746540201 903.6715051189283 # Ar
1518 1518 1 0.0 544.9502632072038 162.54147166997578 954.033005121917 # Ar
1519 1519 1 0.0 459.20991259275763 290.8596534080668 1003.1842715403463 # Ar
1520 1520 1 0.0 476.68554757242237 739.4442540139578 357.89941498918927 # Ar
1521 1521 1 0.0 658.9386853406284 28.612260734490718 110.66327382296242 # Ar
1522 1522 1 0.0 1174.629791680054 834.8591978121578 635.7405020435543 # Ar
1523 1523 1 0.0 293.45001661175274 1205.4806747902933 429.08908411624896 # Ar
1524 1524 1 0.0 643.5956601310862 879.5056779001286 751.5878845322018 # Ar
1525 1525 1 0.0 746.3304451082206 995.1139872526584 618.5173924924787 # Ar
1526 1526 1 0.0 592.9720367918751 111.89701432487205 689.2526570498414 # Ar
1527 1527 1 0.0 11.52465470561157 80.14787106707142 961.2655323307177 # Ar
1528 1528 1 0.0 116.72628721540949 375.5217917610144 504.6942998866432 # Ar
1529 1529 1 0.0 490.67642493664744 519.4407140881178 515.8816840378247 # Ar
1530 1530 1 0.0 195.8668309575621 2.6580046233552177 935.758040376783 # Ar
1531 1531 1 0.0 981.9022990433588 748.3104248686767 972.8674671769429 # Ar
1532 1532 1 0.0 284.508947870394 694.5627311447473 121.58649648187581 # Ar
1533 1533 1 0.0 1187.3902435146485 1095.056078169665 526.0801491487339 # Ar
1534 1534 1 0.0 994.0788387195372 1275.6815454746823 523.7958447258653 # Ar
1535 1535 1 0.0 1150.3869235113398 658.1547197592297 1062.53973800868 # Ar
1536 1536 1 0.0 15.3937587024253 493.2569932248427 349.36455360576014 # Ar
1537 1537 1 0.0 844.1614571016152 971.328623042081 1232.3046494861646 # Ar
1538 1538 1 0.0 1285.9918305146339 837.0491225318968 1176.5404325770278 # Ar
1539 1539 1 0.0 306.2530246198653 1290.2453355642185 1180.6425059036535 # Ar
1540 1540 1 0.0 97.12185107341391 399.01967112782006 1176.4796130467646 # Ar
1541 1541 1 0.0 705.84370520928 868.5834978497223 259.1242144954978 # Ar
1542 1542 1 0.0 565.9895829806171 787.4405574106352 513.3322513041114 # Ar
1543 1543 1 0.0 1071.3516915715381 366.34497319723954 845.3197078193707 # Ar
1544 1544 1 0.0 292.60521524118917 445.6109613887046 1281.6194726477008 # Ar
1545 1545 1 0.0 1073.3613504140972 110.1365038505452 951.4155648162433 # Ar
1546 1546 1 0.0 99.04801483144011 1124.0817785465956 1200.2818335423624 # Ar
1547 1547 1 0.0 471.54873647000267 706.5005481887628 1220.7709791802142 # Ar
1548 1548 1 0.0 354.55331221805886 1218.0827756155354 1285.9518242615854 # Ar
1549 1549 1 0.0 675.9385170357649 949.1747864899622 960.6410851132694 # Ar
1550 1550 1 0.0 448.28998119337683 613.0230471564582 116.1772017551744 # Ar
1551 1551 1 0.0 1021.6645433228631 1274.4054236177888 1118.843473277507 # Ar
1552 1552 1 0.0 340.57229837871273 890.0493795592525 1080.8751073726817 # Ar
1553 1553 1 0.0 867.105795074636 1238.2142394455477 907.5001210913921 # Ar
1554 1554 1 0.0 225.1285016312403 1236.6715817283614 28.348257676811176 # Ar
1555 1555 1 0.0 537.1995907713833 173.1806175290708 164.7298384297615 # Ar
1556 1556 1 0.0 750.0599667916376 1211.37867696027 443.8547806399623 # Ar
1557 1557 1 0.0 887.9934601119616 584.2768824426022 240.88195130858176 # Ar
1558 1558 1 0.0 726.6804764217471 1216.7314865370915 165.98304511250825 # Ar
1559 1559 1 0.0 319.7597781786553 769.8223420543203 1087.555780070083 # Ar
1560 1560 1 0.0 292.2340098991717 144.2348164045079 211.8164102713199 # Ar
1561 1561 1 0.0 449.8063542191814 53.25980720442989 440.56489488308074 # Ar
1562 1562 1 0.0 1087.4299576424758 1167.0338565860375 1276.0114020825263 # Ar
1563 1563 1 0.0 1192.2638034449335 1265.8110228929324 626.4978203651938 # Ar
1564 1564 1 0.0 302.7561315533149 1250.6351854513143 599.7613880784214 # Ar
1565 1565 1 0.0 1210.0971326473345 193.70095798728934 698.7861673057314 # Ar
1566 1566 1 0.0 390.26092452216614 522.9083814161961 1214.7992771392978 # Ar
1567 1567 1 0.0 545.3529942388794 1145.129112984229 364.8881459001043 # Ar
1568 1568 1 0.0 828.6082293837046 178.55062517894012 896.5330733768637 # Ar
1569 1569 1 0.0 555.415530126135 47.18313655029991 257.78942514985374 # Ar
1570 1570 1 0.0 612.0781317113662 346.6102544283389 641.2439626793379 # Ar
1571 1571 1 0.0 189.77508928952915 434.1604785860718 194.38404753457257 # Ar
1572 1572 1 0.0 372.7273109144748 829.1471618900063 934.9635298276304 # Ar
1573 1573 1 0.0 990.7590284946125 664.6158429605605 848.0517049450987 # Ar
1574 1574 1 0.0 382.67737734153565 474.7622243953158 851.596267171261 # Ar
1575 1575 1 0.0 173.85656517474243 293.18697362504275 512.1863183736613 # Ar
1576 1576 1 0.0 928.62284334484 121.1449982926468 103.11207110374693 # Ar
1577 1577 1 0.0 606.0327059108733 1134.5824965733568 410.0414406705613 # Ar
1578 1578 1 0.0 425.39160783895494 127.26378287374509 557.30803348332 # Ar
1579 1579 1 0.0 1109.3946275640774 363.85343735262296 363.9218995741104 # Ar
1580 1580 1 0.0 588.1308173233379 358.9641000060334 1175.1406881950386 # Ar
1581 1581 1 0.0 645.5987454771823 897.2686575755044 949.6013703204101 # Ar
1582 1582 1 0.0 1244.7117704035559 490.05112381513436 493.42896769783397 # Ar
1583 1583 1 0.0 278.5431243239153 815.1039244507258 1230.2629651823509 # Ar
1584 1584 1 0.0 768.3472157728403 779.6888098955244 579.9228097470083 # Ar
1585 1585 1 0.0 619.9568079156819 1232.0589345468384 1009.1638121801255 # Ar
1586 1586 1 0.0 588.8755636750323 104.47151036509413 745.4846310297337 # Ar
1587 1587 1 0.0 357.8387571322927 453.2222625464127 1006.4210736317544 # Ar
1588 1588 1 0.0 603.1272563087533 528.6988042320888 1140.7184065074669 # Ar
1589 1589 1 0.0 1165.98252715431 733.1879408194014 56.06224174563989 # Ar
1590 1590 1 0.0 949.1796589400327 1034.8640353255062 588.0362661881792 # Ar
1591 1591 1 0.0 297.855001827353 594.3944915951361 1196.8162254267465 # Ar
1592 1592 1 0.0 23.89173093005765 319.53452468671634 400.33881102165026 # Ar
1593 1593 1 0.0 169.50778164759794 72.32006562715974 550.8293602977564 # Ar
1594 1594 1 0.0 1194.8284620187187 1230.9137144752463 638.1306200114986 # Ar
1595 1595 1 0.0 1111.6572955174884 714.0975811642351 1077.7319435707802 # Ar
1596 1596 1 0.0 349.7170829192648 36.50743926990845 840.4428188494034 # Ar
1597 1597 1 0.0 405.6204635279895 193.11624928841286 368.02390689706834 # Ar
1598 1598 1 0.0 1250.5146586724277 1204.0672023404272 922.6017510535029 # Ar
1599 1599 1 0.0 1164.6014570664884 1251.5243845029063 921.1019500296379 # Ar
1600 1600 1 0.0 117.04253736438385 796.7802492003324 54.539245444311476 # Ar
1601 1601 1 0.0 1170.358562150056 175.9185741913509 1105.7756613281163 # Ar
1602 1602 1 0.0 64.27405541537598 1173.0635809575654 443.9164611938046 # Ar
1603 1603 1 0.0 268.4716611886563 290.17569997265014 1027.3713891660068 # Ar
1604 1604 1 0.0 988.3309483990957 685.5074332365704 110.01838789313531 # Ar
1605 1605 1 0.0 1284.8236233736598 6.847964117761531 946.9373331808682 # Ar
1606 1606 1 0.0 60.93066471028984 670.4516565205149 961.89197899739 # Ar
1607 1607 1 0.0 1071.951996328873 577.6388357162323 119.96422529247533 # Ar
1608 1608 1 0.0 806.8640823500953 775.7154739799944 795.2843463718737 # Ar
1609 1609 1 0.0 1090.8774321728508 631.3450850758333 454.4986839641337 # Ar
1610 1610 1 0.0 885.2514765386467 833.9481669822777 547.5351414294353 # Ar
1611 1611 1 0.0 595.9493968775872 1195.8835651236088 728.8009995614833 # Ar
1612 1612 1 0.0 978.6736894093658 110.27107952312392 1129.1837355938985 # Ar
1613 1613 1 0.0 1056.3230467706621 946.5004257259121 633.4974428141194 # Ar
1614 1614 1 0.0 378.12753017225293 588.2727919830675 894.8264030903609 # Ar
1615 1615 1 0.0 897.2155611984391 461.68052458393055 829.7856429348903 # Ar
1616 1616 1 0.0 103.26026817259222 185.9672252332033 895.6531117194371 # Ar
1617 1617 1 0.0 679.4259640507469 359.2312225836203 1219.4829301105829 # Ar
1618 1618 1 0.0 610.3109398058702 477.77667362224685 760.6366043591631 # Ar
1619 1619 1 0.0 837.7378509534697 145.4723258404769 464.5342444453496 # Ar
1620 1620 1 0.0 15.95358917418286 503.16682903041334 643.9420220950572 # Ar
1621 1621 1 0.0 1027.6881090120173 44.48686347004365 710.3848947885565 # Ar
1622 1622 1 0.0 1245.3895656980387 728.2562518979029 1150.9644379502706 # Ar
1623 1623 1 0.0 515.4919317725286 1226.2289294306347 558.4766700095761 # Ar
1624 1624 1 0.0 1184.817601875181 883.7405098590634 1145.182061368596 # Ar
1625 1625 1 0.0 786.8838652866424 98.96330210789687 872.788417224481 # Ar
1626 1626 1 0.0 1107.8259995409283 353.9750941347859 228.9749880818081 # Ar
1627 1627 1 0.0 321.31210912726044 1201.0072678293209 508.6856543611729 # Ar
1628 1628 1 0.0 507.5937402588868 166.66025037213723 443.9571484931761 # Ar
1629 1629 1 0.0 430.5460431076767 532.0132749355415 318.97075441270704 # Ar
1630 1630 1 0.0 1155.5033740080246 298.000684930775 212.9498913051569 # Ar
1631 1631 1 0.0 172.8407391163452 818.6790845643033 1231.0871407048692 # Ar
1632 1632 1 0.0 532.0397437843467 496.5076483821691 835.4258824557376 # Ar
1633 1633 1 0.0 1170.1216410465413 582.6875256689049 301.5156765441362 # Ar
1634 1634 1 0.0 258.0865669355632 1.0951892753173078 1014.324020575904 # Ar
1635 1635 1 0.0 1013.5968363133857 966.6444887475479 17.453989958903144 # Ar
1636 1636 1 0.0 1209.9327190780077 273.5451988187754 352.0403421367894 # Ar
1637 1637 1 0.0 765.2369193034959 1197.069695790696 656.2851147477468 # Ar
1638 1638 1 0.0 101.34084828983089 1163.4738643478815 1061.954399123517 # Ar
1639 1639 1 0.0 200.16613198190575 782.2658001469351 485.03491899229846 # Ar
1640 1640 1 0.0 754.684587407903 331.72867553338784 65.40628248916082 # Ar
1641 1641 1 0.0 1138.0779087093197 1271.5388788256316 109.50738061195406 # Ar
1642 1642 1 0.0 736.759736607627 625.5397171022316 231.97091491358066 # Ar
1643 1643 1 0.0 1128.0095007473758 288.3642443420226 133.20305519791813 # Ar
1644 1644 1 0.0 109.45642576804352 1188.061908965199 858.2029010108467 # Ar
1645 1645 1 0.0 1277.2709241969628 1280.0839454302575 1088.3960961173366 # Ar
1646 1646 1 0.0 169.1306313957371 524.4578489413486 947.5473665767702 # Ar
1647 1647 1 0.0 873.8393900726415 237.9333808642304 255.495812590753 # Ar
1648 1648 1 0.0 909.1311990064254 1187.0607810441363 115.12082966637335 # Ar
1649 1649 1 0.0 951.3149214343495 1000.6942042131111 981.6131448840481 # Ar
1650 1650 1 0.0 491.63484778811295 206.61665060440674 306.6576362642261 # Ar
1651 1651 1 0.0 191.79432442146762 1121.61603754109 205.59472828151812 # Ar
1652 1652 1 0.0 1175.8155937581596 47.168765541790066 560.9080335823231 # Ar
1653 1653 1 0.0 840.4392900305984 116.60859291827495 254.0184754126862 # Ar
1654 1654 1 0.0 1172.251243642408 1286.343956704367 1149.9353152948474 # Ar
1655 1655 1 0.0 299.8787093173352 310.90897776650297 10.946932800299969 # Ar
1656 1656 1 0.0 216.07366157488892 662.8616048415428 1071.5006713432583 # Ar
1657 1657 1 0.0 327.0580397443828 183.210949242445 767.6018377900531 # Ar
1658 1658 1 0.0 154.98190400599165 662.9487078678658 107.47909368871655 # Ar
1659 1659 1 0.0 788.7082440976397 1062.8311265721627 588.6038372495708 # Ar
1660 1660 1 0.0 832.1578192334944 361.8299501526678 749.4626815421079 # Ar
1661 1661 1 0.0 486.4003458033202 535.2875533301169 354.2230127859092 # Ar
1662 1662 1 0.0 53.915632828684764 1039.3396826390792 1112.3737867661098 # Ar
1663 1663 1 0.0 400.8513268100557 203.69804439760566 399.5455522912745 # Ar
1664 1664 1 0.0 1010.6709312367469 271.3487443842281 668.5073294251348 # Ar
1665 1665 1 0.0 732.6981067140866 1182.1213170584122 78.98482443431247 # Ar
1666 1666 1 0.0 177.05246838531025 566.4787723347793 1009.9756549584893 # Ar
1667 1667 1 0.0 653.1934661182295 925.3263714797502 1015.5691451092453 # Ar
1668 1668 1 0.0 874.5835592382306 463.144128427376 735.4068661777427 # Ar
1669 1669 1 0.0 883.0548099636706 953.5591576787665 1068.6418182785442 # Ar
1670 1670 1 0.0 180.70426727449592 328.5886574434127 309.95939428808595 # Ar
1671 1671 1 0.0 32.12333796665913 835.2588850898654 187.98360587046614 # Ar
1672 1672 1 0.0 364.17716930048795 1174.5016972340384 878.0305898907711 # Ar
1673 1673 1 0.0 1081.2062941715233 383.76469776841196 1255.4076339052003 # Ar
1674 1674 1 0.0 251.14916795753078 605.1076391096792 348.8722638060621 # Ar
1675 1675 1 0.0 747.962533798786 1249.7550779875298 1282.4200447600883 # Ar
1676 1676 1 0.0 457.08498375523396 527.0370978558251 255.42752713233307 # Ar
1677 1677 1 0.0 683.5650306154121 280.03948432894606 993.5721191764671 # Ar
1678 1678 1 0.0 1189.7378456923673 1051.6749947265182 559.4249464075838 # Ar
1679 1679 1 0.0 233.59790033025592 782.9831950433874 1049.0884611850481 # Ar
1680 1680 1 0.0 676.5282217828328 878.490171697449 848.8963499747098 # Ar
1681 1681 1 0.0 141.52043035068786 497.9914633425412 143.1179838516785 # Ar
1682 1682 1 0.0 566.3290600661633 897.8989763381342 252.49112370287045 # Ar
1683 1683 1 0.0 971.0451383371719 119.7564401821659 1210.1884595264557 # Ar
1684 1684 1 0.0 156.25041842154846 506.3184009869359 307.7117433994684 # Ar
1685 1685 1 0.0 403.5106006160407 699.1798081291502 797.1931332822361 # Ar
1686 1686 1 0.0 797.779384924913 596.7970004910455 562.7475323935087 # Ar
1687 1687 1 0.0 598.0041310295693 485.55161417376155 963.4307441887521 # Ar
1688 1688 1 0.0 737.1184929735828 914.8091729711656 1025.5730861395625 # Ar
1689 1689 1 0.0 1006.6353155956681 736.1862533194073 577.6680972552258 # Ar
1690 1690 1 0.0 1009.7853303589413 743.3910983863406 250.05782917670285 # Ar
1691 1691 1 0.0 709.3309587913553 586.2303314922217 908.1675298285195 # Ar
1692 1692 1 0.0 226.69000755407274 860.066281931279 943.2897357426758 # Ar
1693 1693 1 0.0 1113.2392674119205 1192.2436946471541 842.1574627410838 # Ar
1694 1694 1 0.0 1174.3299229122051 85.27519177319667 949.0359625821693 # Ar
1695 1695 1 0.0 1060.5090084513774 1023.4492739992186 58.59142907455172 # Ar
1696 1696 1 0.0 910.6326432563357 1103.806057642599 785.6134807262638 # Ar
1697 1697 1 0.0 668.2934203448744 1037.8597919529639 560.6506958456831 # Ar
1698 1698 1 0.0 80.58977577146534 301.4491853051364 782.9371943653822 # Ar
1699 1699 1 0.0 1231.4492823195758 99.01608292244411 1186.49064624772 # Ar
1700 1700 1 0.0 979.5372085644374 787.6164983292898 1131.7442400841871 # Ar
1701 1701 1 0.0 233.21137621454562 793.7395842968765 722.0676857666487 # Ar
1702 1702 1 0.0 986.4171334791297 292.32430767853884 1083.8096417124855 # Ar
1703 1703 1 0.0 477.6265785814474 782.0763864532936 430.79274324699566 # Ar
1704 1704 1 0.0 211.0722863473219 1148.766666166759 878.4573169169239 # Ar
1705 1705 1 0.0 987.2625780147712 822.3836198570093 156.7717476816542 # Ar
1706 1706 1 0.0 738.7400300822707 345.5503255522411 214.55765638452797 # Ar
1707 1707 1 0.0 176.80789685897506 306.829621766624 106.68762599313887 # Ar
1708 1708 1 0.0 675.5092167613656 101.43729903635399 600.832082470705 # Ar
1709 1709 1 0.0 832.4313918825114 562.3380176908807 1252.7425109180444 # Ar
1710 1710 1 0.0 419.95530936317573 1028.0045703992855 1132.5624280727545 # Ar
1711 1711 1 0.0 936.8923390468124 201.9240657032921 512.8833351274935 # Ar
1712 1712 1 0.0 461.7586596573019 1207.235653434238 97.14688981633245 # Ar
1713 1713 1 0.0 639.3593233946355 1163.571708048479 201.95400304604206 # Ar
1714 1714 1 0.0 779.3766533279332 505.14283980780266 1096.7255587784682 # Ar
1715 1715 1 0.0 125.95319465821055 1270.5882743884185 608.6571235239887 # Ar
1716 1716 1 0.0 598.9983007749626 72.09494330934353 632.8417349137854 # Ar
1717 1717 1 0.0 986.0449986327476 772.2591754653973 1195.9508082362922 # Ar
1718 1718 1 0.0 1115.2475080296263 921.5473190941151 1279.5761522203263 # Ar
1719 1719 1 0.0 1179.0733325377466 807.508891854736 109.60566180644592 # Ar
1720 1720 1 0.0 68.53735344779876 99.22965882366053 661.354365523487 # Ar
1721 1721 1 0.0 198.6226211619203 1198.5816267070832 525.5831294593297 # Ar
1722 1722 1 0.0 443.19779055070256 274.7907071535152 942.8057564286966 # Ar
1723 1723 1 0.0 743.667370052584 491.55449899516884 646.3907241377132 # Ar
1724 1724 1 0.0 924.8495476923863 428.6026754399782 17.86587106170505 # Ar
1725 1725 1 0.0 381.5452310647065 1182.9282838049498 388.6190304647424 # Ar
1726 1726 1 0.0 1068.1575024205763 874.8466418699026 379.9903642297311 # Ar
1727 1727 1 0.0 846.960545044123 314.5670896534501 791.490116616481 # Ar
1728 1728 1 0.0 694.8139099649698 693.8033445043587 1190.1129647202656 # Ar
1729 1729 1 0.0 864.0054222660959 312.7580410974298 170.7330415549322 # Ar
1730 1730 1 0.0 1262.6890841080208 596.380141148942 1239.0057486290782 # Ar
1731 1731 1 0.0 1233.5929636540604 149.3589803046637 993.4258460919926 # Ar
1732 1732 1 0.0 1293.4292503082538 971.6155155538669 380.7129510025182 # Ar
1733 1733 1 0.0 649.6124470846529 350.0247666932191 450.2506985032513 # Ar
1734 1734 1 0.0 211.93964211650842 797.1338376438418 618.5117827380631 # Ar
1735 1735 1 0.0 321.77119437799996 344.46945231241773 1222.2378781516977 # Ar
1736 1736 1 0.0 1045.292892089532 405.1644970022016 584.9241435261423 # Ar
1737 1737 1 0.0 1199.126849921707 194.3474696009206 264.1452198783815 # Ar
1738 1738 1 0.0 439.0180495398949 1287.231827873875 817.8914663139348 # Ar
1739 1739 1 0.0 357.920220172475 496.141018736522 1228.8004082561422 # Ar
1740 1740 1 0.0 69.67947535143487 922.9748176032621 409.4622781392588 # Ar
1741 1741 1 0.0 1286.1786833106669 662.1489749970976 113.16679492753161 # Ar
1742 1742 1 0.0 1237.0806713172026 107.97029295235829 170.6132399734026 # Ar
1743 1743 1 0.0 1029.357880135734 663.2399296842974 273.44568351018546 # Ar
1744 1744 1 0.0 765.900384252647 859.1982377100094 158.44914238951935 # Ar
1745 1745 1 0.0 497.73011976683523 39.444624743438254 797.2474388072807 # Ar
1746 1746 1 0.0 1262.9045729774741 1254.1279375843662 1035.123848691113 # Ar
1747 1747 1 0.0 816.5385386243127 386.53499190321384 174.75323801542663 # Ar
1748 1748 1 0.0 242.8394581123009 1282.1261190220469 633.9145436241228 # Ar
1749 1749 1 0.0 622.1679463206677 281.4264964716559 633.7581588999474 # Ar
1750 1750 1 0.0 186.08332433764159 752.142933979199 473.51925066909996 # Ar
1751 1751 1 0.0 475.7243920639561 671.9942525275734 668.582416655688 # Ar
1752 1752 1 0.0 301.42375112890517 819.681434770211 598.150520848848 # Ar
1753 1753 1 0.0 964.0504924788027 549.2185471781802 270.8831652792492 # Ar
1754 1754 1 0.0 840.0132068485094 472.4717316489668 578.7335908045767 # Ar
1755 1755 1 0.0 1063.3283259678722 9.407212053634812 1276.5039882662213 # Ar
1756 1756 1 0.0 765.1893013880242 17.820606783783084 213.17810149107297 # Ar
1757 1757 1 0.0 858.414986244134 582.6138003932006 744.5264664910991 # Ar
1758 1758 1 0.0 396.4142164049163 242.7820008396752 1052.59908327894 # Ar
1759 1759 1 0.0 1254.6673143389917 574.6593754091506 873.5892046911711 # Ar
1760 1760 1 0.0 567.0152680587657 1103.2196175642896 1273.0061497075808 # Ar
1761 1761 1 0.0 498.92074174563834 430.66900305410627 191.27854977347138 # Ar
1762 1762 1 0.0 744.6352559735769 513.0430680480526 191.87888533410762 # Ar
1763 1763 1 0.0 563.6937911996712 707.2943800122174 763.0708975038611 # Ar
1764 1764 1 0.0 833.2389083069122 668.650773796513 666.8834845996166 # Ar
1765 1765 1 0.0 1065.8442372389277 1281.5711021304114 430.3260241504396 # Ar
1766 1766 1 0.0 903.8630997171975 442.78062104642333 539.4258270694864 # Ar
1767 1767 1 0.0 632.6278064857712 703.9711963411185 943.1934953244909 # Ar
1768 1768 1 0.0 930.538904571516 898.2293992426845 566.1014172138646 # Ar
1769 1769 1 0.0 1219.7668370838717 362.19974510923964 239.9607735130745 # Ar
1770 1770 1 0.0 328.73181819649113 1231.8243014119166 935.806061011523 # Ar
1771 1771 1 0.0 781.7198282614177 1244.5612505095326 361.330648267258 # Ar
1772 1772 1 0.0 537.3583540287202 144.5324835766715 825.8249025084247 # Ar
1773 1773 1 0.0 1176.3585395244381 523.8114161188779 690.2395855719142 # Ar
1774 1774 1 0.0 927.1836481017533 566.9449884230784 616.6031969396699 # Ar
1775 1775 1 0.0 683.7585433788406 467.6642788450364 445.00647029661974 # Ar
1776 1776 1 0.0 353.25484744014574 922.4534530508722 383.02008679128005 # Ar
1777 1777 1 0.0 911.25956137528 165.95326124492468 1232.2047174879397 # Ar
1778 1778 1 0.0 1232.221025769547 862.8122548037828 211.45071387916414 # Ar
1779 1779 1 0.0 7.285974377309611 390.7889706469949 788.8974075231707 # Ar
1780 1780 1 0.0 593.5790866581073 203.6352755210571 403.12355062202886 # Ar
1781 1781 1 0.0 202.38392868522027 1111.424989553239 449.1312922406471 # Ar
1782 1782 1 0.0 1139.3437023135307 798.6169187041656 88.62949477149787 # Ar
1783 1783 1 0.0 227.30151545209378 122.55353046874768 762.4623027253962 # Ar
1784 1784 1 0.0 506.6981243484266 194.75361781318034 729.11604248434 # Ar
1785 1785 1 0.0 1114.5577221314181 970.6213535524985 1141.766854268967 # Ar
1786 1786 1 0.0 635.4093528140171 1124.5798064551261 1181.875031452051 # Ar
1787 1787 1 0.0 486.66407347734673 710.9000070277652 123.43502708556572 # Ar
1788 1788 1 0.0 1111.772074465053 300.3949882809178 511.5666025844432 # Ar
1789 1789 1 0.0 980.9480089424724 637.5379756265135 334.24405486784536 # Ar
1790 1790 1 0.0 157.34717124097725 899.223651232282 189.84543959990978 # Ar
1791 1791 1 0.0 789.0666505031306 1234.2531826896593 801.4886759741668 # Ar
1792 1792 1 0.0 188.26830240774268 673.58291768699 376.7675568684656 # Ar
1793 1793 1 0.0 945.4592791065892 790.0363376843854 22.944938340501547 # Ar
1794 1794 1 0.0 616.8268510999599 73.10351674822456 619.5129875168225 # Ar
1795 1795 1 0.0 1185.4643958663112 24.249810475829193 1130.1258297908203 # Ar
1796 1796 1 0.0 919.5755771757514 638.583330045617 608.8959149695883 # Ar
1797 1797 1 0.0 418.4872361075639 1291.471102644776 95.54150864168044 # Ar
1798 1798 1 0.0 781.0211001907046 493.2851113690247 563.8684776248754 # Ar
1799 1799 1 0.0 185.9741322506702 1231.182253161283 814.6348463286231 # Ar
1800 1800 1 0.0 474.6352587098801 176.81007524132124 555.4997667792703 # Ar
1801 1801 1 0.0 998.8277397874864 776.9612212713635 118.84463208205572 # Ar
1802 1802 1 0.0 999.4934102392268 1280.5996825990824 599.3801336477645 # Ar
1803 1803 1 0.0 516.8732986225152 590.4917546197104 607.7309302673118 # Ar
1804 1804 1 0.0 613.9789762700688 924.3005447837795 1212.401909112461 # Ar
1805 1805 1 0.0 1117.7516899295 321.15132795353367 354.63248091613883 # Ar
1806 1806 1 0.0 1136.6323596411214 486.0115355407633 297.8018981089788 # Ar
1807 1807 1 0.0 995.0322878479118 942.2154032373704 924.5749043945465 # Ar
1808 1808 1 0.0 813.0909692103897 701.0412131323166 437.90438421917077 # Ar
1809 1809 1 0.0 564.071868397949 192.9255176983062 1228.9584615949223 # Ar
1810 1810 1 0.0 1246.926946538695 71.25198489642862 225.8501018670531 # Ar
1811 1811 1 0.0 670.2541285715282 1125.6263405894476 1230.8616278935951 # Ar
1812 1812 1 0.0 153.12812034394895 318.0997622851669 575.2932342534173 # Ar
1813 1813 1 0.0 52.192979948562126 11.214479138854303 1192.8259704634108 # Ar
1814 1814 1 0.0 427.3661121348375 208.27178537719251 625.3563711118071 # Ar
1815 1815 1 0.0 959.1590908813196 134.2892142464929 395.335428607571 # Ar
1816 1816 1 0.0 429.0787389192693 629.0134267046627 1200.074299098392 # Ar
1817 1817 1 0.0 673.762416333094 309.75308992587884 115.42817443516506 # Ar
1818 1818 1 0.0 307.44492119909415 801.0538754387899 1262.6842005360925 # Ar
1819 1819 1 0.0 440.3120159966786 1037.346999407005 1032.292316176681 # Ar
1820 1820 1 0.0 1006.5948730360377 89.26783236124717 162.2618138558103 # Ar
1821 1821 1 0.0 785.8045403142121 1216.439517955255 509.93346457047795 # Ar
1822 1822 1 0.0 823.2711984168695 593.1303209095224 888.6891425583184 # Ar
1823 1823 1 0.0 1130.1003239805605 511.5410829570948 1241.00279693996 # Ar
1824 1824 1 0.0 257.3112437849837 418.01646402376286 1003.6662487243304 # Ar
1825 1825 1 0.0 384.13760872859285 1277.8295025185869 1121.6854290651934 # Ar
1826 1826 1 0.0 838.2675191371144 328.6758049455557 951.547329300466 # Ar
1827 1827 1 0.0 27.936566762402865 1081.7372300437628 642.0920985838289 # Ar
1828 1828 1 0.0 236.486355610279 224.48619752755636 857.0207061751124 # Ar
1829 1829 1 0.0 651.9338405172566 1008.4580054325163 66.4794552731974 # Ar
1830 1830 1 0.0 757.1296063138404 734.8585008599348 350.61637550518225 # Ar
1831 1831 1 0.0 1107.3542606468638 1250.6276986662847 119.29272994739266 # Ar
1832 1832 1 0.0 978.0496504880451 720.1685386624673 1238.4783787730062 # Ar
1833 1833 1 0.0 449.27507382182586 1022.9966406551298 116.9968359810203 # Ar
1834 1834 1 0.0 1196.9270010009814 875.0412173898067 1212.8082192959496 # Ar
1835 1835 1 0.0 966.6935690781416 269.62469608746443 172.561303986705 # Ar
1836 1836 1 0.0 164.62270353156467 1068.9977820624604 639.9328647644184 # Ar
1837 1837 1 0.0 175.8430942238021 114.4501862674855 182.67249787711305 # Ar
1838 1838 1 0.0 996.2578056404103 679.2832312458636 1006.2564218348334 # Ar
1839 1839 1 0.0 525.1372853203139 248.18931627420378 780.2585929999836 # Ar
1840 1840 1 0.0 124.88584990030999 1020.2771597630108 1043.6884591626892 # Ar
1841 1841 1 0.0 173.03669498186431 287.286715530167 145.4492046936471 # Ar
1842 1842 1 0.0 380.8909769037719 413.5064888585928 350.08484122818146 # Ar
1843 1843 1 0.0 77.4992030881357 775.4049125236535 564.5048375392201 # Ar
1844 1844 1 0.0 457.1114561801559 704.8931086636416 457.3238834207679 # Ar
1845 1845 1 0.0 570.4177173612477 505.72391364781953 336.49398149379186 # Ar
1846 1846 1 0.0 1254.9636897292912 927.3619349309112 91.53837473545558 # Ar
1847 1847 1 0.0 172.21114156363322 690.2156110439989 502.94981204791276 # Ar
1848 1848 1 0.0 100.44951612718295 1241.7944002564104 1154.1111298684855 # Ar
1849 1849 1 0.0 625.5562019571502 1270.8097734918288 44.75443047874987 # Ar
1850 1850 1 0.0 192.07928974951375 578.4276779466533 827.2952203824443 # Ar
1851 1851 1 0.0 260.63076821877735 1085.0874779086041 119.62318805494195 # Ar
1852 1852 1 0.0 845.4391465258187 954.4553788525944 193.54246009377783 # Ar
1853 1853 1 0.0 364.8494347461521 653.5100331378101 926.8401740130838 # Ar
1854 1854 1 0.0 1019.3986331068073 7.586653821935093 980.2787583875834 # Ar
1855 1855 1 0.0 183.92342783210867 561.4740116643328 631.8676880835145 # Ar
1856 1856 1 0.0 735.3997673085148 915.7591295021501 552.5572515669745 # Ar
1857 1857 1 0.0 717.4859165487578 257.6685695590872 921.4112933443389 # Ar
1858 1858 1 0.0 900.5984498312813 555.6225495963322 409.8806571407219 # Ar
1859 1859 1 0.0 1278.0124645377075 667.178361214673 1055.2076048235801 # Ar
1860 1860 1 0.0 120.65819012684638 1179.127296256142 416.7714860485104 # Ar
1861 1861 1 0.0 354.34894477843864 749.4643574305575 643.9855849567099 # Ar
1862 1862 1 0.0 1151.2511282598034 995.7551262812099 146.01226028085534 # Ar
1863 1863 1 0.0 1126.4898506344523 154.8152711105963 882.6345791825042 # Ar
1864 1864 1 0.0 1.856166321649143 48.19199244473504 279.3444484735761 # Ar
1865 1865 1 0.0 1204.888471428191 370.66372946028616 387.8025943927726 # Ar
1866 1866 1 0.0 531.5922920255072 1138.11800211906 388.1582428159294 # Ar
1867 1867 1 0.0 703.9504977076307 1005.8632772516584 956.7706147274067 # Ar
1868 1868 1 0.0 997.5438363056479 1235.7855624113558 340.8814493827314 # Ar
1869 1869 1 0.0 307.1277985965302 253.44767472862745 327.2325723694672 # Ar
1870 1870 1 0.0 46.98590990705001 1289.2911377373186 301.6461815646941 # Ar
1871 1871 1 0.0 422.62886989639446 845.4502691028601 1258.408394848001 # Ar
1872 1872 1 0.0 285.75284746178863 708.8522632576837 343.70916771030704 # Ar
1873 1873 1 0.0 123.57590512561751 202.3738738198892 820.8747119450428 # Ar
1874 1874 1 0.0 338.44571576196324 134.1558202954584 1105.715821849334 # Ar
1875 1875 1 0.0 823.1222600886089 219.7683075906781 240.686585537272 # Ar
1876 1876 1 0.0 227.69433676634443 69.20593980692065 1225.3683598085577 # Ar
1877 1877 1 0.0 1000.6251431472432 761.3912670457152 898.700013829226 # Ar
1878 1878 1 0.0 430.5470273480766 705.1088824133351 1087.1881680760057 # Ar
1879 1879 1 0.0 865.9528126680639 1076.5880847536043 148.11837523034038 # Ar
1880 1880 1 0.0 1085.279933016458 626.4193493523059 899.6587457862083 # Ar
1881 1881 1 0.0 234.94530381809662 133.63609189862467 707.3995191157687 # Ar
1882 1882 1 0.0 616.2610038254822 129.22189694836413 365.55667478646836 # Ar
1883 1883 1 0.0 1137.8726919179528 231.7815108077675 929.0014725820681 # Ar
1884 1884 1 0.0 842.2758242801938 1266.0581655774251 960.807094104683 # Ar
1885 1885 1 0.0 227.8005502186625 952.7236149635573 1042.3692356121503 # Ar
1886 1886 1 0.0 95.6742119036699 1280.4248864674864 1197.878799099747 # Ar
1887 1887 1 0.0 693.112315487885 738.3720093373797 305.6895149413033 # Ar
1888 1888 1 0.0 785.5474213860484 1242.3902110959484 692.2072598964185 # Ar
1889 1889 1 0.0 351.51090244769347 593.3529682960136 398.1219746089558 # Ar
1890 1890 1 0.0 1260.718479063752 376.7719204020824 32.04276278056311 # Ar
1891 1891 1 0.0 489.2040069912174 983.9335700360992 155.95957176058926 # Ar
1892 1892 1 0.0 293.49315249331784 352.9506752109278 263.566276395749 # Ar
1893 1893 1 0.0 280.965542031725 516.1268436151876 765.0735770291986 # Ar
1894 1894 1 0.0 539.1793104715297 1159.2903880060492 144.62690673431499 # Ar
1895 1895 1 0.0 241.9819311784866 763.8786010339065 450.9782533148816 # Ar
1896 1896 1 0.0 219.42382151882288 1230.9332983750392 861.7186325605663 # Ar
1897 1897 1 0.0 752.886633975275 129.29148981196036 1034.9434510461476 # Ar
1898 1898 1 0.0 926.709699889088 245.60071594026587 1100.8295114490838 # Ar
1899 1899 1 0.0 562.6858918571282 926.0466271502698 566.2924863312144 # Ar
1900 1900 1 0.0 434.7901374068451 614.3461348150462 39.47945017090922 # Ar
1901 1901 1 0.0 1195.0549155698973 185.3306507246742 1292.6448292011414 # Ar
1902 1902 1 0.0 299.1778897751354 1233.2395607441042 1124.9051541870363 # Ar
1903 1903 1 0.0 250.0012470151776 782.8354024425305 512.6884847821957 # Ar
1904 1904 1 0.0 158.60449560486114 844.0968153587901 1019.6115809284767 # Ar
1905 1905 1 0.0 625.7331143903508 368.1057344663571 729.9594057752641 # Ar
1906 1906 1 0.0 381.7090228050294 474.47336842131466 526.457548330613 # Ar
1907 1907 1 0.0 270.35809341006535 647.8160555047314 459.0348391329911 # Ar
1908 1908 1 0.0 643.9453060419064 120.49440425204287 207.81801520055896 # Ar
1909 1909 1 0.0 129.49204775933887 1283.607708056866 466.6799965570117 # Ar
1910 1910 1 0.0 957.1038340190062 293.72402064754095 362.79087834367147 # Ar
1911 1911 1 0.0 1278.5697529583165 568.9807121142221 132.47737280651268 # Ar
1912 1912 1 0.0 118.92710002045222 1251.066391004923 1180.9969461179774 # Ar
1913 1913 1 0.0 699.3479149557668 433.45745830484805 448.91038318089875 # Ar
1914 1914 1 0.0 48.24593755566285 389.6061502793462 172.1633713367372 # Ar
1915 1915 1 0.0 708.1954019467745 1034.7064300047143 1045.486959468118 # Ar
1916 1916 1 0.0 430.509394517124 86.13756881640684 380.78267493487715 # Ar
1917 1917 1 0.0 461.68420158725576 209.16651931470204 888.1971887518997 # Ar
1918 1918 1 0.0 375.88561795533934 594.4355810869259 1074.665459855743 # Ar
1919 1919 1 0.0 858.1506818023805 995.8476263621964 202.1267914403338 # Ar
1920 1920 1 0.0 466.46594916638617 456.50503060798883 7.012669014947548 # Ar
1921 1921 1 0.0 343.8367273714693 275.0993031099287 141.617083228307 # Ar
1922 1922 1 0.0 913.8516423482171 720.5487127656249 736.2127034369014 # Ar
1923 1923 1 0.0 85.52842086506972 457.9557967912739 334.3450621922066 # Ar
1924 1924 1 0.0 161.3623721973457 144.10197247511533 928.6832385234237 # Ar
1925 1925 1 0.0 277.1697017896186 48.911624875836864 285.4199424313511 # Ar
1926 1926 1 0.0 639.8887669403763 1148.826026921154 272.3281847901628 # Ar
1927 1927 1 0.0 565.4378153244876 656.9007087300166 266.7136632581803 # Ar
1928 1928 1 0.0 295.75697029392586 1194.4080717777354 823.8053772962236 # Ar
1929 1929 1 0.0 511.37048485119857 650.9623484440145 246.27996244911407 # Ar
1930 1930 1 0.0 809.0592927190676 422.910253380269 1260.5677733976954 # Ar
1931 1931 1 0.0 89.18352551072661 919.0378197498131 267.2913411951499 # Ar
1932 1932 1 0.0 665.6540571496498 51.80698929015249 290.06176568791955 # Ar
1933 1933 1 0.0 1228.5996627241532 492.75202839080646 1189.4751340063901 # Ar
1934 1934 1 0.0 126.24620208813681 997.8399946626687 194.98229300365998 # Ar
1935 1935 1 0.0 589.4951411523078 43.891688003614945 597.6152000169325 # Ar
1936 1936 1 0.0 686.9180093936031 173.17709634625785 1059.4910037059403 # Ar
1937 1937 1 0.0 518.8552679362776 75.27829995460225 75.38946120540314 # Ar
1938 1938 1 0.0 649.7688451246545 309.6563227955049 1022.9513908747622 # Ar
1939 1939 1 0.0 1292.7932748388257 176.58454000978293 521.9637233331373 # Ar
1940 1940 1 0.0 191.220549553717 912.4383606433436 1235.2336146429975 # Ar
1941 1941 1 0.0 912.6758289379554 977.2143017170713 101.9118459392624 # Ar
1942 1942 1 0.0 539.088429178809 129.71963307008878 449.77366942549014 # Ar
1943 1943 1 0.0 732.3381653422445 678.2543280307431 1034.1232778826723 # Ar
1944 1944 1 0.0 925.5869306275654 1118.9378544160827 193.93013800312863 # Ar
1945 1945 1 0.0 1267.096511298157 738.3259276646453 344.4164873430191 # Ar
1946 1946 1 0.0 1195.1514556924212 1261.5355670293002 980.5832212693937 # Ar
1947 1947 1 0.0 1155.971304593268 1158.3563689852274 1045.5039631400466 # Ar
1948 1948 1 0.0 212.41788233226208 1101.2000922993175 1268.7528114559152 # Ar
1949 1949 1 0.0 11.33909771031009 676.1773216033271 336.3203502645989 # Ar
1950 1950 1 0.0 677.0453386256879 420.559063646016 266.80929341812725 # Ar
1951 1951 1 0.0 323.5470205252428 979.6141695670146 90.07122109037944 # Ar
1952 1952 1 0.0 401.1592933689144 350.1596469556674 469.882997712955 # Ar
1953 1953 1 0.0 1224.3314676351938 888.8317160940561 138.65888884317485 # Ar
1954 1954 1 0.0 816.7123175282696 977.7441498917506 621.2920092886303 # Ar
1955 1955 1 0.0 1190.685967534258 71.66178484756826 880.144584780078 # Ar
1956 1956 1 0.0 942.586088846133 215.0103835089303 1121.630464323969 # Ar
1957 1957 1 0.0 1188.923869845358 802.0895680597972 956.671962888604 # Ar
1958 1958 1 0.0 393.93377029421174 125.65029532629632 56.922285979767715 # Ar
1959 1959 1 0.0 925.5844891707649 1183.2263130816307 392.60862044660786 # Ar
1960 1960 1 0.0 803.0708766749324 1099.214028933039 1069.7118352300572 # Ar
1961 1961 1 0.0 266.5103256564171 1263.475540223899 4.930157556212764 # Ar
1962 1962 1 0.0 927.3391728090247 1173.1992093420718 224.48068327660073 # Ar
1963 1963 1 0.0 1107.2999826913021 524.8110676614551 730.7619191711676 # Ar
1964 1964 1 0.0 1288.3151718979043 1218.1870720328718 978.6815361256004 # Ar
1965 1965 1 0.0 845.0193367294255 1295.7689666730219 991.8560630460806 # Ar
1966 1966 1 0.0 234.6077788594153 824.0441592886474 1214.8379158380062 # Ar
1967 1967 1 0.0 910.3801728595732 478.5207396976899 610.4403455128663 # Ar
1968 1968 1 0.0 956.5556711891483 645.9413502243762 122.10856600087408 # Ar
1969 1969 1 0.0 93.29882744225671 506.97039299056866 961.6630923686884 # Ar
1970 1970 1 0.0 339.91644617462435 687.1069986113013 1193.8976732190843 # Ar
1971 1971 1 0.0 348.9847034032979 859.8954311866787 876.3917614046305 # Ar
1972 1972 1 0.0 474.1890657547132 559.9736911974542 791.7925692480165 # Ar
1973 1973 1 0.0 1151.2435222197835 1204.5896661920876 667.3966336660527 # Ar
1974 1974 1 0.0 643.4053439278077 794.0669116524952 823.5903016137654 # Ar
1975 1975 1 0.0 212.88426805849264 644.4326381558477 269.31171369360754 # Ar
1976 1976 1 0.0 1246.8350780855658 650.6992588557584 787.9220927588541 # Ar
1977 1977 1 0.0 164.45252393385138 736.8100649042384 302.9897182300785 # Ar
1978 1978 1 0.0 791.8902212151957 603.8660123123378 1175.9386827100077 # Ar
1979 1979 1 0.0 1158.1370519459556 429.65765807162876 564.8179299329101 # Ar
1980 1980 1 0.0 589.6054753284684 516.058198181472 1204.2103416513935 # Ar
1981 1981 1 0.0 745.8968970594444 728.8774947108968 514.0138975232156 # Ar
1982 1982 1 0.0 880.403012635214 504.8971200580536 876.0370176585869 # Ar
1983 1983 1 0.0 759.509928937012 94.28169730913902 1177.2627334486604 # Ar
1984 1984 1 0.0 716.8054697924367 76.06832133497356 1217.219372751424 # Ar
1985 1985 1 0.0 257.91495776070974 122.6535115983809 1227.6150870814795 # Ar
1986 1986 1 0.0 89.64077150227483 629.3550933670441 1169.3242153749247 # Ar
1987 1987 1 0.0 588.5182190714116 917.2606243233844 533.4828756352601 # Ar
1988 1988 1 0.0 637.5412650212136 1205.6685286419715 805.558602502661 # Ar
1989 1989 1 0.0 58.55325574947097 68.561837338191 741.504032447338 # Ar
1990 1990 1 0.0 234.35091170977213 670.3021087607129 998.9887813151045 # Ar
1991 1991 1 0.0 134.86929124737736 547.9610095534598 220.8014037177647 # Ar
1992 1992 1 0.0 1145.105690254829 521.5105176931803 1177.6447175411108 # Ar
1993 1993 1 0.0 1075.9989707294787 652.4577449026735 772.0365755445509 # Ar
1994 1994 1 0.0 85.95495829177949 1224.1791443012428 484.25723433752944 # Ar
1995 1995 1 0.0 184.2043631801535 300.0969133688548 588.8248839713177 # Ar
1996 1996 1 0.0 142.8804365179859 290.7448964548999 513.7593341466699 # Ar
1997 1997 1 0.0 159.48405616479408 624.6418321692516 345.21707374533065 # Ar
1998 1998 1 0.0 1000.4006186731488 709.5961216213332 340.24568565624475 # Ar
1999 1999 1 0.0 1062.4178312099168 1211.1597405766818 254.33619106492768 # Ar
2000 2000 1 0.0 1137.7957563304064 1146.4359309156532 1137.3717479709721 # Ar
