LAMMPS data file -- atom_style full -- generated by chemfiles
2000 atoms
0 bonds
0 angles
0 dihedrals
0 impropers
1 atom types
0 bond types
0 angle types
0 dihedral types
0 improper types
0.00000000 1240.21859 xlo xhi
0.00000000 1240.21859 ylo yhi
0.00000000 1240.21859 zlo zhi

# Pair Coeffs
# 1 Ar

Masses

1 39.948 # Ar

Atoms # full

1 1 1 0.0 60.791109982034705 235.1769638828262 1113.6548495461288 # Ar
2 2 1 0.0 1211.4717436795036 424.0807217158686 613.2985087004616 # Ar
3 3 1 0.0 1083.2397526654436 275.5207255854777 720.505134631925 # Ar
4 4 1 0.0 1213.9223796331873 513.8834906128718 492.0046313438671 # Ar
5 5 1 0.0 748.5790727450272 758.7056071777688 568.4755066369222 # Ar
6 6 1 0.0 576.9024168351951 1124.1689961274378 164.34770767951386 # Ar
7 7 1 0.0 937.5495689060501 401.28772479760886 901.1278723112938 # Ar
8 8 1 0.0 269.5047230297398 47.90047418186465 994.9724399133358 # Ar
9 9 1 0.0 272.6303382735364 206.5262406912514 620.7143298446484 # Ar
10 10 1 0.0 748.2608630457133 990.658099921559 1160.6917332770633 # Ar
11 11 1 0.0 1164.5747853151427 563.100674045973 677.6244685846423 # Ar
12 12 1 0.0 1005.076852192568 818.5147317601522 728.0816859186631 # Ar
13 13 1 0.0 369.2707026405376 632.705349068813 457.9459559246351 # Ar
14 14 1 0.0 581.1218831865497 618.8446498253189 1114.643858961596 # Ar
15 15 1 0.0 293.88717920584173 681.2929867240423 923.8691148739172 # Ar
16 16 1 0.0 546.254737106667 1025.5335203955872 694.2932867384776 # Ar
17 17 1 0.0 815.1552848954452 194.65883423198323 52.29510293015966 # Ar
18 18 1 0.0 200.24274272579976 907.4469624492345 1145.7295363206208 # Ar
19 19 1 0.0 1134.8265310297213 294.2169535089864 289.6717859161847 # Ar
20 20 1 0.0 591.1057692952195 84.01548467076165 1219.341291331214 # Ar
21 21 1 0.0 249.90783813383095 661.3107493359463 328.7615941243137 # Ar
22 22 1 0.0 382.3254486200944 345.04156361505204 150.0162270317181 # Ar
23 23 1 0.0 918.0565868845658 1147.5314494008219 1151.0427610214629 # Ar
24 24 1 0.0 600.1659958009808 1004.9584799097682 338.64982545942905 # Ar
25 25 1 0.0 325.57483024447663 824.8806164523635 1064.2799421710276 # Ar
26 26 1 0.0 305.03944797372736 780.4159673968313 361.2913145138514 # Ar
27 27 1 0.0 808.3171036214169 418.89623913760397 568.4354739403229 # Ar
28 28 1 0.0 463.20043877041553 473.43718115070345 1142.398920074191 # Ar
29 29 1 0.0 954.7202451909155 555.9430285566482 1140.197407309296 # Ar
30 30 1 0.0 734.9613893111182 396.6425034953313 415.5052548819661 # Ar
31 31 1 0.0 412.75041182759287 473.15606668496815 800.6488549008673 # Ar
32 32 1 0.0 829.584270665178 120.47952732351624 409.8958735938266 # Ar
33 33 1 0.0 115.02976409044571 299.29488240484335 642.8922630247499 # Ar
34 34 1 0.0 509.0878081278784 505.2231810803978 737.8920967596191 # Ar
35 35 1 0.0 24.7997095819986 301.2519207385934 178.9472869866121 # Ar
36 36 1 0.0 777.1027903346769 595.9158694539109 852.8851689633892 # Ar
37 37 1 0.0 279.7837770431064 394.59941915354113 372.48806585964644 # Ar
38 38 1 0.0 118.68749607948764 253.5313106684072 306.3931799807493 # Ar
39 39 1 0.0 212.16111100782487 866.1382530021372 841.9563336522514 # Ar
40 40 1 0.0 156.1461886609797 1190.1080918215243 300.78646300688933 # Ar
41 41 1 0.0 822.8580340766184 511.02046122443437 277.880116924153 # Ar
42 42 1 0.0 847.9655841429433 947.4654208635351 412.0054142864022 # Ar
43 43 1 0.0 1237.006803573694 440.14216356797465 1000.11007423353 # Ar
44 44 1 0.0 1204.1025029807101 600.938657625483 178.54691186996283 # Ar
45 45 1 0.0 840.4080656511728 1233.0490898672147 837.8622259865584 # Ar
46 46 1 0.0 97.65605305100617 193.1699639191039 707.4771239140206 # Ar
47 47 1 0.0 602.0716188435191 230.2575762701545 280.7330164056005 # Ar
48 48 1 0.0 163.50732951270462 317.2976688042906 355.1586011687328 # Ar
49 49 1 0.0 837.3718141352778 1058.3638784296277 1231.7492033166307 # Ar
50 50 1 0.0 1216.1290172154809 440.90825851012056 199.02496057330254 # Ar
51 51 1 0.0 637.0767450800979 1152.4685790471533 542.3021798575544 # Ar
52 52 1 0.0 767.0933868050685 1114.1240656270488 665.6880802484294 # Ar
53 53 1 0.0 1184.5955656956994 327.08391468993443 593.1001412765536 # Ar
54 54 1 0.0 323.9095789363975 617.432236568158 591.4404279111058 # Ar
55 55 1 0.0 276.0019348439668 26.333337524572244 1.6142450249628142 # Ar
56 56 1 0.0 473.32575607831063 1221.634767323514 1107.7061406471123 # Ar
57 57 1 0.0 131.45288883894412 947.5471866358613 1081.1980918425795 # Ar
58 58 1 0.0 410.08845143625973 110.47853741830346 185.65045898376576 # Ar
59 59 1 0.0 96.0861956089783 930.5495596509548 421.5237848369022 # Ar
60 60 1 0.0 377.12649588085486 464.6818295787644 528.1350865689624 # Ar
61 61 1 0.0 711.3575677548911 592.302060096731 578.4324661481833 # Ar
62 62 1 0.0 340.09915754367177 617.354870201896 1159.3945365373727 # Ar
63 63 1 0.0 467.4345390963914 745.1474442630123 1128.2070129318756 # Ar
64 64 1 0.0 938.7111301332162 452.4474043794276 116.07568611220611 # Ar
65 65 1 0.0 805.5338604598952 479.17613947315056 154.83075222975603 # Ar
66 66 1 0.0 253.97504580423066 815.557216458345 1107.6615710017986 # Ar
67 67 1 0.0 889.4441953473784 658.5408546393252 286.3195534624443 # Ar
68 68 1 0.0 1092.5383704841054 550.8202886481669 1007.651985807573 # Ar
69 69 1 0.0 285.56242974522024 278.37075818260263 1161.873394646602 # Ar
70 70 1 0.0 389.90692603385173 697.1677171685104 37.71601748664792 # Ar
71 71 1 0.0 1095.411584185805 257.59565653555035 89.77632493127363 # Ar
72 72 1 0.0 265.79060153805466 634.142648026047 1135.5853120560055 # Ar
73 73 1 0.0 907.4507029628516 888.0662548610915 966.307591136891 # Ar
74 74 1 0.0 394.81320817607383 677.6053200699678 220.78724477498037 # Ar
75 75 1 0.0 803.7088392281718 846.6297442506337 771.2855144730357 # Ar
76 76 1 0.0 50.219563575211076 1047.6282606304424 683.0745440066206 # Ar
77 77 1 0.0 245.35681328788837 199.71677571558345 660.9249801673485 # Ar
78 78 1 0.0 268.7196561375149 697.0503551522424 484.9679148496641 # Ar
79 79 1 0.0 1115.3729641108098 518.8416887822468 1102.0580876434574 # Ar
80 80 1 0.0 412.54788469844084 190.04127818978534 828.0972198212206 # Ar
81 81 1 0.0 1039.392065302697 576.128198436163 602.0721350755452 # Ar
82 82 1 0.0 1157.5910150814439 778.0081401199842 566.6480566620005 # Ar
83 83 1 0.0 125.10567162042724 345.5652241095627 774.8529371115674 # Ar
84 84 1 0.0 976.2327144831299 1237.6342510336583 265.693201382442 # Ar
85 85 1 0.0 293.17158486927957 547.9383735634447 5.557105431631498 # Ar
86 86 1 0.0 1137.2834823354372 130.25035353804407 858.589744156975 # Ar
87 87 1 0.0 315.1954055253266 593.6134262982823 758.2110350287379 # Ar
88 88 1 0.0 1017.1187155606377 358.5183467423264 1092.86850597347 # Ar
89 89 1 0.0 608.7655097623003 1078.9292620744066 463.69147996626356 # Ar
90 90 1 0.0 240.8482048635256 379.78232528808564 460.5495184639053 # Ar
91 91 1 0.0 1133.5621169343335 77.40524352249061 577.0250604296443 # Ar
92 92 1 0.0 586.3856743733746 433.6714569214736 981.4525750359895 # Ar
93 93 1 0.0 815.6301468474574 1031.4708996580446 857.9590708676358 # Ar
94 94 1 0.0 1135.7398222453803 892.5327806019897 71.2037876793069 # Ar
95 95 1 0.0 321.01430858655857 385.73735955735754 595.081332692316 # Ar
96 96 1 0.0 351.8432101929806 744.009994158754 973.6693789669004 # Ar
97 97 1 0.0 803.8631604450815 362.83688159292143 1100.55738727185 # Ar
98 98 1 0.0 248.2902629187816 1052.0574174089702 612.9896470355984 # Ar
99 99 1 0.0 905.5872318753866 1133.1251512540537 1154.0492745886793 # Ar
100 100 1 0.0 1020.644371152 395.65179906130373 534.49828003729 # Ar
101 101 1 0.0 231.9280834571912 292.91758923428006 892.9896308423748 # Ar
102 102 1 0.0 77.60069097283358 879.8987490473627 557.2985171478739 # Ar
103 103 1 0.0 295.8223977332858 1204.2348990774935 455.28947504318666 # Ar
104 104 1 0.0 691.7172966856659 1099.5724738218676 320.97021062343083 # Ar
105 105 1 0.0 677.4407455475872 353.94749523629724 775.1851066397952 # Ar
106 106 1 0.0 1168.3161554279563 118.54934229335072 242.47345783126315 # Ar
107 107 1 0.0 824.3698767153892 626.80223707973 627.7442091387283 # Ar
108 108 1 0.0 539.1909567208062 1212.7500194764766 790.4275602328364 # Ar
109 109 1 0.0 377.36928894796387 1063.658817875017 1123.4239001850156 # Ar
110 110 1 0.0 943.5213387685104 730.5962229422887 1134.9997021326692 # Ar
111 111 1 0.0 189.10994112039296 813.0314708332653 102.01617559691789 # Ar
112 112 1 0.0 855.3357804768197 1026.8661210515872 906.5454647821391 # Ar
113 113 1 0.0 841.1515858666781 326.45435808295707 819.2031080605409 # Ar
114 114 1 0.0 1190.0973219027258 147.84522785244306 945.6104556284607 # Ar
115 115 1 0.0 784.6269956118425 842.3568022282705 761.0178528501656 # Ar
116 116 1 0.0 149.74790163323598 542.8038113655475 337.5384668843638 # Ar
117 117 1 0.0 630.7776904263378 502.28775982838977 632.665695583028 # Ar
118 118 1 0.0 882.2588483202142 527.620384707126 1057.082680914733 # Ar
119 119 1 0.0 742.9313248593212 1134.0345832263115 654.6934404914508 # Ar
120 120 1 0.0 589.8455402283072 549.5053838505677 1151.3088515971438 # Ar
121 121 1 0.0 629.7093779856592 1155.7791078753955 1126.0215696003334 # Ar
122 122 1 0.0 898.8858493713038 1220.8987269180225 374.33956100037034 # Ar
123 123 1 0.0 133.7715967636656 86.77786358276758 766.4022342155084 # Ar
124 124 1 0.0 410.6362495994336 1155.8904835199896 961.1703446267369 # Ar
125 125 1 0.0 135.4275945571388 1099.0147557633627 954.4868873190222 # Ar
126 126 1 0.0 754.1946205055078 1128.9598713677772 420.74617724145054 # Ar
127 127 1 0.0 853.7591473965739 950.0837089073518 583.1652777808729 # Ar
128 128 1 0.0 1195.2760303959003 993.608790344905 838.8556313283675 # Ar
129 129 1 0.0 898.0143445999468 472.3031913226407 725.2908996689717 # Ar
130 130 1 0.0 402.33513146661653 486.76148868680457 277.7975500933134 # Ar
131 131 1 0.0 1072.4973469525908 1211.1640808896484 448.779617098569 # Ar
132 132 1 0.0 147.6097374472176 284.18169016065013 11.679975507762384 # Ar
133 133 1 0.0 490.50250156631347 766.8997401631116 1020.0595106023832 # Ar
134 134 1 0.0 255.50931579572995 1110.00231072797 709.170135854695 # Ar
135 135 1 0.0 752.1047047966991 1066.9343232831961 821.7113040969655 # Ar
136 136 1 0.0 1050.2751611425533 256.1158239177478 468.5697061813438 # Ar
137 137 1 0.0 29.70666779071841 310.6398277554735 683.2287607924028 # Ar
138 138 1 0.0 625.6543975866869 38.60770405451693 510.84783848572795 # Ar
139 139 1 0.0 389.008525144968 27.68935765777369 586.8380869444969 # Ar
140 140 1 0.0 729.1992871451871 648.6252214905742 15.59127684779163 # Ar
141 141 1 0.0 325.647806044609 971.2737810000137 1075.3966161598757 # Ar
142 142 1 0.0 391.87139817937 42.25973141802392 1211.9148208874533 # Ar
143 143 1 0.0 1145.4074453937608 634.635263153381 542.0698478262468 # Ar
144 144 1 0.0 575.5504171650574 1120.0009467368513 664.4105252489179 # Ar
145 145 1 0.0 909.0382839774422 947.3800488876329 159.16146951297966 # Ar
146 146 1 0.0 1035.6400030306959 578.4148761271849 1131.8428065963778 # Ar
147 147 1 0.0 121.94727741313213 249.1913858168025 585.4874748764573 # Ar
148 148 1 0.0 31.61754318528915 195.3805665846299 270.9045277171738 # Ar
149 149 1 0.0 768.1177707717073 992.7323266727154 363.0567235709922 # Ar
150 150 1 0.0 938.2627053011895 268.3505264471764 1031.264592484756 # Ar
151 151 1 0.0 242.51688260012136 615.5844898960657 110.32928588616049 # Ar
152 152 1 0.0 702.901259052029 1147.6554001347547 400.90937144796555 # Ar
153 153 1 0.0 309.2114041024929 874.8135170103961 524.2365151992001 # Ar
154 154 1 0.0 42.377537669847435 979.4517937437654 3.6229537281682616 # Ar
155 155 1 0.0 426.61341276826664 824.4890006196342 320.3576207805222 # Ar
156 156 1 0.0 424.2844742755469 181.66694817172169 858.26356689663 # Ar
157 157 1 0.0 800.5980181388452 818.3032030244664 1179.919225580373 # Ar
158 158 1 0.0 837.6336841858489 1184.9604184404982 86.66137582237529 # Ar
159 159 1 0.0 605.1795609580956 79.14540495105683 1217.9336477074585 # Ar
160 160 1 0.0 551.8016179929228 722.9987004015886 214.36452747786706 # Ar
161 161 1 0.0 588.4561175896164 830.8159472975985 1236.691841251943 # Ar
162 162 1 0.0 94.3527280137945 315.3773138665767 330.89441186545235 # Ar
163 163 1 0.0 1054.5594170300487 842.4785194327492 137.5066236918999 # Ar
164 164 1 0.0 1124.143917921032 580.1601407811135 66.97721154527329 # Ar
165 165 1 0.0 627.7405156777445 518.0412836090532 458.76427879609247 # Ar
166 166 1 0.0 951.550607012842 573.2386972379815 1183.7822387467368 # Ar
167 167 1 0.0 301.71312833526395 799.6731848020626 296.7174802382978 # Ar
168 168 1 0.0 1049.1001537839404 121.429905559794 588.5589696413704 # Ar
169 169 1 0.0 482.6044453382417 121.61030859685799 137.8600745964989 # Ar
170 170 1 0.0 481.40724713852154 1023.6599365014254 880.459821235397 # Ar
171 171 1 0.0 897.3369736014706 655.7431487054458 493.34249994372857 # Ar
172 172 1 0.0 57.015446136409224 1.7911217831873245 1044.4465776091845 # Ar
173 173 1 0.0 285.40549406543266 198.44244635841662 387.57400383027306 # Ar
174 174 1 0.0 1053.9985165188375 1123.968680765394 1107.4777979234211 # Ar
175 175 1 0.0 1153.6142843659686 464.2034718257963 1043.7517659226803 # Ar
176 176 1 0.0 586.9041332715326 1202.4216602087424 1058.26685366912 # Ar
177 177 1 0.0 253.28357456862167 533.6123204481038 825.8294497960507 # Ar
178 178 1 0.0 3.447349354944608 248.5332434463702 173.67426812611893 # Ar
179 179 1 0.0 1163.329565530343 867.4177865235465 527.9901937882171 # Ar
180 180 1 0.0 3.0649162433571537 228.112569924353 52.67277410201792 # Ar
181 181 1 0.0 1075.1198342484943 40.13080410303158 1198.397365560959 # Ar
182 182 1 0.0 742.6080185513629 404.8824016233597 559.5185442759057 # Ar
183 183 1 0.0 459.25991093218187 865.8677923360171 336.6325017885113 # Ar
184 184 1 0.0 127.35847006254988 515.7840936404658 35.86823053127746 # Ar
185 185 1 0.0 902.0506520181883 755.5442628758785 1105.7842254392247 # Ar
186 186 1 0.0 17.338270209609558 297.8509418916848 702.3385955190558 # Ar
187 187 1 0.0 928.1402324222065 761.9223739226513 204.05491378397286 # Ar
188 188 1 0.0 20.898112804375586 281.0509883150416 75.3537403040499 # Ar
189 189 1 0.0 329.3972550635136 587.8714757763967 1009.3443994198336 # Ar
190 190 1 0.0 66.26893504439415 581.4030992299291 333.8424946334177 # Ar
191 191 1 0.0 536.2971001068778 461.33262724314534 841.5146288311412 # Ar
192 192 1 0.0 1154.990251865066 984.3957906647781 389.3574799320802 # Ar
193 193 1 0.0 376.76938320025397 978.3056222969685 1227.8289786549908 # Ar
194 194 1 0.0 1222.8466231450711 397.08526029480623 194.32103770176454 # Ar
195 195 1 0.0 962.3781849861281 848.3830089761685 1108.3109409557449 # Ar
196 196 1 0.0 1070.8516306026452 537.7331733856149 748.4567262505044 # Ar
197 197 1 0.0 374.0345860226267 767.618159837646 97.88166018153632 # Ar
198 198 1 0.0 494.71850881117945 1048.3378288142183 834.7081950297536 # Ar
199 199 1 0.0 150.2293766366967 1114.0559672694526 1225.0281320667477 # Ar
200 200 1 0.0 1044.2565490974828 170.08454793462596 871.1360074661942 # Ar
201 201 1 0.0 224.88916951169375 762.9346596332638 1082.6056766412667 # Ar
202 202 1 0.0 1038.8352370285118 349.3277441501426 504.2940487100757 # Ar
203 203 1 0.0 19.20746057479841 210.23973282444064 736.471213397614 # Ar
204 204 1 0.0 563.0185565313477 1112.5453171073743 290.3867735028954 # Ar
205 205 1 0.0 1086.8265491194436 1059.7331414714706 930.4389342956378 # Ar
206 206 1 0.0 835.2684375670831 42.41716049497469 1008.9438230460871 # Ar
207 207 1 0.0 1229.6548129545122 612.040274640853 1078.3791329952853 # Ar
208 208 1 0.0 825.0105656779463 823.1206298943806 179.00539757541665 # Ar
209 209 1 0.0 105.0202923638799 1015.3861213808352 949.6698239625105 # Ar
210 210 1 0.0 812.3990637851282 445.9556048104525 469.55634338494855 # Ar
211 211 1 0.0 106.55530562060568 418.5089983970442 566.4125824551753 # Ar
212 212 1 0.0 785.0856491947003 856.8902448122243 1223.7263342223084 # Ar
213 213 1 0.0 304.12684228671947 228.28242416460438 435.46239482615493 # Ar
214 214 1 0.0 115.10986553895263 933.0986944866636 852.7525084978057 # Ar
215 215 1 0.0 1072.709677275908 1098.6909313966717 415.23318819000735 # Ar
216 216 1 0.0 12.93772512842269 992.6274112447132 945.5361862995977 # Ar
217 217 1 0.0 1080.5855421388635 117.96877279868161 90.2688653923021 # Ar
218 218 1 0.0 454.0385021859129 317.4929685953698 773.9018932946452 # Ar
219 219 1 0.0 873.2569769639435 430.59154794941315 1054.9124072596833 # Ar
220 220 1 0.0 494.4726092650274 90.1260795173891 528.309250393384 # Ar
221 221 1 0.0 484.62540845328425 610.0334350617957 426.1223082308701 # Ar
222 222 1 0.0 1119.6131622758226 727.9384839199882 873.3521078607436 # Ar
223 223 1 0.0 211.09068097550542 281.75369513808084 510.75819921796784 # Ar
224 224 1 0.0 258.73035703514654 214.94553245760002 1028.4694320050605 # Ar
225 225 1 0.0 1053.5995718140257 1163.584271402625 515.3654526351245 # Ar
226 226 1 0.0 143.63776270073868 241.26841772582122 475.8741304168241 # Ar
227 227 1 0.0 563.7284744673748 742.6352084744138 975.5624978693452 # Ar
228 228 1 0.0 1193.515771600913 1111.8111444340975 609.2621123537016 # Ar
229 229 1 0.0 959.1205243381077 662.8417581788347 120.24701742831527 # Ar
230 230 1 0.0 551.3980496482363 962.1035995806013 685.9347481609839 # Ar
231 231 1 0.0 1021.8799250591037 806.4974247111238 503.322962961507 # Ar
232 232 1 0.0 95.02226829063129 437.1675028090796 387.52641223965486 # Ar
233 233 1 0.0 988.7059180928848 1052.4764112110695 535.749782812254 # Ar
234 234 1 0.0 24.33765165724559 1169.0086207078941 944.3837017566786 # Ar
235 235 1 0.0 444.10769843380973 1214.689349740178 577.3375724600453 # Ar
236 236 1 0.0 1158.7889055868638 415.2163094836066 172.2383605932956 # Ar
237 237 1 0.0 385.3078288673539 304.3057393738423 1065.976664375976 # Ar
238 238 1 0.0 779.9777282181511 688.4406467421572 1135.5519840016323 # Ar
239 239 1 0.0 782.6298011520585 418.03964781148414 694.4405736201498 # Ar
240 240 1 0.0 1165.1423028157244 461.98533625929053 997.5459466002409 # Ar
241 241 1 0.0 386.9131687690069 690.0812249207752 515.5938492705129 # Ar
242 242 1 0.0 1169.41277630502 528.3177268461023 601.5850132998011 # Ar
243 243 1 0.0 955.2847662754752 837.8085064272767 228.1320169256367 # Ar
244 244 1 0.0 1109.9242548035745 1126.3745991191056 188.58380673494042 # Ar
245 245 1 0.0 526.096025393725 18.349249983875353 801.4815208739766 # Ar
246 246 1 0.0 391.7454669189002 300.7020064895696 1162.1001778568657 # Ar
247 247 1 0.0 260.0737733681277 1181.7775485346906 631.7142038041156 # Ar
248 248 1 0.0 957.0648550706755 90.51110282877222 321.2485933629263 # Ar
249 249 1 0.0 832.2883963646173 96.64116193182731 1213.5155432381252 # Ar
250 250 1 0.0 427.052773474526 1059.8969096629353 295.6299837591486 # Ar
251 251 1 0.0 142.73214455319408 608.2073743518812 404.57129647470884 # Ar
252 252 1 0.0 1004.8830574495066 110.66023310579433 793.2407264133943 # Ar
253 253 1 0.0 1088.245903963128 352.5987757791011 118.17951003619415 # Ar
254 254 1 0.0 481.19497132411885 142.38414964952122 1041.8997315629665 # Ar
255 255 1 0.0 37.44080436883587 845.419837119689 825.6660626786386 # Ar
256 256 1 0.0 1198.645484066531 729.131141049667 177.62407572483355 # Ar
257 257 1 0.0 42.074436140090846 95.21183015636765 1107.2682132568798 # Ar
258 258 1 0.0 111.91476493435364 682.1842569194824 605.2007800657801 # Ar
259 259 1 0.0 417.3938871587234 186.53404863155063 906.0200028008982 # Ar
260 260 1 0.0 882.8321002855441 164.22000446242706 59.425682620571244 # Ar
261 261 1 0.0 643.7796489662019 881.6895157911362 777.4802260337003 # Ar
262 262 1 0.0 806.4413642435051 127.15218120243115 737.055154715594 # Ar
263 263 1 0.0 44.895737955655896 891.0635266117127 504.95022503328784 # Ar
264 264 1 0.0 384.90656048269045 1033.8993317854624 987.18709153434 # Ar
265 265 1 0.0 960.0735850980777 196.94101128393712 1069.043978006883 # Ar
266 266 1 0.0 491.5775391796791 463.2949551943663 1050.008513189227 # Ar
267 267 1 0.0 152.31997669337852 542.3142775992709 942.8494572252606 # Ar
268 268 1 0.0 482.20745528762666 642.0804725463962 1096.0647243004269 # Ar
269 269 1 0.0 454.48694860195127 409.8858852796896 850.3397670827976 # Ar
270 270 1 0.0 1162.4271437367493 799.348730269357 790.7983705000345 # Ar
271 271 1 0.0 733.3898588790927 870.1210084342041 1141.1199197347066 # Ar
272 272 1 0.0 1061.510285881036 752.0263548282733 503.022615212547 # Ar
273 273 1 0.0 537.9873832784285 887.1552165256961 167.95563414111592 # Ar
274 274 1 0.0 26.26275552739953 47.182975016136645 124.06597729825346 # Ar
275 275 1 0.0 40.18605830536224 1144.57323951809 91.89313400487603 # Ar
276 276 1 0.0 453.95615896596354 294.5106710233709 347.76315456762944 # Ar
277 277 1 0.0 526.4424156790717 1194.0766134850141 600.1197501471828 # Ar
278 278 1 0.0 494.97532800076937 510.3693299987449 140.30379635892126 # Ar
279 279 1 0.0 897.1602114286941 959.5940966466896 207.032928386851 # Ar
280 280 1 0.0 460.2067175633182 511.33432720597966 34.72957422156056 # Ar
281 281 1 0.0 324.97325469083694 987.5165786967123 479.4504148781325 # Ar
282 282 1 0.0 878.6871894969604 857.9835360876799 660.2749704620757 # Ar
283 283 1 0.0 746.2741466685802 289.2710794080135 124.41695382384351 # Ar
284 284 1 0.0 289.47366938456605 456.08054241465015 609.8156384671054 # Ar
285 285 1 0.0 1209.1752161166125 833.2221063490081 254.4291389988168 # Ar
286 286 1 0.0 862.1663403289441 186.25343059708962 1011.0062414777018 # Ar
287 287 1 0.0 321.50934773844216 704.2223198131055 106.75501668133761 # Ar
288 288 1 0.0 1218.4232687818173 296.1515787603724 292.06110079393915 # Ar
289 289 1 0.0 320.9330341074648 208.7571416190241 734.9882365823055 # Ar
290 290 1 0.0 1074.8231746214624 891.2468169819161 1085.7083589012275 # Ar
291 291 1 0.0 476.7804026993093 236.4903139870323 516.3651555617461 # Ar
292 292 1 0.0 303.8675108973214 826.8884176046406 318.11281619907544 # Ar
293 293 1 0.0 986.5534359257643 172.0570926588 1119.5998811061227 # Ar
294 294 1 0.0 118.62433933652005 525.7532450095695 360.8403085944501 # Ar
295 295 1 0.0 1178.5093498066979 1216.55399721447 183.80031799689513 # Ar
296 296 1 0.0 569.1987493332626 491.1354043024127 419.6316997432809 # Ar
297 297 1 0.0 1054.4666006544148 738.1979058640356 921.56432937099 # Ar
298 298 1 0.0 616.3243233161008 845.9604102037251 476.921015985253 # Ar
299 299 1 0.0 539.1424490653106 478.44560257183605 539.002187902947 # Ar
300 300 1 0.0 1010.9861030621795 19.534906215255006 1067.284061064675 # Ar
301 301 1 0.0 938.0787067264799 938.0933850747399 964.8190229174635 # Ar
302 302 1 0.0 753.3553365520353 471.0994023119186 620.6649223996269 # Ar
303 303 1 0.0 340.7430002103645 676.4781085404944 105.9607785453418 # Ar
304 304 1 0.0 11.819170798590825 843.0908143116313 1158.3293558696132 # Ar
305 305 1 0.0 80.8102004670777 523.3364580953634 117.85466127750703 # Ar
306 306 1 0.0 250.51344453132458 71.73375769851197 33.13189001939076 # Ar
307 307 1 0.0 818.0854087340745 204.33020866795547 122.33094402707938 # Ar
308 308 1 0.0 903.9162508152884 639.2536367497923 1209.577201116087 # Ar
309 309 1 0.0 1025.7093182910728 637.560605580647 160.47992433942503 # Ar
310 310 1 0.0 473.29125593799324 106.9064233411762 332.49980488281574 # Ar
311 311 1 0.0 1203.9645030127394 1026.593956963352 121.68491894357231 # Ar
312 312 1 0.0 112.85220833653405 1089.4569257998876 186.24562801876823 # Ar
313 313 1 0.0 684.8418422266212 501.08955788530216 1080.6717773021599 # Ar
314 314 1 0.0 708.8128472730704 113.90468089586369 345.5021341186821 # Ar
315 315 1 0.0 406.0156137898122 429.2151911739662 885.9099140985137 # Ar
316 316 1 0.0 1148.4015736056558 532.2326049452528 1215.1841616211466 # Ar
317 317 1 0.0 826.5720947251947 316.21351333141934 745.4271986512491 # Ar
318 318 1 0.0 1022.6168716824349 735.3753022251577 120.62338016308914 # Ar
319 319 1 0.0 1235.2440828398685 432.3523986565204 834.3276367636573 # Ar
320 320 1 0.0 205.38888652988317 201.74252035537904 300.41775035239806 # Ar
321 321 1 0.0 579.7607206411968 513.2374598107582 222.04604555136106 # Ar
322 322 1 0.0 621.5926674792796 600.9052362970332 191.19074619585493 # Ar
323 323 1 0.0 1195.2940116798554 675.0997932225287 318.1955159330662 # Ar
324 324 1 0.0 84.11349629081343 924.0456119731301 538.9967056743656 # Ar
325 325 1 0.0 634.9416426152766 851.2043915923111 607.1480249350243 # Ar
326 326 1 0.0 434.5707536700206 714.9626054137221 169.72290097289203 # Ar
327 327 1 0.0 810.8721806130932 54.92048436087101 992.2729155400236 # Ar
328 328 1 0.0 690.9564984505795 1023.5384465006483 639.5141084119984 # Ar
329 329 1 0.0 793.5405692022184 535.8834274471712 1220.6324648007214 # Ar
330 330 1 0.0 661.6438460299097 682.1446382164849 564.3316367184617 # Ar
331 331 1 0.0 52.28587361060453 924.7585356512511 216.6107599919501 # Ar
332 332 1 0.0 920.6227378033202 550.6967214560742 757.1107227724261 # Ar
333 333 1 0.0 865.8944970700861 805.5688129155845 576.3247687384013 # Ar
334 334 1 0.0 510.73629622488346 111.93634226991975 62.52033789126516 # Ar
335 335 1 0.0 304.92148491759366 210.0965969732871 165.55548436062486 # Ar
336 336 1 0.0 1163.5854822060205 17.15265207324881 458.42909190874104 # Ar
337 337 1 0.0 218.59980929506176 613.0819653086575 175.9631386748775 # Ar
338 338 1 0.0 680.3170759986298 616.8419528382998 716.1092118604906 # Ar
339 339 1 0.0 132.02053247517713 1196.692406145777 792.3336941113535 # Ar
340 340 1 0.0 1144.0014765786188 824.9347833039253 550.4259582757107 # Ar
341 341 1 0.0 1118.8267073901418 561.9337137115206 565.86662909321 # Ar
342 342 1 0.0 479.2940705330765 1078.9855554833057 258.86180809032885 # Ar
343 343 1 0.0 18.195385432188306 97.54450504585003 623.2295259106915 # Ar
344 344 1 0.0 79.8087412560497 133.0930228720402 1051.6326894457359 # Ar
345 345 1 0.0 716.9560375319865 1003.6643453301465 670.2917164918969 # Ar
346 346 1 0.0 518.6424010639973 678.0288240884828 1074.7046365664748 # Ar
347 347 1 0.0 1217.9051109773877 717.1299024842875 843.9223896135682 # Ar
348 348 1 0.0 702.5053838688286 239.11557077242875 922.3651499187264 # Ar
349 349 1 0.0 272.1852272385316 587.7485824052445 460.8014314247669 # Ar
350 350 1 0.0 1091.9641974803922 628.5168257922244 462.57874710970816 # Ar
351 351 1 0.0 680.3452341495249 136.21327846165576 1212.9900979965807 # Ar
352 352 1 0.0 121.0790585696411 736.8641612140073 682.211624211829 # Ar
353 353 1 0.0 334.70053764438444 275.54872267948656 607.7945138759867 # Ar
354 354 1 0.0 949.9216408317375 1088.092474932517 150.63323842518795 # Ar
355 355 1 0.0 598.217597292642 1198.4110727775396 1223.8521215486846 # Ar
356 356 1 0.0 393.171059901013 1146.5117663815183 52.95515650115576 # Ar
357 357 1 0.0 511.48498790132777 575.0065985197922 71.04285217684108 # Ar
358 358 1 0.0 115.3461410225333 972.7222743523226 1236.311304458587 # Ar
359 359 1 0.0 395.31867084509446 488.5839483660339 593.5870968774115 # Ar
360 360 1 0.0 799.0353595572709 797.9705349509051 589.9770224942193 # Ar
361 361 1 0.0 471.5243467859026 750.5311989129929 1123.2488057243906 # Ar
362 362 1 0.0 469.70577835996824 1235.7891478718782 579.4668160618199 # Ar
363 363 1 0.0 717.030176370788 276.66616924724866 87.66006636132978 # Ar
364 364 1 0.0 95.8402936981644 8.71570963568169 1174.4697816204284 # Ar
365 365 1 0.0 754.8000444283786 981.4412254105347 414.07647135668566 # Ar
366 366 1 0.0 60.266965867964366 673.6085563998897 257.7837526157615 # Ar
367 367 1 0.0 761.2795236132205 251.8672880852643 54.101584092937046 # Ar
368 368 1 0.0 726.4365633237239 999.3293100759143 965.5815104202692 # Ar
369 369 1 0.0 1061.2384665525335 2.668033409730477 123.29803795337926 # Ar
370 370 1 0.0 1028.7578540496424 854.6375466357256 112.26930423137748 # Ar
371 371 1 0.0 969.0984986093438 1092.4317410336905 775.8113164987344 # Ar
372 372 1 0.0 311.8205373107955 1176.5800267932095 843.2247554568584 # Ar
373 373 1 0.0 1016.9847058762089 690.6738927714854 130.71826965105544 # Ar
374 374 1 0.0 337.00877283258524 56.842178106588825 755.1379969042154 # Ar
375 375 1 0.0 76.58721764949311 1012.1468655025996 1185.9193299408385 # Ar
376 376 1 0.0 427.9238617401119 226.28135334792879 550.2877417626808 # Ar
377 377 1 0.0 386.09517050672576 578.449599886583 548.8797325955178 # Ar
378 378 1 0.0 514.7441722258084 68.3892204135191 770.2180544501431 # Ar
379 379 1 0.0 880.4324510008818 626.4551468308432 1229.006336529548 # Ar
380 380 1 0.0 193.93156379618497 551.9369036967845 1065.240921246556 # Ar
381 381 1 0.0 747.6621469278614 1070.9988993356728 1104.900513344567 # Ar
382 382 1 0.0 413.6610762823177 1012.1538631264175 418.36437950792117 # Ar
383 383 1 0.0 1153.7877761836432 809.5090191051213 686.87913022993 # Ar
384 384 1 0.0 780.2578147191931 331.1769353831964 1101.0568439576832 # Ar
385 385 1 0.0 98.89528873315092 767.4608764629031 865.2148126708615 # Ar
386 386 1 0.0 387.841364581686 1147.8238760285838 582.4210634953217 # Ar
387 387 1 0.0 606.8759194902086 141.10058813781123 141.42472773209124 # Ar
388 388 1 0.0 597.7816327005937 514.9072129758389 403.00213578202505 # Ar
389 389 1 0.0 828.3985303018595 1139.1300242016027 374.0598356880841 # Ar
390 390 1 0.0 20.695773182274344 365.1477171990891 1161.933637585584 # Ar
391 391 1 0.0 505.7242204577458 193.84039120772974 288.31505986154167 # Ar
392 392 1 0.0 160.9107958935743 1190.790730055995 418.21242258102734 # Ar
393 393 1 0.0 634.8313781500491 931.3678149945359 239.18998347005606 # Ar
394 394 1 0.0 724.7501562765211 821.3351799109479 332.7741622128499 # Ar
395 395 1 0.0 933.3653048941443 1174.090563097513 1020.3068040610051 # Ar
396 396 1 0.0 597.501875457392 702.9807947907098 404.6123059367056 # Ar
397 397 1 0.0 72.69105644740594 691.9710184345732 674.4226002167534 # Ar
398 398 1 0.0 501.5730921366053 50.927690015751544 1108.8662818345413 # Ar
399 399 1 0.0 994.1362622848193 573.9454526676562 115.77557545851252 # Ar
400 400 1 0.0 401.1304889540884 410.5465593691583 36.53758648596584 # Ar
401 401 1 0.0 967.2484051990158 499.3268836622801 573.2377471393725 # Ar
402 402 1 0.0 843.1905337364298 502.41598542803877 282.6567272277688 # Ar
403 403 1 0.0 838.9410260063947 971.6319027925083 752.0673720862726 # Ar
404 404 1 0.0 1001.1651176945888 471.30078955012243 5.621442574819942 # Ar
405 405 1 0.0 437.02188634067676 290.0650065538666 1189.7871490979044 # Ar
406 406 1 0.0 326.89887875959283 405.2139101228015 645.8906227625829 # Ar
407 407 1 0.0 149.51062650836428 371.9305876167944 667.5237017324657 # Ar
408 408 1 0.0 566.0600955747185 681.7376946406021 1124.471388209922 # Ar
409 409 1 0.0 613.3800691889869 324.35892275746437 1231.945972741011 # Ar
410 410 1 0.0 937.9048807729345 860.7380024645 662.4771831018733 # Ar
411 411 1 0.0 741.2936781088463 637.1138539230428 324.9030860059762 # Ar
412 412 1 0.0 260.2119111969611 505.03789388803847 758.2874304356205 # Ar
413 413 1 0.0 498.33337004222113 619.6502066672493 1097.438732605892 # Ar
414 414 1 0.0 630.6344116702045 64.4629532707501 1142.52268306668 # Ar
415 415 1 0.0 486.08217303180226 283.9926571797966 812.6856796511257 # Ar
416 416 1 0.0 717.1772002844571 573.7121613092067 804.6055452714479 # Ar
417 417 1 0.0 75.24426669033717 148.0921165606264 577.0301590247603 # Ar
418 418 1 0.0 1064.4419317581082 114.24113340680478 101.21693083989582 # Ar
419 419 1 0.0 1106.5925591746984 200.5057899832277 1152.152231289302 # Ar
420 420 1 0.0 586.4800434205123 763.8734844500441 643.3994458460306 # Ar
421 421 1 0.0 88.00532306650811 1237.1903262598664 847.2636312977784 # Ar
422 422 1 0.0 1039.3337181809736 344.9696774636624 865.9055963014256 # Ar
423 423 1 0.0 700.4015022546972 1151.1304578296154 255.18672414284367 # Ar
424 424 1 0.0 244.46465403548999 346.7273679062695 7.098192604065612 # Ar
425 425 1 0.0 1052.849349275629 951.3714990822233 548.3410864871513 # Ar
426 426 1 0.0 969.1628585668095 822.0724801640802 413.65105104152246 # Ar
427 427 1 0.0 374.7289348302143 1119.5814463182273 793.7667525126387 # Ar
428 428 1 0.0 1096.9828949608143 1200.6554397688233 1116.0812853134114 # Ar
429 429 1 0.0 474.89531798361503 234.43893024483322 310.1173724190096 # Ar
430 430 1 0.0 697.1348588404354 975.2199740168058 287.22757643283524 # Ar
431 431 1 0.0 718.4143998491373 858.6701929283332 1017.1791711653614 # Ar
432 432 1 0.0 106.7646035719737 87.54128014867972 696.9763226032559 # Ar
433 433 1 0.0 161.19157955803922 205.6748763036979 1186.3376664068296 # Ar
434 434 1 0.0 509.2295175864621 93.22532364263087 216.70530921511704 # Ar
435 435 1 0.0 98.5122000516414 158.65454543429755 266.39547407342866 # Ar
436 436 1 0.0 676.1662235984566 567.0129424162197 787.188608800913 # Ar
437 437 1 0.0 227.35001447286564 866.3759262172714 1090.8865745987023 # Ar
438 438 1 0.0 711.2202833911527 406.83953773472393 560.7955546219633 # Ar
439 439 1 0.0 424.5022279851774 897.2782388477299 828.7966653401489 # Ar
440 440 1 0.0 807.3750852405091 427.39242635054717 951.2230410945768 # Ar
441 441 1 0.0 601.222333024288 328.9223769390603 225.79397933648494 # Ar
442 442 1 0.0 443.84213740425236 423.06506077752624 474.74040361709916 # Ar
443 443 1 0.0 1080.7946430268082 613.2291483847561 869.7252313136594 # Ar
444 444 1 0.0 206.1812568315569 491.1201224327617 934.3556541442036 # Ar
445 445 1 0.0 778.6281867773628 1003.8279736618571 468.8700412705932 # Ar
446 446 1 0.0 513.3020902355364 348.0885963205104 880.6030701778111 # Ar
447 447 1 0.0 1040.3707444583654 142.7582979355055 927.6586828827084 # Ar
448 448 1 0.0 206.5402270371669 713.9001132570896 297.9084305079331 # Ar
449 449 1 0.0 289.8898201700545 1223.9721566514 158.27936707561742 # Ar
450 450 1 0.0 833.9198200432108 1189.2405480478715 1085.525695700176 # Ar
451 451 1 0.0 299.86810327919517 552.1157190738531 704.803378369464 # Ar
452 452 1 0.0 818.4307400031521 1065.795295968285 453.2155989990473 # Ar
453 453 1 0.0 238.11191276523653 898.2428172682612 796.258094762941 # Ar
454 454 1 0.0 497.51158372685165 55.9006850192723 191.01669856298375 # Ar
455 455 1 0.0 1125.8588338389454 69.25626040553576 1158.7469691345175 # Ar
456 456 1 0.0 388.33443797851004 190.6194552701927 489.03240276543886 # Ar
457 457 1 0.0 965.446043435842 584.3276161897483 218.37843263539517 # Ar
458 458 1 0.0 434.1722886190092 385.09255145242884 744.5094880008711 # Ar
459 459 1 0.0 884.4100970861143 1108.749467360584 1068.71939456251 # Ar
460 460 1 0.0 507.4865256182379 480.5776259624246 499.5546403866446 # Ar
461 461 1 0.0 777.4481871575389 661.4498298609392 30.144219901060946 # Ar
462 462 1 0.0 926.5360586940716 1124.5407871616642 1100.20938624766 # Ar
463 463 1 0.0 1062.0486511613128 382.80767279581363 1065.033459352956 # Ar
464 464 1 0.0 171.11050368264716 935.507852087728 731.6002475348602 # Ar
465 465 1 0.0 523.4464024922733 195.66943475598595 151.9325182763432 # Ar
466 466 1 0.0 59.85039018814881 580.4746176561811 539.5952479444962 # Ar
467 467 1 0.0 400.38552575581593 1062.5732221249682 1209.9244095457175 # Ar
468 468 1 0.0 1110.3446527532217 154.5688532383697 434.56025049963677 # Ar
469 469 1 0.0 993.5548005366348 376.65769950730254 299.0889520774509 # Ar
470 470 1 0.0 850.5290979507084 114.88249299569243 1072.807972822763 # Ar
471 471 1 0.0 1170.2430280056303 730.3975260176519 663.5307225972861 # Ar
472 472 1 0.0 1133.8294692730128 881.4108268818993 1035.9695712851449 # Ar
473 473 1 0.0 1130.044295629394 73.04516590361283 2.273086626917572 # Ar
474 474 1 0.0 13.290715862339624 139.27938525611202 106.60373294192871 # Ar
475 475 1 0.0 820.4966277402327 539.2705487389517 1192.9010618265575 # Ar
476 476 1 0.0 820.7356866106259 440.5472976192716 1092.5702108588187 # Ar
477 477 1 0.0 351.94476035319525 1220.0534147365 1195.580434164241 # Ar
478 478 1 0.0 442.65391618293097 112.62843918683251 577.6618440172123 # Ar
479 479 1 0.0 166.618340758496 125.04376795674538 705.4173998684457 # Ar
480 480 1 0.0 415.6786630862889 434.20688168962187 1146.9613287833286 # Ar
481 481 1 0.0 853.2150182673402 875.1710972752246 135.71977152577108 # Ar
482 482 1 0.0 1212.8226941887078 1109.2416480959412 316.74037097529657 # Ar
483 483 1 0.0 1033.8958723613423 235.98842830515707 626.6776821854857 # Ar
484 484 1 0.0 370.8450509563518 485.207741395242 361.20615337152236 # Ar
485 485 1 0.0 703.3443790283554 103.0539994672749 1013.9725973312492 # Ar
486 486 1 0.0 678.3924447283085 505.4530120078984 372.76636371622163 # Ar
487 487 1 0.0 666.4459153627862 93.49343931900164 981.2739453162317 # Ar
488 488 1 0.0 98.7055519498273 1175.8193551855886 1199.4119499733658 # Ar
489 489 1 0.0 903.8205014752803 951.0882282873806 29.656756420891654 # Ar
490 490 1 0.0 45.975554702685386 924.5068572884193 1015.3168003010956 # Ar
491 491 1 0.0 1074.9782247884064 55.05217465281027 985.2902939524936 # Ar
492 492 1 0.0 806.1284266530587 301.51987896227735 949.586733988719 # Ar
493 493 1 0.0 386.4291147634075 340.98454992516685 128.50593073692423 # Ar
494 494 1 0.0 656.5042520521683 198.62299621440408 336.1952617938721 # Ar
495 495 1 0.0 1183.8842133099724 228.21584126498985 719.0283376145027 # Ar
496 496 1 0.0 939.9345563810996 577.0567350161175 391.8361949663947 # Ar
497 497 1 0.0 84.52998504929487 291.9377434677932 386.11485859165805 # Ar
498 498 1 0.0 21.95433937943999 604.9605709334439 399.8592896508867 # Ar
499 499 1 0.0 597.1100712859009 10.011113482964243 902.0787805249765 # Ar
500 500 1 0.0 988.1821010393815 890.7467331612562 274.2576947222477 # Ar
501 501 1 0.0 128.0554122241835 941.536145275776 639.3474562894805 # Ar
502 502 1 0.0 1037.8696220103025 62.154647930584794 360.92312261693127 # Ar
503 503 1 0.0 812.3794006903507 459.5187966311319 149.1660401298623 # Ar
504 504 1 0.0 573.5359318243613 26.294820908767473 3.664106069902526 # Ar
505 505 1 0.0 1043.4157400883612 343.21830319780224 492.98526470197214 # Ar
506 506 1 0.0 827.0603098795343 393.13623173626564 500.73880477522323 # Ar
507 507 1 0.0 602.4322696303112 381.9983070138192 634.3252333319484 # Ar
508 508 1 0.0 410.35710501502143 416.0655133881273 486.9905676486911 # Ar
509 509 1 0.0 165.93729860511354 58.55030521333736 1213.4962030802735 # Ar
510 510 1 0.0 1234.094969687489 233.23884186690253 855.0222023753772 # Ar
511 511 1 0.0 97.89104193508976 1230.1335235792208 994.1869645229118 # Ar
512 512 1 0.0 760.8834957700956 306.3426598856942 620.5162428880983 # Ar
513 513 1 0.0 1017.6567012944456 1122.9224022795731 35.55616252666933 # Ar
514 514 1 0.0 1220.950891845194 633.1221046683494 1049.2998462898074 # Ar
515 515 1 0.0 533.0390412608721 277.67456157846334 478.34170255524856 # Ar
516 516 1 0.0 894.8927188140844 684.8804645451829 168.61128813231355 # Ar
517 517 1 0.0 706.7383229667175 717.4041605999518 593.0535917327024 # Ar
518 518 1 0.0 972.1389368701562 554.6421613364087 547.328719101627 # Ar
519 519 1 0.0 614.585735598535 1037.4598112957867 991.4257280521327 # Ar
520 520 1 0.0 642.5177244841942 997.983881888819 1034.860757657978 # Ar
521 521 1 0.0 736.3918237325012 687.8354554810468 1057.8066726372294 # Ar
522 522 1 0.0 317.3024402981378 687.6328817851761 811.3130295896677 # Ar
523 523 1 0.0 49.42233278003483 17.44510917162345 502.662262466652 # Ar
524 524 1 0.0 879.3640858163791 574.490532297394 132.71719113534982 # Ar
525 525 1 0.0 41.186670245481515 503.38536230335114 443.36793543026926 # Ar
526 526 1 0.0 11.244471400778904 152.19470545373431 1046.1182920286908 # Ar
527 527 1 0.0 371.8965675202073 632.3554997294871 240.4447164994091 # Ar
528 528 1 0.0 889.3423541375963 166.74151410511925 114.32787003619735 # Ar
529 529 1 0.0 361.3377897924891 1079.0370130083913 959.6815719518127 # Ar
530 530 1 0.0 87.86841255774084 792.6808079409182 981.0121460753465 # Ar
531 531 1 0.0 844.2903184068357 813.2079481476694 879.4136664614699 # Ar
532 532 1 0.0 364.2816376592159 76.62786429284206 866.8391516554713 # Ar
533 533 1 0.0 129.60823651219047 1111.7932943760813 846.9767963962566 # Ar
534 534 1 0.0 261.2812478261937 997.7354740581491 330.9982886754151 # Ar
535 535 1 0.0 276.27409878763984 775.8865904028434 601.6037811749467 # Ar
536 536 1 0.0 412.20303779697633 481.23075331507977 1159.437021485106 # Ar
537 537 1 0.0 1215.8158202581058 723.8778427432245 1116.5770826224762 # Ar
538 538 1 0.0 842.1900168977261 121.60362068701346 774.974234724959 # Ar
539 539 1 0.0 278.947139417691 393.0128116973057 930.2415525929117 # Ar
540 540 1 0.0 1058.9084701736645 47.01449268004505 1096.347343947384 # Ar
541 541 1 0.0 1212.7484229896152 390.3867686872595 505.9569449865689 # Ar
542 542 1 0.0 399.3893813844786 868.139728247074 1165.0520927331295 # Ar
543 543 1 0.0 389.81612533520524 40.00159129000401 672.048194598354 # Ar
544 544 1 0.0 71.64908148268658 340.9761917309544 740.2966997928779 # Ar
545 545 1 0.0 446.32396813898913 820.1756420136115 1148.4705829867064 # Ar
546 546 1 0.0 402.2248799392587 702.4914484881565 1235.3619329430317 # Ar
547 547 1 0.0 744.4814768156331 544.1805248497137 586.6162881028627 # Ar
548 548 1 0.0 674.0267928721947 1020.4602540281978 1136.3809026643016 # Ar
549 549 1 0.0 1134.3487815179788 571.1222904465382 394.46230617210205 # Ar
550 550 1 0.0 298.2997402540409 375.0564885743669 791.1209204819231 # Ar
551 551 1 0.0 452.20982663164756 655.6506253573425 105.94536709634227 # Ar
552 552 1 0.0 786.3647704255615 470.7677257677952 899.4041836124226 # Ar
553 553 1 0.0 438.78966314588115 883.6297456824122 1136.105484707387 # Ar
554 554 1 0.0 854.3205057065347 833.8912742972723 1133.8963239378998 # Ar
555 555 1 0.0 539.7268812982466 981.3400826023775 805.0734954246119 # Ar
556 556 1 0.0 730.4769885630143 1032.0800014436822 896.8425923957323 # Ar
557 557 1 0.0 1184.863272358983 779.1466209260204 426.5307255462239 # Ar
558 558 1 0.0 1157.3537619844956 951.4273848344887 1058.2524417511715 # Ar
559 559 1 0.0 961.013824722732 847.5977264680803 981.9169663407965 # Ar
560 560 1 0.0 1013.9365761912264 433.6303892834342 734.1045546477505 # Ar
561 561 1 0.0 316.61065121995273 240.40934085810343 637.3827632978176 # Ar
562 562 1 0.0 1134.543944007258 1061.4471760120991 923.1780774365769 # Ar
563 563 1 0.0 724.0209722848474 491.74907460506097 1066.6574119922113 # Ar
564 564 1 0.0 302.6080871791854 741.2366051874149 488.25097973625384 # Ar
565 565 1 0.0 1106.3866112454216 1115.9303939933202 1143.1386333331093 # Ar
566 566 1 0.0 1168.9964277486151 651.1831689775385 688.0941467031079 # Ar
567 567 1 0.0 44.22416826964143 130.5350094251998 811.9077254265953 # Ar
568 568 1 0.0 687.5837585552682 1163.1484786103288 192.0058160648101 # Ar
569 569 1 0.0 858.7898381007954 952.1003982510149 1163.620758508428 # Ar
570 570 1 0.0 1202.2133877386507 1010.647832764093 1038.9711371308686 # Ar
571 571 1 0.0 1203.4607386561272 728.0779203235072 1189.44583808593 # Ar
572 572 1 0.0 1020.1830610701317 704.7155100299389 967.0839600269825 # Ar
573 573 1 0.0 467.81340654485484 966.7104351841945 321.13370888580863 # Ar
574 574 1 0.0 423.39663507722446 517.9516764629549 190.11365214847422 # Ar
575 575 1 0.0 1129.9653812369004 465.2938345691859 726.7331317176038 # Ar
576 576 1 0.0 1156.8883611999481 697.7122038589149 100.84975264370263 # Ar
577 577 1 0.0 295.53278029277436 688.6309936284521 73.43842441666165 # Ar
578 578 1 0.0 297.4932147669905 376.68571507289556 81.20424560494216 # Ar
579 579 1 0.0 859.0625791105028 265.98886944117675 267.32335948668623 # Ar
580 580 1 0.0 627.1600677938425 511.28972947805397 753.7534651617204 # Ar
581 581 1 0.0 912.1855170275963 1015.6175008904215 216.74739905763693 # Ar
582 582 1 0.0 148.73138385572494 580.4999306492037 204.39433526150896 # Ar
583 583 1 0.0 517.6106362998768 28.77874940359593 3.5240742043191577 # Ar
584 584 1 0.0 48.57055426894279 1013.5784479062891 327.7458057602331 # Ar
585 585 1 0.0 802.2010072387146 792.407509281756 738.8475610611755 # Ar
586 586 1 0.0 1089.5292472745546 1043.7436398408022 1194.4056936262914 # Ar
587 587 1 0.0 75.9377184792241 519.1250796678994 900.4269236614011 # Ar
588 588 1 0.0 766.2808369577576 761.4151734738392 873.240351383057 # Ar
589 589 1 0.0 551.2423538177331 321.59924378107354 703.5685156213839 # Ar
590 590 1 0.0 232.4160841988328 167.33030349892394 32.3547959416003 # Ar
591 591 1 0.0 457.29294833743234 1001.6224573449879 919.5165523499202 # Ar
592 592 1 0.0 607.3418104811233 1123.8183869701293 705.5776834686245 # Ar
593 593 1 0.0 217.04913985846014 657.1687531710475 148.5345593941554 # Ar
594 594 1 0.0 15.416625472120597 409.5919840039981 853.0859764045797 # Ar
595 595 1 0.0 183.01120563539874 1193.9058146691818 813.195131384871 # Ar
596 596 1 0.0 888.2020063517235 263.1393992367478 849.4884688567378 # Ar
597 597 1 0.0 327.6114199808663 1063.3219665421027 442.7190648310086 # Ar
598 598 1 0.0 985.1214658386803 770.7397943938158 1115.896913034928 # Ar
599 599 1 0.0 518.9052270438054 656.3241102732802 331.10489888948024 # Ar
600 600 1 0.0 786.9312442168931 1050.8333544517438 348.0506816691304 # Ar
601 601 1 0.0 737.399149640188 47.83258820008158 555.0792275760942 # Ar
602 602 1 0.0 1153.0093067638763 909.9647614617317 489.2017926533959 # Ar
603 603 1 0.0 491.5477913014642 106.08398987487004 750.7034456625737 # Ar
604 604 1 0.0 1021.6294291999675 603.7866580128443 372.2724060405945 # Ar
605 605 1 0.0 349.8189527985537 1185.0276327819001 1051.4873895796673 # Ar
606 606 1 0.0 832.2508478521988 992.2251976807382 421.41976450532104 # Ar
607 607 1 0.0 1156.9609307554645 267.2193901939032 127.59685074258034 # Ar
608 608 1 0.0 529.1335398275967 657.3125190957137 181.67175633513074 # Ar
609 609 1 0.0 65.25018548413657 255.93167242304128 140.02925598427524 # Ar
610 610 1 0.0 585.249760493278 741.1593059963157 867.8915608127141 # Ar
611 611 1 0.0 504.7473513641165 813.0599418572414 913.9846952900482 # Ar
612 612 1 0.0 150.65944866759585 920.3058741627739 0.6174310866656858 # Ar
613 613 1 0.0 797.4577104175984 812.7426518471207 822.8697890607945 # Ar
614 614 1 0.0 181.96133489144606 775.8062242356092 1229.2993192719732 # Ar
615 615 1 0.0 814.7869876211674 780.7637408466452 832.2880990999462 # Ar
616 616 1 0.0 1100.550215819203 1073.3048544803328 116.25269436941217 # Ar
617 617 1 0.0 695.937633433655 476.22450745788086 1225.7149439268549 # Ar
618 618 1 0.0 1197.869873923447 493.84895185065164 837.1483641816682 # Ar
619 619 1 0.0 536.8214272056188 1080.666360141763 921.0033305333986 # Ar
620 620 1 0.0 1129.564079238839 1184.9561480862237 1136.0451608219025 # Ar
621 621 1 0.0 616.4368671985937 943.6535616699223 272.87636378673955 # Ar
622 622 1 0.0 944.7659935596702 434.2127463459257 187.38966258700754 # Ar
623 623 1 0.0 1106.475513282139 1179.5442375600837 975.1725003683844 # Ar
624 624 1 0.0 530.5712182668296 82.11412088923491 906.1400436952405 # Ar
625 625 1 0.0 1050.4553578575683 528.703761284157 835.5527065860703 # Ar
626 626 1 0.0 827.3923932611566 831.9335279177837 935.9994178152184 # Ar
627 627 1 0.0 964.8426800160499 362.55808149125926 1192.4905140226065 # Ar
628 628 1 0.0 463.1253420410288 659.5661322301088 1072.3382910743771 # Ar
629 629 1 0.0 810.8593073773883 1154.0185702781444 655.1992605994631 # Ar
630 630 1 0.0 513.8150688793654 842.6809500759229 275.56077631606524 # Ar
631 631 1 0.0 904.1729028385051 257.24574112410636 1011.1144182799319 # Ar
632 632 1 0.0 732.3603802054413 97.54204955854192 98.68395057723404 # Ar
633 633 1 0.0 639.8716865398372 254.3842433127019 460.3585737227601 # Ar
634 634 1 0.0 394.6485831213517 988.1085332093149 346.85192707599697 # Ar
635 635 1 0.0 705.2176349059251 194.8687725925988 1234.9464515786951 # Ar
636 636 1 0.0 280.71496812012515 865.9505153490336 255.61053864684868 # Ar
637 637 1 0.0 738.7862054275269 774.7594678614561 891.4682147410416 # Ar
638 638 1 0.0 1081.968934266097 1047.5541318261867 392.81492461102584 # Ar
639 639 1 0.0 930.7562545233319 543.0413941422729 985.2067950132467 # Ar
640 640 1 0.0 149.81178662620462 961.2622839308463 731.9844411062005 # Ar
641 641 1 0.0 25.03999963377384 1104.539998720995 644.6919837731582 # Ar
642 642 1 0.0 570.5410511494896 674.369167681637 963.8015202917223 # Ar
643 643 1 0.0 733.1882335644107 550.5439162486217 784.6608726732693 # Ar
644 644 1 0.0 500.4429397791587 860.3718592962479 1185.4523541625335 # Ar
645 645 1 0.0 544.1915560330946 1203.7767304986194 334.1724798369333 # Ar
646 646 1 0.0 527.6666849265454 1149.3531660956942 264.44238412362284 # Ar
647 647 1 0.0 160.34392081255712 253.66669239641774 812.8760812850718 # Ar
648 648 1 0.0 1067.1095257504064 1239.1889607089283 947.9297510676777 # Ar
649 649 1 0.0 1237.4977590562771 560.0036750610607 908.8947441010488 # Ar
650 650 1 0.0 363.95960585563824 122.28519807138191 518.8456669784002 # Ar
651 651 1 0.0 94.30237702415974 1235.4872379129097 716.0401591947478 # Ar
652 652 1 0.0 653.1283193736629 1065.969898511539 463.01537176686844 # Ar
653 653 1 0.0 81.5131960711127 113.32165824748039 338.5335368184295 # Ar
654 654 1 0.0 772.1684838550456 1050.2124614917768 882.6309697237573 # Ar
655 655 1 0.0 233.90433590383893 788.3299936154925 943.0708506190462 # Ar
656 656 1 0.0 29.034060748462572 786.492301130529 603.0453648197775 # Ar
657 657 1 0.0 315.92273413697694 1081.7878768908467 550.871476702031 # Ar
658 658 1 0.0 1168.3552668234531 767.3527709813327 963.9375594692551 # Ar
659 659 1 0.0 1104.1207246232875 1005.323538081562 799.5210593476293 # Ar
660 660 1 0.0 912.6354452989995 952.2124189050861 652.8287864827581 # Ar
661 661 1 0.0 201.4933735536503 354.04954502661064 1239.1832316010375 # Ar
662 662 1 0.0 1236.6923766945074 65.63378154204126 1015.718341051812 # Ar
663 663 1 0.0 281.00957156860653 54.68036007586493 114.87313664815211 # Ar
664 664 1 0.0 585.4668972769301 1217.8588213499283 161.31808795466128 # Ar
665 665 1 0.0 172.3196047678045 791.5027408509449 571.1578649696336 # Ar
666 666 1 0.0 415.1078499143229 960.0952215231126 70.67525448698267 # Ar
667 667 1 0.0 641.5358029969049 253.62827173025778 596.5054981954986 # Ar
668 668 1 0.0 1185.1355769353415 1124.8453964706646 208.80300928719987 # Ar
669 669 1 0.0 240.41895897739957 214.6013833130834 1043.9622362407522 # Ar
670 670 1 0.0 79.29747834137915 857.5937236394644 1178.1148654865156 # Ar
671 671 1 0.0 1088.0484724879864 471.0766016519021 1051.7626333883254 # Ar
672 672 1 0.0 318.41326379263626 814.2564056835676 267.2331114703237 # Ar
673 673 1 0.0 119.4443524090289 918.1607560439386 1085.3452254098254 # Ar
674 674 1 0.0 807.0720648702169 833.0414832637111 1016.8808078145557 # Ar
675 675 1 0.0 315.96254207557286 693.7191774993546 1190.5289057884336 # Ar
676 676 1 0.0 217.0315220657679 954.7122148188139 264.11801718074514 # Ar
677 677 1 0.0 576.1411041410447 856.4386279436555 567.730097691105 # Ar
678 678 1 0.0 139.58932815652952 375.14428626641757 131.14628587157063 # Ar
679 679 1 0.0 771.3071259430528 205.28768601900245 274.43643568670836 # Ar
680 680 1 0.0 352.2099589151127 810.3177203411275 675.9648628294409 # Ar
681 681 1 0.0 302.8988041186276 117.64206182180004 248.8333849212864 # Ar
682 682 1 0.0 126.85346609078302 977.032763884156 1014.71861283166 # Ar
683 683 1 0.0 144.25807083888446 684.5417178501672 998.1489346697012 # Ar
684 684 1 0.0 985.8301339396558 335.6425157401291 188.51439747445144 # Ar
685 685 1 0.0 713.021811724933 963.5005206456983 771.5354381145318 # Ar
686 686 1 0.0 1029.1128892427469 1132.0966612033603 977.5487811725717 # Ar
687 687 1 0.0 1000.4301161738823 927.8864615550443 428.06044316097285 # Ar
688 688 1 0.0 207.46572529914013 683.9097728455754 609.6514040942461 # Ar
689 689 1 0.0 937.3875721170458 758.7745375409476 1163.0535619775612 # Ar
690 690 1 0.0 987.2505374285655 1075.2440980469369 846.8966520587152 # Ar
691 691 1 0.0 451.20541674148257 1023.2997654561839 684.1026091164368 # Ar
692 692 1 0.0 251.4807329157108 473.55909350670214 133.3644579392583 # Ar
693 693 1 0.0 258.10140233438943 696.5529951648466 30.95999645238779 # Ar
694 694 1 0.0 1141.876932290533 886.5287051822414 763.2753624398404 # Ar
695 695 1 0.0 1217.0823851358532 1009.178078178578 502.5299341506495 # Ar
696 696 1 0.0 195.38546317959972 124.28289278336747 464.73202025494106 # Ar
697 697 1 0.0 328.8676426236535 753.8056960115157 1183.3705442008381 # Ar
698 698 1 0.0 128.28321900471073 670.7648757031222 142.04107114047014 # Ar
699 699 1 0.0 279.8262314591339 835.2655401117315 741.5577775085044 # Ar
700 700 1 0.0 1173.7884327301983 1064.0106832710187 877.5090997151949 # Ar
701 701 1 0.0 58.77787055897256 120.25150278153896 1144.2309214266502 # Ar
702 702 1 0.0 539.0142555783196 771.6845217538906 1222.6772404934195 # Ar
703 703 1 0.0 689.8554355143326 1190.0158108587773 509.67441144624377 # Ar
704 704 1 0.0 176.39513066732286 648.7933751586025 944.5615146215271 # Ar
705 705 1 0.0 117.0824671634837 470.47734416302706 254.9410903944578 # Ar
706 706 1 0.0 209.69899922515845 573.8352822068335 1079.5793217002138 # Ar
707 707 1 0.0 1124.7917205695474 180.63813351643526 609.6457753284078 # Ar
708 708 1 0.0 712.6622256681098 571.7320993646466 838.1538219175845 # Ar
709 709 1 0.0 1090.7539555521896 1183.027468475954 182.6093809527788 # Ar
710 710 1 0.0 1165.7836266420384 1017.1688762997762 889.8784641159509 # Ar
711 711 1 0.0 734.1076834648227 211.42337907075762 1046.3457977338308 # Ar
712 712 1 0.0 764.9945566070934 1142.4331044039016 631.1452736219718 # Ar
713 713 1 0.0 539.8085577334103 169.65649146453603 183.39776432973082 # Ar
714 714 1 0.0 5.555853190277117 443.88072599499594 1175.4960344277624 # Ar
715 715 1 0.0 487.84300918596614 964.910143208222 194.63340229329697 # Ar
716 716 1 0.0 47.74600693328271 831.2017228835851 804.6571680515 # Ar
717 717 1 0.0 1190.989555788548 98.18972895463901 813.2190382359232 # Ar
718 718 1 0.0 576.8752997753484 66.60939488054677 1041.570182566022 # Ar
719 719 1 0.0 842.5384343030082 1227.1720646092438 1005.5639913601815 # Ar
720 720 1 0.0 1143.6858935429543 532.4403062864321 76.44488141797045 # Ar
721 721 1 0.0 31.288289888935306 1164.978522628141 53.07102625690673 # Ar
722 722 1 0.0 952.63395964281 248.11465569832018 633.0256479484227 # Ar
723 723 1 0.0 647.5515094835858 793.7697369186336 770.1411097270463 # Ar
724 724 1 0.0 111.41281250188085 325.18465304333455 656.4867565182745 # Ar
725 725 1 0.0 714.5563235440959 716.7792486155508 1181.976579053138 # Ar
726 726 1 0.0 958.6174872736693 342.7459153420694 620.2055501889405 # Ar
727 727 1 0.0 1171.6528506359723 64.10709140324178 1166.1787346171595 # Ar
728 728 1 0.0 434.8795817660969 1163.9905375637638 668.8319919600971 # Ar
729 729 1 0.0 829.5528823141665 52.051755876165366 903.5669110347543 # Ar
730 730 1 0.0 565.548164860815 194.761263933144 1237.6031560622403 # Ar
731 731 1 0.0 1061.0687336031147 696.5329565874115 138.6072591776983 # Ar
732 732 1 0.0 568.1336265756937 834.3116356010618 852.1906379867793 # Ar
733 733 1 0.0 169.7374152095613 320.8159691075089 792.2356067268943 # Ar
734 734 1 0.0 432.590519301754 1053.150233344649 442.4968243091736 # Ar
735 735 1 0.0 197.5874991358982 23.43814101620347 739.9076835990502 # Ar
736 736 1 0.0 630.8305957763058 956.9776836729835 493.5998292725007 # Ar
737 737 1 0.0 1095.5672148180656 813.8170744788924 584.5801791582472 # Ar
738 738 1 0.0 379.4729287139619 420.33842520949867 10.591965829269915 # Ar
739 739 1 0.0 495.4982047888909 518.8020414643246 996.5335178369013 # Ar
740 740 1 0.0 689.2960179833633 55.40651484168193 925.5484711503431 # Ar
741 741 1 0.0 240.94028981226168 866.9368945811041 479.9272818271874 # Ar
742 742 1 0.0 582.3742962357412 220.41746870597237 207.2568452134406 # Ar
743 743 1 0.0 741.764310934977 363.7318381323756 682.198877907981 # Ar
744 744 1 0.0 782.4317483691308 978.1573553183288 710.1811266924226 # Ar
745 745 1 0.0 225.51170494313376 443.68102751752707 628.6628380502235 # Ar
746 746 1 0.0 867.3214029854017 14.16276151691221 667.1587922727809 # Ar
747 747 1 0.0 1023.9874552906329 56.85596733017962 1144.0999297566368 # Ar
748 748 1 0.0 96.95927406722431 224.1105646288424 895.5144229025435 # Ar
749 749 1 0.0 290.25042314462485 728.2709496284525 691.0037049208969 # Ar
750 750 1 0.0 1170.8903280122222 924.7586548388243 1037.7935371899066 # Ar
751 751 1 0.0 474.83112918525757 143.20673392986697 849.7985324304312 # Ar
752 752 1 0.0 301.21686560705155 845.1159306356967 528.5194551053368 # Ar
753 753 1 0.0 41.29049308695339 753.7128440102522 1180.415046307313 # Ar
754 754 1 0.0 608.7624791690243 526.431598081951 126.44919314118572 # Ar
755 755 1 0.0 846.1565188736855 541.8262361055275 465.92915406104584 # Ar
756 756 1 0.0 1049.8984586806152 751.9684235000213 880.5315104486775 # Ar
757 757 1 0.0 835.6711693863863 773.3873436236308 1093.9655319545193 # Ar
758 758 1 0.0 302.39032774967933 550.5487306202506 153.94487486902946 # Ar
759 759 1 0.0 1069.1261550605827 348.0271191772141 8.831382758303953 # Ar
760 760 1 0.0 827.5077492061542 191.87588176470504 932.0346152698623 # Ar
761 761 1 0.0 40.8665762373843 1182.773538739127 660.9696903376713 # Ar
762 762 1 0.0 61.47299832439275 994.1802896175514 398.50555094155266 # Ar
763 763 1 0.0 689.3238707650632 51.67915367471051 8.733336890279114 # Ar
764 764 1 0.0 639.8062622031788 902.4780061895567 555.4538009361778 # Ar
765 765 1 0.0 124.98025911448505 477.15047485314307 23.858539824922683 # Ar
766 766 1 0.0 813.5461528958667 602.5905645329339 1048.3605757234877 # Ar
767 767 1 0.0 220.2917992484737 1137.0050282516324 547.6760841885891 # Ar
768 768 1 0.0 1166.2979194499362 621.8221166483412 492.3793988829692 # Ar
769 769 1 0.0 598.2935963135996 165.51329748273113 747.2819267361683 # Ar
770 770 1 0.0 1206.6030371318545 196.0596450917279 633.575658618699 # Ar
771 771 1 0.0 29.02404190819454 171.23988761351623 1104.4183656003083 # Ar
772 772 1 0.0 288.4772193235699 683.4431493277 859.2496666191543 # Ar
773 773 1 0.0 96.87117362768608 898.2883302602397 486.70349041001344 # Ar
774 774 1 0.0 632.2267711905047 774.3550131440938 877.7908419248638 # Ar
775 775 1 0.0 32.49398061464561 785.9238596346615 122.22971431531118 # Ar
776 776 1 0.0 0.18704093056782808 0.3683656839189361 79.45779867103784 # Ar
777 777 1 0.0 221.53828433628044 495.5924533482323 757.963250201148 # Ar
778 778 1 0.0 727.8012926409832 1219.130011739433 844.1474136805487 # Ar
779 779 1 0.0 548.8940137119575 158.41022038716642 1012.1212428699479 # Ar
780 780 1 0.0 880.1898691417312 887.6876399273813 1014.3743741618438 # Ar
781 781 1 0.0 679.576351187901 826.6932665620485 832.3124415139285 # Ar
782 782 1 0.0 1033.3550789326973 437.3790862223351 948.5088644729138 # Ar
783 783 1 0.0 449.4383985138705 328.520787095436 777.7628410679473 # Ar
784 784 1 0.0 1196.260454427911 146.0529075852834 731.412565656028 # Ar
785 785 1 0.0 951.9433432264301 43.0438249963601 620.5575992600633 # Ar
786 786 1 0.0 934.13295098856 483.506330612701 1156.2488805536468 # Ar
787 787 1 0.0 412.6398195900212 342.2082431167413 606.2722507696368 # Ar
788 788 1 0.0 487.80548840525785 662.4039037837705 178.68018014070756 # Ar
789 789 1 0.0 269.5329131637445 711.8261888090236 951.5706786171246 # Ar
790 790 1 0.0 643.4613491871535 698.1779869488834 900.2348798763932 # Ar
791 791 1 0.0 145.1875565481861 627.1452446529522 714.1693030896419 # Ar
792 792 1 0.0 1201.0715651143285 844.4724831651552 570.0010701873096 # Ar
793 793 1 0.0 820.6453032399459 802.7770739080051 7.44925662916162 # Ar
794 794 1 0.0 912.527552727435 920.3308842109578 13.109097702268468 # Ar
795 795 1 0.0 726.2924522979714 587.5889813310332 887.9529159640485 # Ar
796 796 1 0.0 596.1360841142573 715.4148551098486 234.4237214965236 # Ar
797 797 1 0.0 698.5811761060162 942.5357479954012 531.1222137459972 # Ar
798 798 1 0.0 435.9505095942943 498.3946231764108 94.1412761159304 # Ar
799 799 1 0.0 412.9165285575983 945.7717926512219 835.6590273124843 # Ar
800 800 1 0.0 870.490334749228 23.067800828036088 673.9823613399438 # Ar
801 801 1 0.0 840.6873353178523 841.9094014338293 812.4020252288575 # Ar
802 802 1 0.0 173.65981503456834 728.428781261369 451.7368845872031 # Ar
803 803 1 0.0 219.95101858370862 724.510266849837 908.8795580537052 # Ar
804 804 1 0.0 788.27208515261 169.12168677649152 887.8589789930888 # Ar
805 805 1 0.0 1058.4685687386288 922.3925087228963 681.9905205172921 # Ar
806 806 1 0.0 1167.2408011630032 93.21272513556127 1090.1543352379479 # Ar
807 807 1 0.0 164.54066616327827 205.66070972684258 1179.3733127259343 # Ar
808 808 1 0.0 233.18988700989135 992.0148877631198 544.0986934255142 # Ar
809 809 1 0.0 796.8514946613844 438.0872675845341 198.36291045191436 # Ar
810 810 1 0.0 155.32830727645296 595.3082719195002 494.41068923300935 # Ar
811 811 1 0.0 57.08786928223299 686.4217767528428 1196.5994059991851 # Ar
812 812 1 0.0 1187.4037569108682 1109.6646194034183 1094.5220770364829 # Ar
813 813 1 0.0 1096.945042962063 279.22452406241945 542.0692381454901 # Ar
814 814 1 0.0 384.44872060216113 18.1973595262773 1006.5303565895872 # Ar
815 815 1 0.0 44.27580713985509 568.3095358483088 567.653803915481 # Ar
816 816 1 0.0 962.8044210785575 1085.0335368084304 433.2645141613773 # Ar
817 817 1 0.0 501.61597995241 872.9942709800706 162.21120636513496 # Ar
818 818 1 0.0 274.868707687126 1157.7099776844327 1145.9876939785393 # Ar
819 819 1 0.0 1120.057247767262 528.7721176843503 509.7337274570917 # Ar
820 820 1 0.0 880.1666389750438 478.13669772527015 720.3070682740059 # Ar
821 821 1 0.0 399.4175535346277 605.085813379829 99.70107605708947 # Ar
822 822 1 0.0 1035.9094323600568 827.3041767521165 67.7240461150067 # Ar
823 823 1 0.0 460.99300738165795 217.89663339555707 545.5363840502519 # Ar
824 824 1 0.0 632.7705368359175 1014.9545347359996 1223.441920382538 # Ar
825 825 1 0.0 936.885353480046 520.0312521890451 16.373742546383326 # Ar
826 826 1 0.0 479.9135624666483 191.37508613875843 133.93672137728916 # Ar
827 827 1 0.0 686.1699952441896 1116.0837185267715 1207.312906224515 # Ar
828 828 1 0.0 469.31288541910243 962.2176293571578 722.5159540126787 # Ar
829 829 1 0.0 605.4759118746401 397.65298180977055 775.6983371224642 # Ar
830 830 1 0.0 41.4559762309932 897.0728648995768 259.3438047168282 # Ar
831 831 1 0.0 339.5516184868801 254.42909969081924 662.086652100499 # Ar
832 832 1 0.0 1184.1314520057736 1056.3155585486609 911.0888251349522 # Ar
833 833 1 0.0 756.1779037357452 951.7284122794175 886.7622240624719 # Ar
834 834 1 0.0 1209.3462953633834 197.0864451841244 515.6429976812333 # Ar
835 835 1 0.0 676.4303527097992 985.1243656509424 560.5639917111104 # Ar
836 836 1 0.0 928.5302553385267 594.0127936047242 715.4191461384913 # Ar
837 837 1 0.0 318.9801564734063 572.7237872615175 1134.9611083589127 # Ar
838 838 1 0.0 925.4241507302715 789.6568834639999 1086.6171909884051 # Ar
839 839 1 0.0 968.5683876431112 851.3963436039273 286.60470474792675 # Ar
840 840 1 0.0 1102.1145426567825 1079.537246498386 397.11801113584056 # Ar
841 841 1 0.0 489.5630728720306 668.5334101744211 866.7088212319219 # Ar
842 842 1 0.0 163.32381039101108 1065.4161442104414 1113.196368575403 # Ar
843 843 1 0.0 657.4021197173574 478.99118054040804 357.15804882085536 # Ar
844 844 1 0.0 395.0344135603151 303.44878351069224 347.6406469233711 # Ar
845 845 1 0.0 1214.0545448384655 450.8644761880172 1136.2446842880709 # Ar
846 846 1 0.0 206.20193970465024 703.0845645036421 642.4702947648001 # Ar
847 847 1 0.0 39.158971691790676 556.8378096379917 278.7131159215131 # Ar
848 848 1 0.0 922.157995770835 672.2652966117073 334.20136119762014 # Ar
849 849 1 0.0 286.2416578930888 1008.8542611499249 198.22720552683964 # Ar
850 850 1 0.0 294.1406794554762 848.6090105374316 199.41436141152266 # Ar
851 851 1 0.0 767.5679372237265 1050.675320141648 805.296598400487 # Ar
852 852 1 0.0 554.8154979843875 911.0849069999992 855.497547876828 # Ar
853 853 1 0.0 730.1064041500608 111.50631486458535 402.10842023957343 # Ar
854 854 1 0.0 369.3741049705488 602.702765135088 1053.276400006749 # Ar
855 855 1 0.0 310.1513112386966 871.1492527573332 325.2941832046581 # Ar
856 856 1 0.0 7.355026567977494 737.3958023971833 428.1389008630004 # Ar
857 857 1 0.0 490.711416613384 302.62955347595846 84.47304243740469 # Ar
858 858 1 0.0 1210.5848989889196 1040.309804504466 274.5438328054795 # Ar
859 859 1 0.0 1155.4573764362121 932.0110339515323 522.4211938945233 # Ar
860 860 1 0.0 541.6034944002133 297.0120615801748 777.9111672573252 # Ar
861 861 1 0.0 44.405912368160045 697.0193400323708 970.9401290479383 # Ar
862 862 1 0.0 132.60463243613805 301.3968016984014 634.3726292367961 # Ar
863 863 1 0.0 180.9496629490564 820.1279225142929 1192.140008280464 # Ar
864 864 1 0.0 994.4069166872202 1074.3982532599086 253.97551864841947 # Ar
865 865 1 0.0 848.7197403077455 915.6665382388172 1006.8555248622436 # Ar
866 866 1 0.0 296.4068434224009 398.1657841312786 344.41323376721436 # Ar
867 867 1 0.0 162.02683522730055 295.66450345308 640.5449529236396 # Ar
868 868 1 0.0 942.7873267639908 544.5546005933061 332.0994345568397 # Ar
869 869 1 0.0 1037.9120487029659 797.4786251043644 1140.5805700278192 # Ar
870 870 1 0.0 1189.51923176654 574.5466922129203 744.5349398641306 # Ar
871 871 1 0.0 949.360311688464 834.2976225441143 61.13745574218014 # Ar
872 872 1 0.0 476.3574749552884 799.7383648541877 1168.321158514893 # Ar
873 873 1 0.0 63.7891426314925 1024.129458837314 162.5149058088982 # Ar
874 874 1 0.0 986.1914902112499 428.1054709654201 721.6663531450705 # Ar
875 875 1 0.0 944.3924234352739 280.39076899648404 249.81078708876933 # Ar
876 876 1 0.0 1087.5009701522395 721.0746319611379 537.7024441251572 # Ar
877 877 1 0.0 948.3779140251623 53.58100658487707 179.13434377075407 # Ar
878 878 1 0.0 522.5998787082349 236.77676552510627 920.4456164443742 # Ar
879 879 1 0.0 676.6213034759653 294.2346100022274 851.571552284804 # Ar
880 880 1 0.0 997.0459340931131 763.1635060076086 562.172090974307 # Ar
881 881 1 0.0 988.175829637318 35.90111826852343 365.8273757475172 # Ar
882 882 1 0.0 810.2884804000656 823.9066865247447 387.255561129283 # Ar
883 883 1 0.0 973.0059169780062 1022.2315938745991 1163.025662917386 # Ar
884 884 1 0.0 708.491060495294 163.84819021419185 799.5405002436792 # Ar
885 885 1 0.0 134.7502936095015 1064.8544882749843 1086.5604800006017 # Ar
886 886 1 0.0 211.5716625106882 362.61686443601786 185.03798620773705 # Ar
887 887 1 0.0 94.22584105193565 1114.2815332025914 873.6147014436771 # Ar
888 888 1 0.0 208.35757265453037 1065.5280517051494 386.3680731308194 # Ar
889 889 1 0.0 357.4707249889625 351.186874839506 418.048192998431 # Ar
890 890 1 0.0 232.42618053344464 1000.500564819112 1159.979418643055 # Ar
891 891 1 0.0 943.0848759525 122.1937603243399 160.3609484050082 # Ar
892 892 1 0.0 324.248894317111 1125.49961750623 1236.4958483703083 # Ar
893 893 1 0.0 742.0995682309658 212.62268484483153 418.7322323900232 # Ar
894 894 1 0.0 609.483619515405 1216.7424192525784 393.46055271317834 # Ar
895 895 1 0.0 723.7434103639695 1150.4622423077537 399.4781534434065 # Ar
896 896 1 0.0 931.0955394217228 481.9831879413901 702.4047232201991 # Ar
897 897 1 0.0 648.522361430213 1140.669888242586 343.817496156842 # Ar
898 898 1 0.0 353.1553355010098 757.6972383485997 963.9145742451147 # Ar
899 899 1 0.0 1185.8899518740395 351.4959860215715 870.3950953821076 # Ar
900 900 1 0.0 19.747933007657178 674.1886917545703 168.83144872578896 # Ar
901 901 1 0.0 1002.6547059014144 1041.7731899848375 520.3018236543014 # Ar
902 902 1 0.0 1109.7270770141783 817.2132710409604 455.240514246234 # Ar
903 903 1 0.0 14.217625531514972 437.51791965450207 667.1939689685978 # Ar
904 904 1 0.0 947.5462899540864 863.7974307278782 577.3294705324666 # Ar
905 905 1 0.0 1165.041839861669 242.97432684211043 490.9006749985142 # Ar
906 906 1 0.0 252.8920297988666 408.8653429767809 986.2492902853357 # Ar
907 907 1 0.0 927.2000134515182 310.6349419127244 597.7345562221807 # Ar
908 908 1 0.0 728.3517116167912 944.0474783746844 232.5921840381817 # Ar
909 909 1 0.0 437.41895276219134 1063.0100983596408 605.9849051495603 # Ar
910 910 1 0.0 333.6603241692783 914.9440870401354 98.06939981531166 # Ar
911 911 1 0.0 563.1636118547337 401.1209243444072 61.75042387803371 # Ar
912 912 1 0.0 618.8790973941229 861.93398873959 978.1215520583335 # Ar
913 913 1 0.0 1113.8133423601453 985.1647403247287 1108.4989133478155 # Ar
914 914 1 0.0 601.043990488172 113.96897574892277 577.4200553667449 # Ar
915 915 1 0.0 168.053163091587 147.61982970465098 154.54159209394982 # Ar
916 916 1 0.0 1211.3171280703036 979.7438410698483 820.2137891393336 # Ar
917 917 1 0.0 515.5056570957786 22.875911549537573 176.9813250455909 # Ar
918 918 1 0.0 1234.2646043810894 832.7705712124641 807.1801685887451 # Ar
919 919 1 0.0 1224.928209635308 417.53557705195954 808.0398768613858 # Ar
920 920 1 0.0 166.65719232649576 879.5052429623568 586.4033713214988 # Ar
921 921 1 0.0 472.9396950126634 1232.1240738173408 1120.9985581753458 # Ar
922 922 1 0.0 36.9895193906456 1078.9165372070026 361.5690511603278 # Ar
923 923 1 0.0 587.6318741016249 743.0139656787462 900.4886773684165 # Ar
924 924 1 0.0 889.6887622591805 504.34230261533514 282.3885851513299 # Ar
925 925 1 0.0 786.0342803316656 717.0293274813436 977.4554369622512 # Ar
926 926 1 0.0 1185.70279666824 79.06437426539021 1216.8466487072085 # Ar
927 927 1 0.0 1124.5526033237527 1098.3658451564077 885.2734817328583 # Ar
928 928 1 0.0 914.8978609145798 1091.19590499294 628.9524785839657 # Ar
929 929 1 0.0 618.5326191858535 685.2932074633937 500.27800968177564 # Ar
930 930 1 0.0 912.4781957194018 665.2044498268423 768.838239507712 # Ar
931 931 1 0.0 622.2143978673786 259.4855903561596 369.7604345541161 # Ar
932 932 1 0.0 1067.9950754782644 762.8766072188071 245.53051745414206 # Ar
933 933 1 0.0 1123.472458164014 278.73753078895805 497.4825026907793 # Ar
934 934 1 0.0 1206.9128984411163 807.0139484492857 18.29108877512894 # Ar
935 935 1 0.0 974.9005516722694 538.6316813002732 209.5445685634866 # Ar
936 936 1 0.0 251.45036592028833 668.0200548920516 804.3547259508965 # Ar
937 937 1 0.0 1011.8782417783676 926.9819296925616 749.1943760364525 # Ar
938 938 1 0.0 771.5722521313915 1158.1787299514388 68.1009586835796 # Ar
939 939 1 0.0 271.4457951709285 32.573395236028276 1236.5736334143805 # Ar
940 940 1 0.0 195.92253055910876 880.3586694323288 168.22961132460387 # Ar
941 941 1 0.0 630.8687214243332 654.5458109109974 179.7160137594808 # Ar
942 942 1 0.0 1168.4414650641659 694.1506314537086 116.61075619228893 # Ar
943 943 1 0.0 500.5910813549567 857.9635499881255 1214.8628159831742 # Ar
944 944 1 0.0 568.2079141572859 535.3968969153367 1049.3957045093834 # Ar
945 945 1 0.0 1148.6573957119845 905.7376708787293 474.84801001291163 # Ar
946 946 1 0.0 364.683983109387 493.3214353879006 837.9580245221377 # Ar
947 947 1 0.0 947.6513578930599 55.570647678818624 301.5840747999136 # Ar
948 948 1 0.0 955.4323096320423 469.64710582309954 1010.379965143462 # Ar
949 949 1 0.0 763.2709872664174 233.12717383277715 832.2764325290038 # Ar
950 950 1 0.0 707.0606321039159 1067.3881214671171 874.644688313896 # Ar
951 951 1 0.0 695.3870264440694 813.8621239170149 1077.7750000503625 # Ar
952 952 1 0.0 383.406775924268 951.6083370621349 324.531278562768 # Ar
953 953 1 0.0 340.7363126455721 1054.31733880817 65.56709424440663 # Ar
954 954 1 0.0 713.120980882217 573.107859389618 832.0943274037006 # Ar
955 955 1 0.0 437.1738447290979 140.8613755775876 430.1747729673129 # Ar
956 956 1 0.0 377.2174539085475 178.6053666014744 885.099941773226 # Ar
957 957 1 0.0 888.427299992485 104.56372950092803 372.01893742139686 # Ar
958 958 1 0.0 231.54152272346937 103.48672488397432 1196.504902066232 # Ar
959 959 1 0.0 930.3487443068017 120.43913640944413 842.348474239933 # Ar
960 960 1 0.0 265.2740405681961 1082.4528075166736 494.31901379550237 # Ar
961 961 1 0.0 635.6365463951299 1128.8583511764373 13.534729428778219 # Ar
962 962 1 0.0 110.58220415362418 764.3594545956888 89.91713704923123 # Ar
963 963 1 0.0 185.12717462667018 274.1006636933554 55.92704523767362 # Ar
964 964 1 0.0 400.9132263999038 744.0288210796903 181.71368592898594 # Ar
965 965 1 0.0 352.4336252035833 1128.4897417107768 760.0492055653947 # Ar
966 966 1 0.0 518.2354891094074 969.1620690932532 921.3882160742038 # Ar
967 967 1 0.0 384.9537712836967 219.87025496659845 572.1794616274336 # Ar
968 968 1 0.0 579.343211886443 395.6221408375808 50.5046050193661 # Ar
969 969 1 0.0 76.76400159797176 913.5387608887305 768.0567158943676 # Ar
970 970 1 0.0 794.8947652272483 942.8354194727337 579.6674002041343 # Ar
971 971 1 0.0 918.6230594514194 769.7363541732452 353.1677581107245 # Ar
972 972 1 0.0 922.1721785586346 280.1880142651374 752.8179784512852 # Ar
973 973 1 0.0 157.22006623722078 874.177073947108 109.87718803154343 # Ar
974 974 1 0.0 568.8161995989389 973.7755296106217 1043.7482787660076 # Ar
975 975 1 0.0 198.46213401645974 1154.9628063656169 711.6508279417308 # Ar
976 976 1 0.0 1033.661237324702 1015.6023193630458 144.2337599291374 # Ar
977 977 1 0.0 523.9757161257731 88.33294514748603 152.48237994276474 # Ar
978 978 1 0.0 1159.5284710107876 0.644993272339598 589.7951262898544 # Ar
979 979 1 0.0 896.6537494368604 1146.5447876955247 726.8980255790573 # Ar
980 980 1 0.0 318.53973754610763 901.2183646895323 1204.0835919668145 # Ar
981 981 1 0.0 504.7460732499742 1035.6391294849034 1060.6476697822322 # Ar
982 982 1 0.0 532.8456086447692 395.1572807338215 365.3667434758519 # Ar
983 983 1 0.0 126.50252638155577 857.2860762733777 791.8266809373044 # Ar
984 984 1 0.0 237.22679007350803 253.1308142025543 1085.05403486084 # Ar
985 985 1 0.0 997.7263117315139 146.9802857912226 492.71616159744303 # Ar
986 986 1 0.0 841.8790088652419 1162.5987678388951 367.34134192758273 # Ar
987 987 1 0.0 49.204709656083615 372.1781642746423 966.3051057467817 # Ar
988 988 1 0.0 124.76514046665294 1004.9169535728845 156.4371860481778 # Ar
989 989 1 0.0 93.61111729274917 387.8729007597449 706.9635076346577 # Ar
990 990 1 0.0 739.1115451317057 1209.4153378129051 150.36252714903773 # Ar
991 991 1 0.0 1216.9328627100897 284.94971089483016 70.0054013886988 # Ar
992 992 1 0.0 536.3976691451314 978.6155051467359 871.2529129045038 # Ar
993 993 1 0.0 189.9354725658184 644.9901319835054 825.4279471015344 # Ar
994 994 1 0.0 1187.561598092978 258.8383671481734 528.0159659527937 # Ar
995 995 1 0.0 505.48129286089795 314.10732635436403 786.473152840131 # Ar
996 996 1 0.0 356.62896991797277 737.9347618392593 1063.3086770284006 # Ar
997 997 1 0.0 8.64121072533798 390.21810222452154 290.4860434732624 # Ar
998 998 1 0.0 453.94112678517854 969.9257242293689 750.9589537591565 # Ar
999 999 1 0.0 953.4202206267145 51.98674363929371 871.3378154900887 # Ar
1000 1000 1 0.0 133.29548289157898 519.9733596897686 190.9517410199365 # Ar
1001 1001 1 0.0 815.1393086149797 1220.2455616867437 635.5469364695543 # Ar
1002 1002 1 0.0 1028.457604993049 283.43144002577014 830.6857593002865 # Ar
1003 1003 1 0.0 1136.6326266815133 298.52695391629504 1091.1640515667864 # Ar
1004 1004 1 0.0 652.7223529778009 354.84152849595006 1020.8952771011224 # Ar
1005 1005 1 0.0 1232.0575164520153 677.6727015129486 641.9344490896381 # Ar
1006 1006 1 0.0 776.3984801899117 364.86243660083477 371.0049832112036 # Ar
1007 1007 1 0.0 1033.2508503340816 50.45626828343307 1216.046532282047 # Ar
1008 1008 1 0.0 202.8143930139175 653.6466261211223 1234.8005825686434 # Ar
1009 1009 1 0.0 688.9672594902765 838.6021982153459 1098.5795269181433 # Ar
1010 1010 1 0.0 602.6933083829291 794.5173770686517 93.86405295402483 # Ar
1011 1011 1 0.0 480.00276812351603 970.6930776157195 432.98894428211554 # Ar
1012 1012 1 0.0 983.8443051335637 723.5509396927781 289.5670118144724 # Ar
1013 1013 1 0.0 199.23876135057307 801.1690817944567 711.127448825933 # Ar
1014 1014 1 0.0 932.2579946766762 755.7580094739355 996.48546344835 # Ar
1015 1015 1 0.0 1204.864407782536 869.4270600170967 25.940259206373497 # Ar
1016 1016 1 0.0 764.4671634047368 155.09196082845327 898.9871833556194 # Ar
1017 1017 1 0.0 326.99051727722485 1226.2059947954046 517.3922741097123 # Ar
1018 1018 1 0.0 231.883128925764 888.8317082875856 1165.513732127244 # Ar
1019 1019 1 0.0 960.3976067124333 347.18487500071916 243.95221119201207 # Ar
1020 1020 1 0.0 804.908134152728 150.44828414939585 1230.11765156538 # Ar
1021 1021 1 0.0 1131.2760051355626 94.33342080111217 780.3789602809755 # Ar
1022 1022 1 0.0 880.9175983167523 972.2966578576561 322.58873675099306 # Ar
1023 1023 1 0.0 182.02884810373396 693.8783152772443 70.95054405174386 # Ar
1024 1024 1 0.0 312.24156131361144 258.05695289051175 535.7441280952385 # Ar
1025 1025 1 0.0 842.7104442614336 231.69290912047177 621.5005375383686 # Ar
1026 1026 1 0.0 162.82053359192807 1055.5389256191854 1143.7487550145447 # Ar
1027 1027 1 0.0 238.8383156596551 416.9457533259578 884.4037779334308 # Ar
1028 1028 1 0.0 259.6820385359486 356.73704420792546 366.01502250130795 # Ar
1029 1029 1 0.0 108.63264645042501 647.1757139534193 331.22433358748214 # Ar
1030 1030 1 0.0 66.17689158783743 415.8335741520482 146.90680589267254 # Ar
1031 1031 1 0.0 394.22326231608736 1221.9246522909518 337.5714272579867 # Ar
1032 1032 1 0.0 1151.9837198081414 981.0310599819097 273.0714271192758 # Ar
1033 1033 1 0.0 969.2988104270498 1186.8272217153637 691.9400804171464 # Ar
1034 1034 1 0.0 983.2124820874594 812.5062567010523 1113.3342760032153 # Ar
1035 1035 1 0.0 1023.3880865463497 82.67682641750086 778.7214492938841 # Ar
1036 1036 1 0.0 1160.5747451156283 186.0761695526404 199.55510515330573 # Ar
1037 1037 1 0.0 920.7215929758556 537.4265063946192 958.5589366132206 # Ar
1038 1038 1 0.0 194.1333473259999 526.2529616962047 13.3112312686082 # Ar
1039 1039 1 0.0 4.2333485853877395 430.65447623861667 1180.0180438151808 # Ar
1040 1040 1 0.0 447.40813748004894 365.8756179286904 901.6799821376005 # Ar
1041 1041 1 0.0 580.5137937138331 6.929849174084571 592.2657474676159 # Ar
1042 1042 1 0.0 1046.896531931833 1100.896795771994 1143.2829863106217 # Ar
1043 1043 1 0.0 280.6077768598871 317.5966549295632 1238.9842308063128 # Ar
1044 1044 1 0.0 692.2238151592085 353.65726882540827 188.0184558842961 # Ar
1045 1045 1 0.0 1080.4880082898253 833.8702911697313 620.156525982272 # Ar
1046 1046 1 0.0 534.0828014932094 709.4523050793152 899.7888187860982 # Ar
1047 1047 1 0.0 459.55935397319365 655.5110682037076 341.906423992096 # Ar
1048 1048 1 0.0 492.33878829584035 268.74144579812605 218.9849265554372 # Ar
1049 1049 1 0.0 59.35207396974 1199.6285442392743 1201.432507089391 # Ar
1050 1050 1 0.0 508.1387809124569 459.52927600342434 1203.111940535199 # Ar
1051 1051 1 0.0 499.0118818182839 964.7015170454006 732.1349463751403 # Ar
1052 1052 1 0.0 786.4958724421573 962.5630445305165 591.453989857631 # Ar
1053 1053 1 0.0 527.6519823307477 226.12037513027684 1160.300322976872 # Ar
1054 1054 1 0.0 11.537742230809092 754.2860326741328 277.0518225070059 # Ar
1055 1055 1 0.0 1106.4835772830897 833.3540192390223 907.2627541104027 # Ar
1056 1056 1 0.0 652.1789330472009 1188.0158928643073 564.4790735458714 # Ar
1057 1057 1 0.0 505.39847141727404 1104.8330904367415 140.12587218473 # Ar
1058 1058 1 0.0 1176.3205528760334 920.7965781316386 659.4355077251072 # Ar
1059 1059 1 0.0 1136.9190374324774 1005.1797054685402 1103.0090822924685 # Ar
1060 1060 1 0.0 741.9106242578423 988.9703832727118 422.90832281493505 # Ar
1061 1061 1 0.0 955.7811066784843 402.02302400179843 28.987460759389094 # Ar
1062 1062 1 0.0 129.6973643588159 294.00691659130007 1121.856105432353 # Ar
1063 1063 1 0.0 512.9327138867317 108.86050709033645 584.5471113595228 # Ar
1064 1064 1 0.0 1076.4036898960214 1158.3066633112344 980.8689092650923 # Ar
1065 1065 1 0.0 322.8658743727595 74.26981054281214 974.4859076636857 # Ar
1066 1066 1 0.0 1201.5917540406183 1096.9020133895983 858.6984393416332 # Ar
1067 1067 1 0.0 645.6556950725012 694.2852830261328 423.09886236404327 # Ar
1068 1068 1 0.0 923.4678351649571 991.1319833423659 30.66255992375048 # Ar
1069 1069 1 0.0 76.0219230934971 979.290518936782 241.251146833285 # Ar
1070 1070 1 0.0 1097.1349402057645 623.8581081735439 977.0019064478281 # Ar
1071 1071 1 0.0 750.0389020069027 712.7642191247533 321.7333442240612 # Ar
1072 1072 1 0.0 729.1759049400036 158.59839464355863 336.47852272887843 # Ar
1073 1073 1 0.0 248.6109359771131 981.5788187274934 414.728201542944 # Ar
1074 1074 1 0.0 554.8510683556433 177.9956056115933 440.52248760727633 # Ar
1075 1075 1 0.0 362.4364211683653 668.6708565533476 239.77476768500412 # Ar
1076 1076 1 0.0 70.45876487838203 928.1304735375218 247.98411615955033 # Ar
1077 1077 1 0.0 1063.72638059231 724.8206843528473 933.6674437851035 # Ar
1078 1078 1 0.0 575.4575399289822 236.83321098526858 891.819264837092 # Ar
1079 1079 1 0.0 779.8340416382881 635.2134471167523 1237.616072589278 # Ar
1080 1080 1 0.0 446.9979566337397 593.2018667427495 445.662600779822 # Ar
1081 1081 1 0.0 735.5487410694979 897.4669592880994 282.51446852018995 # Ar
1082 1082 1 0.0 722.7408683019288 579.1175037410412 1055.9983459678874 # Ar
1083 1083 1 0.0 9.934326215213174 816.2134845435121 888.7600734433449 # Ar
1084 1084 1 0.0 548.2310942497985 225.05658120006467 39.69785021483273 # Ar
1085 1085 1 0.0 26.060525074782618 1099.4522083522068 967.7768118815521 # Ar
1086 1086 1 0.0 324.3525524358609 529.7958681998878 42.086666730331515 # Ar
1087 1087 1 0.0 784.8190576440066 195.4563808603796 1119.7395891417143 # Ar
1088 1088 1 0.0 976.3553579203492 761.5702686752703 503.15148872715594 # Ar
1089 1089 1 0.0 273.3679718282448 832.5867781143564 757.1226337710469 # Ar
1090 1090 1 0.0 1014.2856356122356 1003.7801583239536 598.0957850812837 # Ar
1091 1091 1 0.0 1.1961302996241383 806.7050797317568 533.0305675947586 # Ar
1092 1092 1 0.0 650.2673784331793 737.2352960666487 283.4195925823827 # Ar
1093 1093 1 0.0 587.3873686156597 306.3813692957781 329.94617684414686 # Ar
1094 1094 1 0.0 893.9004247699293 1222.5687155637618 438.1185062536532 # Ar
1095 1095 1 0.0 603.1634811791337 16.388977257266596 1071.2998016663273 # Ar
1096 1096 1 0.0 1236.8690005078067 1068.871085020736 813.804346869083 # Ar
1097 1097 1 0.0 832.1855260550598 1207.648043883422 775.9652730110821 # Ar
1098 1098 1 0.0 459.5873182400013 1068.6231268894617 281.1099113458148 # Ar
1099 1099 1 0.0 912.5261855862019 780.8126742350944 420.18899020589527 # Ar
1100 1100 1 0.0 1182.4009600649395 513.6307323670025 440.1108570378653 # Ar
1101 1101 1 0.0 630.741739850459 62.68718203961792 180.5400763204238 # Ar
1102 1102 1 0.0 23.658270786429576 301.92081559172647 1171.2286253355528 # Ar
1103 1103 1 0.0 982.7005904493558 124.47506687704158 120.04502525455301 # Ar
1104 1104 1 0.0 278.88399330295215 585.7741107066167 726.7399239934098 # Ar
1105 1105 1 0.0 40.53703030191438 16.32541812528253 530.0981768734997 # Ar
1106 1106 1 0.0 499.3224215037509 1132.8390366849071 753.2279484404582 # Ar
1107 1107 1 0.0 592.6666118349154 1172.225682092881 324.910092577282 # Ar
1108 1108 1 0.0 722.1411028374097 510.71107541861653 667.0906009660443 # Ar
1109 1109 1 0.0 871.8353612882873 38.089448183657716 158.516759034264 # Ar
1110 1110 1 0.0 420.41673211019554 577.4102452775327 515.9511008454429 # Ar
1111 1111 1 0.0 922.5278026633767 728.9944377957497 271.21683297112736 # Ar
1112 1112 1 0.0 1053.3614203891932 1017.7805443715702 440.1480332234766 # Ar
1113 1113 1 0.0 880.5336731670305 460.82899731080124 274.4530266914209 # Ar
1114 1114 1 0.0 924.2415807610726 122.37963247703807 872.90126181049 # Ar
1115 1115 1 0.0 647.8293037213855 1182.7731644878013 384.4687529674961 # Ar
1116 1116 1 0.0 218.88774658963027 74.5436766752271 823.2758813632014 # Ar
1117 1117 1 0.0 267.083040010003 395.61642046811716 520.0333902249291 # Ar
1118 1118 1 0.0 10.407663228289096 811.0005754107875 157.53596052992296 # Ar
1119 1119 1 0.0 836.0469435214682 510.87742298586716 231.2330982137354 # Ar
1120 1120 1 0.0 800.6344540095325 930.3379599143095 117.94639554858833 # Ar
1121 1121 1 0.0 324.6624438892253 724.1692539703996 99.83691691820957 # Ar
1122 1122 1 0.0 35.684773636010476 794.3002574531886 1211.2525754424378 # Ar
1123 1123 1 0.0 1069.8632247702778 1134.937093543941 753.5689760236615 # Ar
1124 1124 1 0.0 484.9689584169338 831.70576402227 103.67896698784331 # Ar
1125 1125 1 0.0 886.5489460732231 171.43697660394088 773.746446498028 # Ar
1126 1126 1 0.0 454.4321299564107 1001.6483550701714 912.296718336842 # Ar
1127 1127 1 0.0 958.2690378875715 765.9543920392689 1149.7721633377946 # Ar
1128 1128 1 0.0 251.56885541763538 914.5992923559412 1046.8695689225615 # Ar
1129 1129 1 0.0 1229.7682125327592 1113.1136870599137 309.86587312491946 # Ar
1130 1130 1 0.0 438.87803558707634 543.419374141844 470.5131885531394 # Ar
1131 1131 1 0.0 757.0349043250417 905.2295360186004 521.8428111523333 # Ar
1132 1132 1 0.0 89.79456984404838 478.1606780245688 740.2780384088295 # Ar
1133 1133 1 0.0 210.56070216808735 938.6278332183339 334.7804835830418 # Ar
1134 1134 1 0.0 722.5117012003896 1082.9186960063987 465.0954823093888 # Ar
1135 1135 1 0.0 464.0402516583664 165.13515750179445 299.72093396681856 # Ar
1136 1136 1 0.0 484.6890271627109 940.4749382593442 840.151623310417 # Ar
1137 1137 1 0.0 213.187860108009 986.4266685935905 220.3406610818324 # Ar
1138 1138 1 0.0 540.5704627374091 822.4698387742167 258.3113303501778 # Ar
1139 1139 1 0.0 172.19717781587764 501.7454401988611 682.7673486033549 # Ar
1140 1140 1 0.0 190.2575789366336 1047.656191948242 221.12671282519014 # Ar
1141 1141 1 0.0 1129.0196228490336 490.6905472013564 194.74352824354497 # Ar
1142 1142 1 0.0 1042.7796149378412 784.7075283271298 25.107546554086806 # Ar
1143 1143 1 0.0 351.7012936661108 739.267715028982 38.75737934087493 # Ar
1144 1144 1 0.0 86.20854574054569 780.1199246816237 912.5438142664775 # Ar
1145 1145 1 0.0 982.5569078899035 25.614189007233065 266.36115680811866 # Ar
1146 1146 1 0.0 305.3964109441767 581.5009966339846 1228.7353145594823 # Ar
1147 1147 1 0.0 551.9615235952426 582.6055944452572 1128.2133086510337 # Ar
1148 1148 1 0.0 165.0037960083193 152.41879630740956 54.06864048380805 # Ar
1149 1149 1 0.0 1058.2868810139564 1000.3381239495792 200.63516227593686 # Ar
1150 1150 1 0.0 645.4611496363416 650.7370844199627 1236.4218262829202 # Ar
1151 1151 1 0.0 727.3235349832242 108.57147064226717 751.9079110754772 # Ar
1152 1152 1 0.0 740.8722579118205 1114.134026064297 943.9191336286331 # Ar
1153 1153 1 0.0 130.01653273812337 317.49693882368337 439.4120026114751 # Ar
1154 1154 1 0.0 873.2055980641007 183.79717007145288 310.5801243578644 # Ar
1155 1155 1 0.0 710.2195896475884 704.8183148948094 383.5636041336032 # Ar
1156 1156 1 0.0 1175.8998495706555 17.24927450418422 160.84333960267335 # Ar
1157 1157 1 0.0 176.8685382023075 1237.9336771767773 209.85762850326466 # Ar
1158 1158 1 0.0 323.0492056930839 692.7876989492584 682.4064552009651 # Ar
1159 1159 1 0.0 482.524186302437 987.7889539008718 288.695708320123 # Ar
1160 1160 1 0.0 126.38138059718004 794.5952407110497 1066.9137626612633 # Ar
1161 1161 1 0.0 150.43434079046526 797.124282101419 332.9320021457083 # Ar
1162 1162 1 0.0 611.231669164704 720.6564320075926 64.3189083971537 # Ar
1163 1163 1 0.0 792.1299260864434 1173.615383514432 147.3703788508202 # Ar
1164 1164 1 0.0 932.5132663506978 1050.4019020534806 103.72122517496103 # Ar
1165 1165 1 0.0 124.72272797248037 1236.1842489764028 1056.036973712874 # Ar
1166 1166 1 0.0 1040.598168042876 31.45397826595717 192.3617805425996 # Ar
1167 1167 1 0.0 1208.6611977647726 1002.0339578101082 1129.9925598691527 # Ar
1168 1168 1 0.0 212.08440525347464 716.5899719311732 155.9300196416374 # Ar
1169 1169 1 0.0 936.5894802123993 452.4888244830894 977.5842006296822 # Ar
1170 1170 1 0.0 208.6973176585251 777.9563875764887 428.09845200719116 # Ar
1171 1171 1 0.0 893.836714373293 280.40573164156814 73.49605077878358 # Ar
1172 1172 1 0.0 811.2646692916347 162.44014690798414 316.60620468211073 # Ar
1173 1173 1 0.0 249.72879300435662 827.7730723463416 351.3426247037531 # Ar
1174 1174 1 0.0 617.6171227221488 1078.3241231864558 1170.1753109026135 # Ar
1175 1175 1 0.0 140.10170230866464 921.0515289837516 517.5564060072159 # Ar
1176 1176 1 0.0 409.1388302359882 827.1475180928581 726.0335419915623 # Ar
1177 1177 1 0.0 267.434784792527 1047.5962981501273 575.8307747397346 # Ar
1178 1178 1 0.0 1137.1424369354334 132.70143280252177 243.2017845902356 # Ar
1179 1179 1 0.0 310.30416926620603 1039.7463473877958 102.68121474385228 # Ar
1180 1180 1 0.0 62.28032975195798 742.9017997802652 1149.9981362103338 # Ar
1181 1181 1 0.0 1108.3685733515044 1046.6281377657667 1191.8784541017183 # Ar
1182 1182 1 0.0 1112.1051502973237 211.94955964267052 397.69281538737835 # Ar
1183 1183 1 0.0 1199.7714206606695 255.4615349232989 398.5046579863551 # Ar
1184 1184 1 0.0 566.1158205745259 1108.9062524476637 858.9243184520685 # Ar
1185 1185 1 0.0 116.22079391106358 266.4072232087403 487.47496468216315 # Ar
1186 1186 1 0.0 1055.2309873732809 890.8472016246199 491.9325403342987 # Ar
1187 1187 1 0.0 1170.5858293925194 318.3599956840427 135.05276525646732 # Ar
1188 1188 1 0.0 489.32366627131944 546.7217974364676 859.1367578014956 # Ar
1189 1189 1 0.0 455.1020578031487 256.6501121679588 52.51112300453811 # Ar
1190 1190 1 0.0 1131.2433315932815 1055.9485742633574 867.0636815381342 # Ar
1191 1191 1 0.0 320.8823368233852 964.6615489619495 512.7883026340069 # Ar
1192 1192 1 0.0 965.441477310123 542.1715444878339 1122.301268583492 # Ar
1193 1193 1 0.0 346.5386020599086 750.4024503745824 671.5972414851618 # Ar
1194 1194 1 0.0 32.587973699872656 364.96007740211206 1193.7873639068175 # Ar
1195 1195 1 0.0 1097.9824652769182 654.115591056312 104.39585143348505 # Ar
1196 1196 1 0.0 384.31351182660995 864.483533746427 1000.8214696057145 # Ar
1197 1197 1 0.0 943.3743656628577 444.49573811256994 201.91533321431447 # Ar
1198 1198 1 0.0 1221.8797957551008 696.0557725191558 116.00749215985425 # Ar
1199 1199 1 0.0 410.0797336077996 8.822832335926181 1137.2360249107026 # Ar
1200 1200 1 0.0 763.2419221972577 886.8937041343747 880.7459015817764 # Ar
1201 1201 1 0.0 1170.8161294552365 592.9641549714751 213.6245772933111 # Ar
1202 1202 1 0.0 1110.8765352823564 798.8087715392928 981.907724248961 # Ar
1203 1203 1 0.0 309.9151771073129 606.1930400749069 62.89253130847329 # Ar
1204 1204 1 0.0 799.6879167277025 1169.9914385438267 491.8129653822256 # Ar
1205 1205 1 0.0 396.1662271689457 35.05115149080617 496.1420878301053 # Ar
1206 1206 1 0.0 355.4539738019436 251.67308720297083 53.960700040657144 # Ar
1207 1207 1 0.0 1174.9042939136127 859.1865534628637 157.0112925898907 # Ar
1208 1208 1 0.0 226.98577086673583 149.94850059578764 474.10818397853905 # Ar
1209 1209 1 0.0 939.5437362463811 692.3062669784737 122.8092426219243 # Ar
1210 1210 1 0.0 167.2536396387084 1180.7557491841458 608.5979384205845 # Ar
1211 1211 1 0.0 9.948920832948383 517.2951068760052 1105.8232313591056 # Ar
1212 1212 1 0.0 11.539553160612149 779.2827972624735 699.0159623955362 # Ar
1213 1213 1 0.0 576.1593870692955 750.0747797572602 162.71250165652418 # Ar
1214 1214 1 0.0 48.0265546403773 931.8827723179476 784.3271936496242 # Ar
1215 1215 1 0.0 323.14437824799063 329.7213217033167 1005.5544519270501 # Ar
1216 1216 1 0.0 873.6292633046833 510.9486655935471 972.7673812826336 # Ar
1217 1217 1 0.0 160.2743651880588 873.7324524103522 723.135736206982 # Ar
1218 1218 1 0.0 149.3370784445463 1039.3986075116811 1034.0981682119805 # Ar
1219 1219 1 0.0 283.84483573658906 763.8856187563335 911.9481202082434 # Ar
1220 1220 1 0.0 460.1077018038004 570.8416952109731 116.38290821574543 # Ar
1221 1221 1 0.0 1060.0031906242243 256.60325381941107 1159.0774742279712 # Ar
1222 1222 1 0.0 1147.2594544133171 858.0024870948705 1187.4476752231665 # Ar
1223 1223 1 0.0 806.7432537919102 601.6373371492857 1163.9589824598286 # Ar
1224 1224 1 0.0 251.11470609513248 968.3174917512462 1051.0650101789824 # Ar
1225 1225 1 0.0 309.0637632537528 450.9461388609686 794.6169590798687 # Ar
1226 1226 1 0.0 1062.6006087478208 899.9533583009866 980.2393165659233 # Ar
1227 1227 1 0.0 971.6610266707319 509.9905338707139 88.63750898456829 # Ar
1228 1228 1 0.0 307.7518467300585 386.1340269137889 769.8031442168517 # Ar
1229 1229 1 0.0 291.1380781103156 230.90550663756088 177.11634855192534 # Ar
1230 1230 1 0.0 123.62265822131211 893.2946648910056 285.0066631445268 # Ar
1231 1231 1 0.0 547.8960263994709 882.6806594905878 1061.8762281565503 # Ar
1232 1232 1 0.0 281.6852583998731 1162.899066082573 525.1102639372386 # Ar
1233 1233 1 0.0 522.3548086159615 194.7898219522245 412.7617438716197 # Ar
1234 1234 1 0.0 1087.3762319937364 34.47096661720799 257.42376222627945 # Ar
1235 1235 1 0.0 717.4334736905121 711.4710128825878 543.0426558995086 # Ar
1236 1236 1 0.0 834.8571887835451 325.32306667777124 845.5045019826877 # Ar
1237 1237 1 0.0 123.29340462662296 913.5005887569434 95.03350156149318 # Ar
1238 1238 1 0.0 313.9812121761316 487.79347423901515 673.3122367161344 # Ar
1239 1239 1 0.0 950.1253938906259 1047.1490499582924 384.2717853318313 # Ar
1240 1240 1 0.0 471.96836565784525 61.97619625340104 484.50931375834415 # Ar
1241 1241 1 0.0 509.68244167656826 1179.0846855537075 27.52786929291468 # Ar
1242 1242 1 0.0 498.055742451118 115.78838046098278 458.7680177496958 # Ar
1243 1243 1 0.0 113.98624048605821 1152.4363617197455 330.3096198204614 # Ar
1244 1244 1 0.0 1001.1436100214275 196.9841107477832 321.70979934732736 # Ar
1245 1245 1 0.0 833.585009812641 443.5269926951893 644.8991359741945 # Ar
1246 1246 1 0.0 778.9790337559306 820.9952811324613 328.13105172241836 # Ar
1247 1247 1 0.0 746.1741357865741 561.5388258620243 427.217384189825 # Ar
1248 1248 1 0.0 533.2485474020763 528.5135402081944 242.1415732004982 # Ar
1249 1249 1 0.0 325.3693016786536 689.0600479346061 456.3728410195342 # Ar
1250 1250 1 0.0 1006.4973300418704 1115.256060874618 298.45257086113213 # Ar
1251 1251 1 0.0 21.209316686508412 237.2336619206943 449.9690491055479 # Ar
1252 1252 1 0.0 896.1029917363591 770.0766839358696 452.0394762955794 # Ar
1253 1253 1 0.0 1076.197989818004 313.67738952107993 814.5926333336386 # Ar
1254 1254 1 0.0 686.1707572493925 41.7561166756965 862.0322691416013 # Ar
1255 1255 1 0.0 1149.4804735043767 163.86318611118395 520.9243413590108 # Ar
1256 1256 1 0.0 46.183500698197385 1177.9663442219896 1043.6502218104135 # Ar
1257 1257 1 0.0 130.01022029039532 510.063406551141 211.9616363590303 # Ar
1258 1258 1 0.0 1059.466348745331 814.9095053237901 1151.2700719587021 # Ar
1259 1259 1 0.0 959.1043125487487 821.6645629303192 947.2181168729488 # Ar
1260 1260 1 0.0 520.720628034103 970.2384035226278 476.0536280216459 # Ar
1261 1261 1 0.0 755.1404251779826 889.827879695676 575.9025483113953 # Ar
1262 1262 1 0.0 645.6981196881314 579.8492873757453 343.82129726241857 # Ar
1263 1263 1 0.0 101.29680771466904 383.7363728371543 783.1488703736303 # Ar
1264 1264 1 0.0 538.1110399462318 344.8322076102429 129.15736136076907 # Ar
1265 1265 1 0.0 651.0206926681706 742.2527843615704 845.2728648097865 # Ar
1266 1266 1 0.0 1185.0826988499537 108.92360422876551 766.4432014694173 # Ar
1267 1267 1 0.0 863.3265005829337 1190.3149643653633 56.02546162100295 # Ar
1268 1268 1 0.0 516.6655010765626 86.81088998052742 657.1287895160996 # Ar
1269 1269 1 0.0 352.48045518993916 372.4856170601105 329.1772764598963 # Ar
1270 1270 1 0.0 324.98288775099826 753.6372035548208 281.0003612260223 # Ar
1271 1271 1 0.0 535.1355644731273 979.865693209818 277.29456759592216 # Ar
1272 1272 1 0.0 488.9142676248911 482.8824683927612 757.1670135791031 # Ar
1273 1273 1 0.0 470.4098328043039 1155.5527475276908 957.3787147845668 # Ar
1274 1274 1 0.0 386.3030594273507 793.4806995739557 166.65560683616204 # Ar
1275 1275 1 0.0 87.56320110352829 940.7486643120931 1063.1341377060198 # Ar
1276 1276 1 0.0 1203.9862531669887 180.59403370074298 450.3001608482531 # Ar
1277 1277 1 0.0 1014.8469015024993 313.0423240388335 433.6578290019341 # Ar
1278 1278 1 0.0 825.2761479940649 129.64920134065807 988.0292892575534 # Ar
1279 1279 1 0.0 488.6172911919428 1200.3002033870785 1082.3961895661168 # Ar
1280 1280 1 0.0 617.8641212613772 693.9782680542559 591.7245484599338 # Ar
1281 1281 1 0.0 1015.5478734505283 339.8750574306172 379.16048889374656 # Ar
1282 1282 1 0.0 424.0325220846329 664.4697370151027 878.766731320405 # Ar
1283 1283 1 0.0 268.8438149658608 176.63096402103992 1072.8924328109956 # Ar
1284 1284 1 0.0 1012.9439472663205 694.4067904342215 1128.5529367378033 # Ar
1285 1285 1 0.0 134.1137055642094 956.3027247716244 30.862713884273955 # Ar
1286 1286 1 0.0 533.943434351124 414.701430637807 780.9994464561287 # Ar
1287 1287 1 0.0 674.8849531406993 1129.6335430386707 866.833400583107 # Ar
1288 1288 1 0.0 1097.5934487489205 345.4021390867593 217.3507136933029 # Ar
1289 1289 1 0.0 249.26229444387704 700.7314552899729 329.9413666826516 # Ar
1290 1290 1 0.0 750.7230051274641 737.9030475383519 502.3554891024125 # Ar
1291 1291 1 0.0 948.3070105045598 399.7117868492245 759.7550961408383 # Ar
1292 1292 1 0.0 585.8154392736568 130.2522853780031 1046.4327305052561 # Ar
1293 1293 1 0.0 298.2714231248027 967.251506644638 330.3219883079743 # Ar
1294 1294 1 0.0 128.6838752266856 149.58335267330062 760.6556224792686 # Ar
1295 1295 1 0.0 402.9077599053146 797.4976364800116 65.74815197199858 # Ar
1296 1296 1 0.0 232.93497865903512 1196.7353071160705 185.39422101389454 # Ar
1297 1297 1 0.0 188.38904827633664 58.84961670534701 1095.3884020194578 # Ar
1298 1298 1 0.0 860.5090622521777 67.13184234032177 41.77210681693968 # Ar
1299 1299 1 0.0 758.1118093829231 353.2303446850615 1130.0458892192066 # Ar
1300 1300 1 0.0 980.210713713106 882.0261675951293 104.9777205676399 # Ar
1301 1301 1 0.0 58.337618796206414 1175.0280444576983 434.84282350693394 # Ar
1302 1302 1 0.0 553.1109903123427 760.3997433002021 862.8631771203933 # Ar
1303 1303 1 0.0 1171.0923195639919 986.9010071042014 233.4213600410595 # Ar
1304 1304 1 0.0 329.6670338213793 964.8882714231634 1144.7070617639079 # Ar
1305 1305 1 0.0 1004.5036832564342 460.9295959474629 292.06698539887213 # Ar
1306 1306 1 0.0 189.9780509842607 961.4934958592872 1231.5672114678903 # Ar
1307 1307 1 0.0 973.0696965878826 240.29926422295554 814.3286051540543 # Ar
1308 1308 1 0.0 472.2771236125136 246.23385507937567 665.232410603719 # Ar
1309 1309 1 0.0 347.28868046449094 53.80787808149981 882.7064633943659 # Ar
1310 1310 1 0.0 60.86084252614635 488.6952152047948 259.63815316613454 # Ar
1311 1311 1 0.0 63.18930383882209 1191.5771240057265 528.8900457990528 # Ar
1312 1312 1 0.0 234.91371023380037 4.020658340498302 107.26876553012646 # Ar
1313 1313 1 0.0 205.50646392447612 521.9281152598203 756.6587222597551 # Ar
1314 1314 1 0.0 1112.6433443694884 508.6351273296464 1004.5534979484928 # Ar
1315 1315 1 0.0 694.3843757475403 509.7413301473183 1217.0029248071842 # Ar
1316 1316 1 0.0 608.3658571129162 591.0208709933466 232.9368734224863 # Ar
1317 1317 1 0.0 117.34029271258885 173.04213133331638 571.7503227694209 # Ar
1318 1318 1 0.0 1017.7804703940479 723.410758638153 1225.7255336683788 # Ar
1319 1319 1 0.0 842.5372091553979 465.44884678204977 552.8820792751458 # Ar
1320 1320 1 0.0 719.3301816731115 873.9410392198596 1201.2181053661448 # Ar
1321 1321 1 0.0 290.8226814274443 141.5991423899577 1054.4447941517255 # Ar
1322 1322 1 0.0 1038.6741659926806 450.3243869102993 1022.086637476476 # Ar
1323 1323 1 0.0 963.915207527715 1230.1577098139664 303.3974296642296 # Ar
1324 1324 1 0.0 1013.3907918670642 1180.5381741767003 1147.7911496944268 # Ar
1325 1325 1 0.0 1201.1368141754801 1025.1089902056372 0.9220790059525622 # Ar
1326 1326 1 0.0 1234.6677499422299 199.8835624606564 919.9959524649962 # Ar
1327 1327 1 0.0 836.2568239567973 345.9414481486673 480.7041751327289 # Ar
1328 1328 1 0.0 998.954968110424 662.1258433105602 163.4965096456499 # Ar
1329 1329 1 0.0 538.5556251161051 711.4395314055856 239.0577634709225 # Ar
1330 1330 1 0.0 1161.711229581509 850.9662692429573 1155.0537755320859 # Ar
1331 1331 1 0.0 1080.2509942129543 741.3602734438974 410.14213993881356 # Ar
1332 1332 1 0.0 594.8189900239313 1174.463478382202 452.42176594356334 # Ar
1333 1333 1 0.0 187.20249344195577 684.5816990721614 835.6550830253133 # Ar
1334 1334 1 0.0 512.9178193636591 959.9500237892669 217.00194978874194 # Ar
1335 1335 1 0.0 1092.061909471354 425.4256569489854 851.0824210235578 # Ar
1336 1336 1 0.0 1004.0123901751332 325.48064855090473 235.40996020188882 # Ar
1337 1337 1 0.0 435.6389403105704 748.1264796693507 1110.7038030384306 # Ar
1338 1338 1 0.0 843.9973241604833 516.9711807198346 893.6621639090852 # Ar
1339 1339 1 0.0 462.2444012763953 169.36936511191132 939.3822585329361 # Ar
1340 1340 1 0.0 651.5335652221938 1139.37887536714 553.3105827930211 # Ar
1341 1341 1 0.0 908.7958080347697 624.452529619005 894.5802445384143 # Ar
1342 1342 1 0.0 750.9158466348206 776.3323078430556 1004.7932140872056 # Ar
1343 1343 1 0.0 603.6081458818021 415.81256400948917 1004.5765282336463 # Ar
1344 1344 1 0.0 92.66241552993726 866.2870562189393 862.4396027491274 # Ar
1345 1345 1 0.0 1031.8497506886563 920.7974107217666 480.37723393613754 # Ar
1346 1346 1 0.0 1046.1165259038437 489.4381917600502 860.361574325614 # Ar
1347 1347 1 0.0 162.5826828380094 203.8668931896565 223.0780966925315 # Ar
1348 1348 1 0.0 673.1684879495175 437.196324683925 579.6568168223196 # Ar
1349 1349 1 0.0 1089.081932812301 482.9438942754607 1054.886581831167 # Ar
1350 1350 1 0.0 1104.5594992696278 179.26131092604035 320.9449465028469 # Ar
1351 1351 1 0.0 706.8041238896915 403.58800243635227 860.2947454827689 # Ar
1352 1352 1 0.0 837.794654458998 1174.71060405034 709.6044569093192 # Ar
1353 1353 1 0.0 276.90174660364426 1234.4942446998452 1095.4261610297153 # Ar
1354 1354 1 0.0 610.8845843561363 10.23983730555983 105.48509644092505 # Ar
1355 1355 1 0.0 327.99348553681415 273.6657477998149 928.1104695145779 # Ar
1356 1356 1 0.0 39.74196346927213 258.35384511115467 1208.7652213787312 # Ar
1357 1357 1 0.0 964.3576921381756 74.91542341378442 1170.65383012267 # Ar
1358 1358 1 0.0 547.25850014757 602.7160538561703 719.7290871737545 # Ar
1359 1359 1 0.0 1034.7812755522662 510.30178668279297 476.31759473060254 # Ar
1360 1360 1 0.0 539.7041732324458 514.655106730393 799.7396140300343 # Ar
1361 1361 1 0.0 715.2732162898486 923.0687039144829 434.38435566483065 # Ar
1362 1362 1 0.0 699.5426139825801 121.36121428530937 263.2669375151524 # Ar
1363 1363 1 0.0 1222.9356404633784 443.65163026623344 937.7910602976307 # Ar
1364 1364 1 0.0 429.0739361820113 999.8359619960893 1228.6696222794164 # Ar
1365 1365 1 0.0 516.0946275845413 1005.0876485803085 319.33478807163755 # Ar
1366 1366 1 0.0 299.51486235481207 735.586414835599 553.0600345255626 # Ar
1367 1367 1 0.0 65.89800606567799 217.58772015542866 1133.8206281698322 # Ar
1368 1368 1 0.0 1132.3500073733278 288.3313304879643 26.688736281958356 # Ar
1369 1369 1 0.0 88.29730504428184 1049.3379639020304 767.0916318827806 # Ar
1370 1370 1 0.0 1129.0430879584253 1144.1913311228407 116.28232308240665 # Ar
1371 1371 1 0.0 464.2610733882906 503.4136128555326 608.2261170971225 # Ar
1372 1372 1 0.0 388.3439158642619 389.457560405918 979.0022250181852 # Ar
1373 1373 1 0.0 506.2057940695765 213.46050479052212 1092.3613540472854 # Ar
1374 1374 1 0.0 785.6125583318039 683.2233381569009 448.39995695183995 # Ar
1375 1375 1 0.0 1211.3549361198095 305.67946005708035 809.3771522879516 # Ar
1376 1376 1 0.0 48.4818465785312 165.2971289337912 187.42713664077294 # Ar
1377 1377 1 0.0 951.4731384911466 906.1306189107248 206.7313223009218 # Ar
1378 1378 1 0.0 384.16911719718433 1040.144252639464 603.4716116975457 # Ar
1379 1379 1 0.0 1159.749205147167 98.39590106442152 350.92857263772396 # Ar
1380 1380 1 0.0 561.2533393527215 1048.9604318953627 623.1295203628474 # Ar
1381 1381 1 0.0 1208.4443435630221 856.1541249806652 589.6729274203947 # Ar
1382 1382 1 0.0 340.64969124615953 1161.5445763085536 779.389518744311 # Ar
1383 1383 1 0.0 1124.3039530562448 1048.3660765225213 8.815375501008523 # Ar
1384 1384 1 0.0 431.5783780943957 613.3022268760461 146.61365401301762 # Ar
1385 1385 1 0.0 722.010671180712 438.80575557221164 973.7693033067181 # Ar
1386 1386 1 0.0 620.5159983832164 168.04553819732746 373.05449395094325 # Ar
1387 1387 1 0.0 130.45882132155126 1237.2811528324085 63.03109911869567 # Ar
1388 1388 1 0.0 109.58761450159933 210.2225716546061 872.2444696566184 # Ar
1389 1389 1 0.0 1101.80350605307 1090.144320973034 884.4597875588602 # Ar
1390 1390 1 0.0 288.2695704288925 1056.008536176625 417.030320621338 # Ar
1391 1391 1 0.0 701.6872545979434 1040.6021401847565 747.3744419429624 # Ar
1392 1392 1 0.0 522.880421944771 711.8397626937299 168.0162953820958 # Ar
1393 1393 1 0.0 937.5246481930118 556.2733562291287 495.34761875314274 # Ar
1394 1394 1 0.0 5.06232249454794 10.914304824291708 949.2116650529657 # Ar
1395 1395 1 0.0 1009.2229794015327 785.9218016821651 906.9190883419709 # Ar
1396 1396 1 0.0 786.4359114334296 1133.521684317891 903.688874595858 # Ar
1397 1397 1 0.0 617.1295880294706 1002.3493511325569 870.0311108152221 # Ar
1398 1398 1 0.0 280.3208456534245 1147.4003384659525 1182.4977351134244 # Ar
1399 1399 1 0.0 1187.3205953971542 685.930738980434 131.76507954486422 # Ar
1400 1400 1 0.0 193.92768595819228 837.8952709438676 695.6298131663107 # Ar
1401 1401 1 0.0 462.8984265559287 46.64899490628488 221.35872377174547 # Ar
1402 1402 1 0.0 601.4932757001916 818.6367407450143 1141.6292935059457 # Ar
1403 1403 1 0.0 653.6200141990654 668.2015947459001 231.116244898741 # Ar
1404 1404 1 0.0 904.4899759788939 474.6791486031594 184.42263283365142 # Ar
1405 1405 1 0.0 1110.3428543849209 138.5384928735834 383.2892509922749 # Ar
1406 1406 1 0.0 1117.0997935388023 1200.6857229417053 620.8956979848097 # Ar
1407 1407 1 0.0 909.1334703456472 1140.336335749748 1130.8449867530062 # Ar
1408 1408 1 0.0 87.06646681302499 631.2226597467949 359.71878716402404 # Ar
1409 1409 1 0.0 1002.1321784619558 560.5468492053395 746.9051066681162 # Ar
1410 1410 1 0.0 41.39154115813991 70.43939358167293 1173.4902865944987 # Ar
1411 1411 1 0.0 561.6576596164016 226.7477064217677 1096.442381689772 # Ar
1412 1412 1 0.0 131.71086686929462 719.7092026511168 908.5865274363454 # Ar
1413 1413 1 0.0 1196.4781538716718 702.2864075351469 478.64924964486033 # Ar
1414 1414 1 0.0 737.1971256330717 93.97324697687937 1073.5360507261628 # Ar
1415 1415 1 0.0 1235.240721584639 397.11191924342575 1085.8830994161867 # Ar
1416 1416 1 0.0 946.4733196495405 386.883029325674 342.8600368026094 # Ar
1417 1417 1 0.0 622.8063466639032 742.0244247708597 283.8341215465743 # Ar
1418 1418 1 0.0 485.68885906844935 705.5739610365184 1162.9373279698382 # Ar
1419 1419 1 0.0 426.68856811621737 992.6881687189381 1140.864716587582 # Ar
1420 1420 1 0.0 637.1710652221823 1135.2396232261394 1114.362369518264 # Ar
1421 1421 1 0.0 115.29647668301361 344.4427426295444 577.3525182651288 # Ar
1422 1422 1 0.0 106.83602293081343 342.97715950542187 1139.6390154761018 # Ar
1423 1423 1 0.0 647.0413056826794 735.091816922141 1186.2832523367551 # Ar
1424 1424 1 0.0 1051.3961528344573 779.505120929098 70.89012008643411 # Ar
1425 1425 1 0.0 404.83344713850227 521.3533445125089 892.9187574472191 # Ar
1426 1426 1 0.0 753.8507187391606 204.2907372001371 412.20449438445576 # Ar
1427 1427 1 0.0 760.4396917440828 495.47155286662485 610.695163954559 # Ar
1428 1428 1 0.0 831.4468779604862 348.980189835974 514.9430205305234 # Ar
1429 1429 1 0.0 117.14124984692185 1102.4048709734916 1149.5021199879197 # Ar
1430 1430 1 0.0 699.099309227453 528.185470246099 212.92040901229612 # Ar
1431 1431 1 0.0 900.7731118769632 234.72304589758392 110.13582934816898 # Ar
1432 1432 1 0.0 1032.817429632135 1174.0928303580856 145.39314336689063 # Ar
1433 1433 1 0.0 523.6190201563418 128.0641799923073 927.7515393599732 # Ar
1434 1434 1 0.0 1058.3592133091724 696.4379021421687 1013.6977607432914 # Ar
1435 1435 1 0.0 951.1629011222298 634.5417136515413 639.7574200782889 # Ar
1436 1436 1 0.0 1161.813566272728 410.52152133170017 970.9403214838236 # Ar
1437 1437 1 0.0 385.701718465124 208.83074264801962 1052.3167371787897 # Ar
1438 1438 1 0.0 548.1956609823496 78.15503173781646 461.814147671203 # Ar
1439 1439 1 0.0 2.2923427646353924 426.5393699726278 905.0060975358841 # Ar
1440 1440 1 0.0 974.7619314079681 467.273572484276 935.6490658946416 # Ar
1441 1441 1 0.0 1069.1131914011905 350.3468477437225 1064.6803082231522 # Ar
1442 1442 1 0.0 609.9010030582219 356.14649691344056 773.834463081972 # Ar
1443 1443 1 0.0 487.808988981281 56.838483259746646 1005.2622265973469 # Ar
1444 1444 1 0.0 571.6373518730677 381.62225135973586 367.84505763736985 # Ar
1445 1445 1 0.0 687.3702471371715 1021.881898422243 847.2029674432849 # Ar
1446 1446 1 0.0 156.40406321969024 1012.8740255040175 739.1487317810783 # Ar
1447 1447 1 0.0 675.0134296334551 857.307193011482 346.33783050026483 # Ar
1448 1448 1 0.0 192.089593809238 877.8061547682117 1020.2721168068226 # Ar
1449 1449 1 0.0 204.4360343583051 630.2029891545659 94.2642379630552 # Ar
1450 1450 1 0.0 895.8427024704595 859.0758308007986 501.3392783486086 # Ar
1451 1451 1 0.0 783.4725189336684 1084.7664867765711 422.0154438055118 # Ar
1452 1452 1 0.0 332.7059045596866 1001.1306173404354 1130.613980010292 # Ar
1453 1453 1 0.0 4.699151559483642 361.62876044384757 978.4494576260445 # Ar
1454 1454 1 0.0 952.793687037275 487.6740852150627 983.542572738298 # Ar
1455 1455 1 0.0 192.9924805685876 433.1427054345833 371.8224512270321 # Ar
1456 1456 1 0.0 89.89833952921606 657.6707799122157 838.4944583311797 # Ar
1457 1457 1 0.0 426.53674978643687 620.8406241357746 299.8750303731946 # Ar
1458 1458 1 0.0 866.2626423998236 1194.5355944252833 145.18729493574537 # Ar
1459 1459 1 0.0 262.882289148229 953.690585772726 888.0885157860841 # Ar
1460 1460 1 0.0 1233.921657824587 188.63802973642294 704.3335147289821 # Ar
1461 1461 1 0.0 265.38460750938947 660.4939824839921 955.3967660078148 # Ar
1462 1462 1 0.0 581.8146540381454 420.964620122985 211.10436636944414 # Ar
1463 1463 1 0.0 291.7517142439715 244.84781771966914 1004.3352175501142 # Ar
1464 1464 1 0.0 972.4851622480772 1077.652197029712 670.7279795160243 # Ar
1465 1465 1 0.0 1230.0809002790738 964.2382784259366 366.52304990954804 # Ar
1466 1466 1 0.0 263.85062934459876 332.5029222337797 291.37922269446716 # Ar
1467 1467 1 0.0 885.8514079921807 474.10562883778135 607.8175269870221 # Ar
1468 1468 1 0.0 143.91192807069692 448.40263701338506 637.8927445928434 # Ar
1469 1469 1 0.0 832.5548228207138 639.008196445749 173.86384983851158 # Ar
1470 1470 1 0.0 36.733373070163836 788.0970734836155 1166.0795963178118 # Ar
1471 1471 1 0.0 105.16060022545949 570.9510672488874 1229.0256202348455 # Ar
1472 1472 1 0.0 110.41604938785008 915.2185280584332 115.04702327808127 # Ar
1473 1473 1 0.0 707.7328611037846 1213.440385464167 1117.8062179897302 # Ar
1474 1474 1 0.0 1153.4692363335266 563.1645458985078 234.4307001392717 # Ar
1475 1475 1 0.0 1203.9988491019092 257.4449446440843 421.59389544920816 # Ar
1476 1476 1 0.0 1110.0970453166458 1215.1046566910748 43.26430652538845 # Ar
1477 1477 1 0.0 384.1615318467574 554.9636026838183 416.4039098679704 # Ar
1478 1478 1 0.0 303.349733271349 1095.7872247959556 370.81569479426526 # Ar
1479 1479 1 0.0 266.43843409596576 210.779021915368 382.7278922442722 # Ar
1480 1480 1 0.0 327.8770265459631 803.5729818162251 1111.451105145078 # Ar
1481 1481 1 0.0 71.48602495831395 1181.4981268791482 24.20385257374949 # Ar
1482 1482 1 0.0 91.51963912354674 1102.5896795736362 1157.3809905108828 # Ar
1483 1483 1 0.0 377.3872718832653 883.4426247113256 955.1010928745497 # Ar
1484 1484 1 0.0 316.5533254101238 995.813279577175 344.1824044800321 # Ar
1485 1485 1 0.0 26.346509352569992 795.5348030663442 1192.601010498979 # Ar
1486 1486 1 0.0 400.80725981096026 851.7137808641061 182.87815172295538 # Ar
1487 1487 1 0.0 566.3016566176813 358.56064773662484 1192.501182160496 # Ar
1488 1488 1 0.0 65.19840904544738 693.2903811186355 1239.9115199358412 # Ar
1489 1489 1 0.0 323.1953785288473 1035.835141113286 569.7260297786692 # Ar
1490 1490 1 0.0 1132.2306393247327 395.9266324363905 569.1274226029316 # Ar
1491 1491 1 0.0 1021.7248104781631 217.17373568267172 1214.1851560334978 # Ar
1492 1492 1 0.0 216.75932512220677 203.75741249630966 1002.8081316872267 # Ar
1493 1493 1 0.0 990.3057846212648 422.10164178682976 706.550104211018 # Ar
1494 1494 1 0.0 1065.056025766982 416.00860359476695 864.8345564714339 # Ar
1495 1495 1 0.0 151.9113041214687 504.5871539068115 322.65339015699755 # Ar
1496 1496 1 0.0 125.3289373824958 903.6927043266227 826.1582082671971 # Ar
1497 1497 1 0.0 1218.050315305056 491.93241877396684 82.60040722233747 # Ar
1498 1498 1 0.0 1027.31300195281 1040.175815630047 62.91726608696987 # Ar
1499 1499 1 0.0 230.92701124296877 985.3174815624562 778.4019130493792 # Ar
1500 1500 1 0.0 632.9295295009056 282.29420072287286 42.70925461046799 # Ar
1501 1501 1 0.0 879.456887096292 1098.8991166559276 1021.6635047296234 # Ar
1502 1502 1 0.0 52.787061073923425 1232.3559063390553 391.40838798755556 # Ar
1503 1503 1 0.0 457.88950933015707 45.02683772827706 508.6987256345144 # Ar
1504 1504 1 0.0 506.6296352859663 916.6293599798713 721.8714895973429 # Ar
1505 1505 1 0.0 1073.4511538299103 620.8735568337584 741.8457009726288 # Ar
1506 1506 1 0.0 988.5665142329412 1223.0704633358887 1124.6572438334151 # Ar
1507 1507 1 0.0 454.95089409898685 1176.3185915753968 850.3374028301708 # Ar
1508 1508 1 0.0 906.3717616210089 169.44611900401324 425.2813520433352 # Ar
1509 1509 1 0.0 991.6926777154231 1013.4752779605363 432.5111992415633 # Ar
1510 1510 1 0.0 375.50170191909194 945.946450897759 1145.7250087595212 # Ar
1511 1511 1 0.0 1046.235271449683 505.70948545628255 1062.129926453173 # Ar
1512 1512 1 0.0 52.08020746229349 897.2273244398867 562.8085620760448 # Ar
1513 1513 1 0.0 253.76441831203806 729.6400909594951 836.3739236326189 # Ar
1514 1514 1 0.0 846.5309814788147 958.4338520568018 498.26907337288566 # Ar
1515 1515 1 0.0 300.3206970153873 241.15355139088658 843.197149244828 # Ar
1516 1516 1 0.0 394.8857647536111 473.5974778879703 571.4208764809009 # Ar
1517 1517 1 0.0 1147.5611428572358 1056.6427874396334 1029.2459198915453 # Ar
1518 1518 1 0.0 164.40867649619128 330.5429133015944 477.7320544461025 # Ar
1519 1519 1 0.0 666.416833982496 243.60873383248486 944.8739639872891 # Ar
1520 1520 1 0.0 196.24541569384917 828.0804099867646 262.34286068043065 # Ar
1521 1521 1 0.0 0.9711699781723439 669.4268797088523 69.18479648663117 # Ar
1522 1522 1 0.0 891.8391917699778 823.3965411247466 1179.947375783234 # Ar
1523 1523 1 0.0 198.37892934279773 293.45050335926396 533.0369049346807 # Ar
1524 1524 1 0.0 735.2993766387232 638.4025213929922 786.7233656040896 # Ar
1525 1525 1 0.0 190.20322136692394 1057.891285786512 102.2331538300663 # Ar
1526 1526 1 0.0 913.9866088375188 434.7583895281165 970.5080157430492 # Ar
1527 1527 1 0.0 1128.7647133834116 956.2531027445489 415.06895999509874 # Ar
1528 1528 1 0.0 808.6280124031583 85.99206938294783 1211.6572829212812 # Ar
1529 1529 1 0.0 818.7661549528278 928.680687879538 408.4470583895839 # Ar
1530 1530 1 0.0 232.70780079644746 1130.730146547534 785.3951536515264 # Ar
1531 1531 1 0.0 843.4812972957449 730.6842054267634 1014.3511578471979 # Ar
1532 1532 1 0.0 1108.5156033321373 571.4490113732268 551.1374626573204 # Ar
1533 1533 1 0.0 457.11204083523216 266.8500388030549 474.14275294996656 # Ar
1534 1534 1 0.0 1209.803225910998 626.0474662689995 615.9201224179391 # Ar
1535 1535 1 0.0 546.7314704286936 303.2313897986061 342.8057386301838 # Ar
1536 1536 1 0.0 706.619536546341 286.130474863917 463.90817846755766 # Ar
1537 1537 1 0.0 498.63760590184336 227.59123002418542 308.96030111186064 # Ar
1538 1538 1 0.0 593.6002310248856 567.16006922125 23.777190044052464 # Ar
1539 1539 1 0.0 414.49412158548114 362.23252470601955 194.08319270100918 # Ar
1540 1540 1 0.0 685.5608459670408 387.6581929255631 1088.9622345981622 # Ar
1541 1541 1 0.0 1111.8648088693442 457.00832715076916 923.2977515389668 # Ar
1542 1542 1 0.0 374.2336610017513 577.3846009382207 909.2805991913042 # Ar
1543 1543 1 0.0 421.26016891642666 1148.2427962626275 832.9756006501239 # Ar
1544 1544 1 0.0 860.2641207950367 369.61833035400366 119.0805357623965 # Ar
1545 1545 1 0.0 655.351131728437 1101.9380418456549 276.4813691509705 # Ar
1546 1546 1 0.0 832.3475282994519 1019.3360563499264 557.6865587177643 # Ar
1547 1547 1 0.0 631.2614780874167 561.4096385241721 662.8199928882208 # Ar
1548 1548 1 0.0 65.96435177938072 759.2055686472293 410.68689359691683 # Ar
1549 1549 1 0.0 252.75059291170308 1102.991646225437 1064.350639260319 # Ar
1550 1550 1 0.0 44.608706279410285 974.3208270532547 865.4531527301484 # Ar
1551 1551 1 0.0 834.9954108789024 698.8977793552622 647.0156720323456 # Ar
1552 1552 1 0.0 1080.4387895908878 1150.3157873813855 426.18174722803803 # Ar
1553 1553 1 0.0 1039.005408842965 369.80155653570006 444.3305346088485 # Ar
1554 1554 1 0.0 1125.8099994197078 859.9909548199805 858.2047715694948 # Ar
1555 1555 1 0.0 431.06030632628296 1141.4696890989326 217.37705335526715 # Ar
1556 1556 1 0.0 814.1043394346835 265.8452637566285 1224.8502230998843 # Ar
1557 1557 1 0.0 678.52689178897 883.3590823396905 655.6894265103475 # Ar
1558 1558 1 0.0 551.354240230771 990.7666054185793 1113.4244672283824 # Ar
1559 1559 1 0.0 996.3388925550429 862.7573439156135 286.9025874337907 # Ar
1560 1560 1 0.0 972.5321304842785 68.74687914966908 1018.7440145299907 # Ar
1561 1561 1 0.0 918.4087156599923 376.7637998800398 491.7314207119534 # Ar
1562 1562 1 0.0 270.53018368696166 185.30568446024782 113.85845680475259 # Ar
1563 1563 1 0.0 500.9606885380588 141.76871633861057 336.8645255968706 # Ar
1564 1564 1 0.0 360.9265877029913 1152.1676286997917 163.3967793522291 # Ar
1565 1565 1 0.0 1193.0706497781894 179.8772287923005 372.00457839747696 # Ar
1566 1566 1 0.0 1134.0866032224733 408.0446539861565 938.8282129186155 # Ar
1567 1567 1 0.0 24.535463908259597 1086.58942760161 709.4731035539003 # Ar
1568 1568 1 0.0 605.8922298093531 1171.163378598045 1061.798648747985 # Ar
1569 1569 1 0.0 828.4737734145497 171.74669646051098 65.91659351467682 # Ar
1570 1570 1 0.0 431.85750885810216 579.9159507459127 436.249278832483 # Ar
1571 1571 1 0.0 874.8487402031504 660.7179885067447 224.467757474869 # Ar
1572 1572 1 0.0 601.5474259701236 1091.492966587015 377.20797044523846 # Ar
1573 1573 1 0.0 951.4704583425026 635.3415245744673 243.24521269465035 # Ar
1574 1574 1 0.0 110.16187749527651 901.2036444599391 195.01766363845968 # Ar
1575 1575 1 0.0 625.8545420914915 924.8492159150405 965.6671181026874 # Ar
1576 1576 1 0.0 291.0563375184441 1203.5853643899275 149.48432312421534 # Ar
1577 1577 1 0.0 441.0665688436401 1200.35388904191 957.6054270690445 # Ar
1578 1578 1 0.0 420.3689027763247 941.360512630135 1167.515361186071 # Ar
1579 1579 1 0.0 778.2233613920887 905.2165746131897 661.2863293153974 # Ar
1580 1580 1 0.0 751.3388986405254 189.71271729655416 1167.3120067522495 # Ar
1581 1581 1 0.0 830.348450750544 493.8095491739722 1162.7872128439365 # Ar
1582 1582 1 0.0 282.57932474355647 788.8557761413854 568.087058790753 # Ar
1583 1583 1 0.0 1144.0362469084846 249.0693255431621 468.3896626078356 # Ar
1584 1584 1 0.0 1171.9010861084712 166.25104475857424 248.98964877239695 # Ar
1585 1585 1 0.0 735.4594916609001 395.06034750940034 301.86275590885737 # Ar
1586 1586 1 0.0 952.684992857791 813.7434780637975 404.59395026581313 # Ar
1587 1587 1 0.0 473.94843230551083 926.3339074319761 1114.3508071603137 # Ar
1588 1588 1 0.0 1193.6471777100617 305.5221563740424 973.3236635460794 # Ar
1589 1589 1 0.0 1087.1094286283299 567.6408539682552 741.8063454703129 # Ar
1590 1590 1 0.0 133.6962148287226 25.029395075903814 555.0402749691673 # Ar
1591 1591 1 0.0 495.3847171786396 106.56949589368851 374.60148721050956 # Ar
1592 1592 1 0.0 1208.8856349853907 269.1968213306096 1136.9903654452312 # Ar
1593 1593 1 0.0 867.9045592309665 248.20285151889175 493.23062584742496 # Ar
1594 1594 1 0.0 1224.9931417094945 1130.1943609765972 861.0730208095201 # Ar
1595 1595 1 0.0 389.10574520222013 1012.629001339695 459.7073512541173 # Ar
1596 1596 1 0.0 1074.6368243076927 38.114216072150704 62.32057452170768 # Ar
1597 1597 1 0.0 820.3592093416863 553.1099494864328 915.2787622977435 # Ar
1598 1598 1 0.0 29.19951754617543 137.9378395903614 173.95017558590143 # Ar
1599 1599 1 0.0 1167.8438268615407 954.277617731378 800.9574255699711 # Ar
1600 1600 1 0.0 847.0806856478232 75.23571463823147 130.73297648768417 # Ar
1601 1601 1 0.0 1138.6951539489266 248.48726344574587 765.050969403018 # Ar
1602 1602 1 0.0 484.66576623631926 253.90733608678534 506.85837352455536 # Ar
1603 1603 1 0.0 379.34726744294204 314.69187230706626 928.5131649435724 # Ar
1604 1604 1 0.0 964.6589625272957 686.8771627548027 849.5865869333129 # Ar
1605 1605 1 0.0 756.2980951145508 995.1964999990652 721.8181848599141 # Ar
1606 1606 1 0.0 684.0901770544843 310.0925517451367 841.1731637620954 # Ar
1607 1607 1 0.0 555.8313895783422 10.544344509374094 940.1024343627079 # Ar
1608 1608 1 0.0 528.4487152814144 53.18585893085436 1173.1374435295133 # Ar
1609 1609 1 0.0 766.7205085770966 768.2527027727458 141.93015771406 # Ar
1610 1610 1 0.0 274.1670605755994 412.532516001175 47.51705274562549 # Ar
1611 1611 1 0.0 354.12833464298626 1085.5026340761867 305.62690720247826 # Ar
1612 1612 1 0.0 371.047692706787 1088.429085339955 1047.136357518056 # Ar
1613 1613 1 0.0 53.74160736150021 726.5052020221925 769.5933559033382 # Ar
1614 1614 1 0.0 463.8266915789088 236.19974365598057 82.92484406292388 # Ar
1615 1615 1 0.0 441.2711551248812 402.7711439710776 513.6850906977903 # Ar
1616 1616 1 0.0 28.578639175395974 819.9121392009919 186.1228149986746 # Ar
1617 1617 1 0.0 652.8061610864537 428.02531328838467 408.42305127970394 # Ar
1618 1618 1 0.0 289.86917916288735 1100.2324448713339 20.164895216834747 # Ar
1619 1619 1 0.0 1107.7568513507872 883.4728665647175 200.47910371054024 # Ar
1620 1620 1 0.0 159.10478430902322 218.08513048267514 242.098560450376 # Ar
1621 1621 1 0.0 711.498010238976 242.12253776982115 641.7286463681504 # Ar
1622 1622 1 0.0 996.0905632541688 408.01585225795196 1110.610101364009 # Ar
1623 1623 1 0.0 896.5978009583365 375.7489928842298 130.72527075879705 # Ar
1624 1624 1 0.0 600.4790013916314 1085.9519253776186 601.1205270262719 # Ar
1625 1625 1 0.0 89.82795165171132 230.30503645227938 900.7358655127796 # Ar
1626 1626 1 0.0 482.1421134653166 115.55589711391185 274.1535200721119 # Ar
1627 1627 1 0.0 1193.010373808826 233.71969854872827 785.1704908641746 # Ar
1628 1628 1 0.0 11.955786263110976 848.9572441050473 27.003617846758345 # Ar
1629 1629 1 0.0 1198.033141274428 256.7364229708402 876.2147197252833 # Ar
1630 1630 1 0.0 578.0154940452691 348.97187549883745 343.57407258095344 # Ar
1631 1631 1 0.0 635.9915535689058 1118.2695182231382 460.40492758727777 # Ar
1632 1632 1 0.0 880.0442512410872 201.5000443156382 1208.7790329872714 # Ar
1633 1633 1 0.0 1068.112835388852 158.91595604262363 579.5944765202789 # Ar
1634 1634 1 0.0 306.18076771091114 804.7684520549868 1136.2680486250588 # Ar
1635 1635 1 0.0 736.9281108005869 942.8243915844841 96.23000747850334 # Ar
1636 1636 1 0.0 421.5770682067881 628.5713385777769 77.51773588963535 # Ar
1637 1637 1 0.0 1150.4574216562467 250.45528548851948 785.3528566463997 # Ar
1638 1638 1 0.0 544.4230677469724 1138.7700776153717 737.7468068889445 # Ar
1639 1639 1 0.0 591.6035424329805 823.5006047955559 558.2550126961786 # Ar
1640 1640 1 0.0 60.7704267040383 987.8989176904922 99.14871268525054 # Ar
1641 1641 1 0.0 97.60988257848847 12.866822824225956 334.98477684276355 # Ar
1642 1642 1 0.0 584.5324522523647 863.6643564140298 767.9549965679961 # Ar
1643 1643 1 0.0 630.4485335087396 987.9235490982906 706.700868080137 # Ar
1644 1644 1 0.0 1077.5506759839056 990.3641527816277 348.1751290255312 # Ar
1645 1645 1 0.0 77.75749583616286 690.2401613347372 5.065028227217198 # Ar
1646 1646 1 0.0 272.2051477563218 465.63806397971626 606.3501976373498 # Ar
1647 1647 1 0.0 1.0152402337491406 1217.3523875726103 397.6239400344563 # Ar
1648 1648 1 0.0 196.38977479939993 594.0211463523935 827.1681550701101 # Ar
1649 1649 1 0.0 761.7046102570878 955.3207843759709 1191.3786441842647 # Ar
1650 1650 1 0.0 761.3978317759468 63.21124396611115 918.2686396993973 # Ar
1651 1651 1 0.0 1060.0160155413114 935.960144937123 38.13564056197518 # Ar
1652 1652 1 0.0 634.7903142573089 298.87803402632 286.625287677771 # Ar
1653 1653 1 0.0 966.1638665382284 341.8551546544314 500.5364636690202 # Ar
1654 1654 1 0.0 689.0177911756667 224.24441819099943 1044.9032815952678 # Ar
1655 1655 1 0.0 1201.540312076255 771.9657345185925 1133.2343524148223 # Ar
1656 1656 1 0.0 1192.2813230037054 1178.8493854563565 1040.5244930201898 # Ar
1657 1657 1 0.0 247.84613041970127 849.9652399106992 962.0770834117012 # Ar
1658 1658 1 0.0 232.36468531006182 468.55775180162874 753.1811120601682 # Ar
1659 1659 1 0.0 971.186092493006 856.5532685519225 106.65513104325709 # Ar
1660 1660 1 0.0 702.8594898610191 1047.902712222033 817.4801413862539 # Ar
1661 1661 1 0.0 1170.238505179759 536.2227806076694 349.98643901544125 # Ar
1662 1662 1 0.0 553.6861770145599 1229.265801118267 805.4815672953796 # Ar
1663 1663 1 0.0 960.6888117025303 1059.694886519821 493.2364061157644 # Ar
1664 1664 1 0.0 402.8516265362273 519.384490082493 3.2389068185968553 # Ar
1665 1665 1 0.0 538.9355779519902 1098.9965530364586 1019.7033709428244 # Ar
1666 1666 1 0.0 280.6383862111838 426.49298809464864 448.25990079593885 # Ar
1667 1667 1 0.0 401.22037855037445 249.19752331163014 359.6306446435132 # Ar
1668 1668 1 0.0 349.18483969474096 1138.408101442147 854.8927571896996 # Ar
1669 1669 1 0.0 236.69527574485562 280.36567677950165 1093.398746265632 # Ar
1670 1670 1 0.0 644.227768459917 855.7684125674074 1002.6008714352786 # Ar
1671 1671 1 0.0 474.0525684912451 993.7653110157768 23.625723319054558 # Ar
1672 1672 1 0.0 664.3740011002944 677.5943155883713 881.5835564935652 # Ar
1673 1673 1 0.0 136.68771178087366 774.7346715748041 864.0544443817109 # Ar
1674 1674 1 0.0 541.8235753396079 334.11976383022136 41.96321064704653 # Ar
1675 1675 1 0.0 147.64018372367332 187.2526021415715 75.52485783642385 # Ar
1676 1676 1 0.0 820.7297087840913 847.7662761715102 681.6372084239038 # Ar
1677 1677 1 0.0 1203.162906708712 897.9892922183503 642.0224250564038 # Ar
1678 1678 1 0.0 411.0752556900933 370.1546087018983 922.5094364525413 # Ar
1679 1679 1 0.0 103.21947542284627 700.7442056935338 608.7188675589665 # Ar
1680 1680 1 0.0 391.2740708796598 541.17062654602 137.350612805127 # Ar
1681 1681 1 0.0 1238.8242177976772 256.39471658909173 557.5314700789273 # Ar
1682 1682 1 0.0 1198.841956287509 400.95723955561255 259.8517406878497 # Ar
1683 1683 1 0.0 997.4003442782312 1027.8559098955748 128.40416427003174 # Ar
1684 1684 1 0.0 108.36053465553475 187.85065020654176 217.6437093273483 # Ar
1685 1685 1 0.0 463.4246164813583 895.7151513390287 108.16539718950398 # Ar
1686 1686 1 0.0 984.8819401648962 1053.758077649493 1070.0855991207034 # Ar
1687 1687 1 0.0 1125.7266032223727 1228.0028652821288 1070.6061567663849 # Ar
1688 1688 1 0.0 1215.0332426395216 892.4800789145983 529.6000701214989 # Ar
1689 1689 1 0.0 377.17480610053053 529.7713867535822 354.81498451827514 # Ar
1690 1690 1 0.0 136.497015787871 811.1585077001637 555.9433871449988 # Ar
1691 1691 1 0.0 600.8647567298308 1021.4357182660361 744.7353977195272 # Ar
1692 1692 1 0.0 808.6945650147335 816.7605563922424 798.1296134260721 # Ar
1693 1693 1 0.0 291.9905376701325 366.51378560892437 1210.2487430919095 # Ar
1694 1694 1 0.0 1177.4267251653584 190.09698313203302 597.7447457970495 # Ar
1695 1695 1 0.0 1209.5467464695996 675.5963059734502 336.032429403616 # Ar
1696 1696 1 0.0 961.4388718775699 126.36183178531442 1027.4088040503257 # Ar
1697 1697 1 0.0 873.2210141101993 818.5507126108608 301.1597511811684 # Ar
1698 1698 1 0.0 32.450723964948565 604.1961723732808 1146.7772381368775 # Ar
1699 1699 1 0.0 1219.3768815955207 680.8789612395553 85.75787893127448 # Ar
1700 1700 1 0.0 1156.7804902831601 780.6203764779302 364.33842322615226 # Ar
1701 1701 1 0.0 511.9513764445756 117.70245317743613 483.290240231859 # Ar
1702 1702 1 0.0 908.3805680265033 17.505095849726874 616.9825348923964 # Ar
1703 1703 1 0.0 381.40756980514703 508.919174991953 955.3575405155915 # Ar
1704 1704 1 0.0 1184.8805843225514 583.1439897935113 936.814396238674 # Ar
1705 1705 1 0.0 411.40124369371966 10.686878259848411 320.4693626098186 # Ar
1706 1706 1 0.0 81.62769837178782 546.5041688915394 171.24668220482184 # Ar
1707 1707 1 0.0 630.2754215772243 720.0681375244727 168.5328043496502 # Ar
1708 1708 1 0.0 818.2188323651222 449.5485699404424 451.3213019637178 # Ar
1709 1709 1 0.0 787.6948453538427 572.4219071804586 831.8474668659065 # Ar
1710 1710 1 0.0 862.0079604906291 291.4619702205859 145.25615949681233 # Ar
1711 1711 1 0.0 1181.2049891643328 1039.9967621119752 97.2302246709783 # Ar
1712 1712 1 0.0 503.32194194515154 843.3590873685264 1038.1964085661957 # Ar
1713 1713 1 0.0 23.59266574823027 187.44044532361735 1181.4952138430715 # Ar
1714 1714 1 0.0 1193.1827310725603 821.1544025795997 277.1091563420777 # Ar
1715 1715 1 0.0 837.0737493015548 161.74637313302222 435.18310797719784 # Ar
1716 1716 1 0.0 799.4000021324567 364.80888097697357 656.1320286381097 # Ar
1717 1717 1 0.0 502.89535794392054 1116.1142321379461 774.6299925478402 # Ar
1718 1718 1 0.0 878.699467167208 521.2399548266841 994.2384923481508 # Ar
1719 1719 1 0.0 1032.199923040513 1093.0569048856264 205.4966642705689 # Ar
1720 1720 1 0.0 524.1893574751848 1219.9971292784326 888.128713656739 # Ar
1721 1721 1 0.0 62.88029614989675 450.6490291969271 1199.7862460975985 # Ar
1722 1722 1 0.0 1067.170102747542 130.0854817617028 1204.9895307196111 # Ar
1723 1723 1 0.0 682.4767743111727 1051.7175122989854 148.64513549735614 # Ar
1724 1724 1 0.0 1046.6322531332778 709.6142072891026 846.8096869886862 # Ar
1725 1725 1 0.0 392.81817826358315 209.30147293067554 88.70939655571436 # Ar
1726 1726 1 0.0 601.351154848233 789.8490306512737 203.16103312081938 # Ar
1727 1727 1 0.0 1221.8136981406874 324.5831883060399 354.9704818757035 # Ar
1728 1728 1 0.0 564.2138639416231 976.6119136121795 1223.0407898828414 # Ar
1729 1729 1 0.0 52.74929152256834 311.63124199921646 429.519732888889 # Ar
1730 1730 1 0.0 591.620911204506 759.5967012556919 584.3318408658064 # Ar
1731 1731 1 0.0 418.23025747404876 1157.1379267695252 544.2496585933845 # Ar
1732 1732 1 0.0 877.25130034283 522.8863042593093 459.7018096332411 # Ar
1733 1733 1 0.0 1085.400526066739 1029.2527747020777 252.3442408923635 # Ar
1734 1734 1 0.0 108.34702195789546 1011.9388770445295 1025.8172199392104 # Ar
1735 1735 1 0.0 1216.389058470402 1016.4077568269425 602.4427220929713 # Ar
1736 1736 1 0.0 1197.6257479263577 892.2567351014624 335.4363731405907 # Ar
1737 1737 1 0.0 861.8605310202452 651.0929092710638 895.2082243220162 # Ar
1738 1738 1 0.0 300.3819958053436 1204.6013976088059 480.57595710848676 # Ar
1739 1739 1 0.0 916.0775255073771 791.6526200622809 487.2606880246398 # Ar
1740 1740 1 0.0 860.5157949753097 222.50162660905212 477.4573150450827 # Ar
1741 1741 1 0.0 303.87335585192767 711.0457003898351 622.640561472447 # Ar
1742 1742 1 0.0 132.9226343308687 237.00166186078715 300.8263964319702 # Ar
1743 1743 1 0.0 1183.967502289945 137.28614012368666 820.9591227291903 # Ar
1744 1744 1 0.0 389.1915192692752 912.7217622021623 1199.298819867389 # Ar
1745 1745 1 0.0 890.7560874838509 83.23952259098624 1148.4832595509986 # Ar
1746 1746 1 0.0 1199.3813458407412 391.3353775724302 146.66736039664013 # Ar
1747 1747 1 0.0 434.4896886960135 1164.8417171161316 181.5755260263791 # Ar
1748 1748 1 0.0 1024.9223933080639 721.9483793018463 35.62005278034473 # Ar
1749 1749 1 0.0 246.39141172043978 128.74499224522933 524.1768734702146 # Ar
1750 1750 1 0.0 1111.2549722871793 129.36921422285633 493.73153589535883 # Ar
1751 1751 1 0.0 146.09328306352765 370.20430242450743 944.2762344109609 # Ar
1752 1752 1 0.0 879.4132728876892 402.1140442295097 574.2050416899883 # Ar
1753 1753 1 0.0 681.9909806920534 733.3160395324188 577.3050846316722 # Ar
1754 1754 1 0.0 731.9845342979213 356.492380808035 790.9549250222396 # Ar
1755 1755 1 0.0 879.7007954533527 828.5178427583812 546.9940662993339 # Ar
1756 1756 1 0.0 497.79102556919423 1130.9622675798962 558.7912381916537 # Ar
1757 1757 1 0.0 44.30176967230005 1020.181155735497 828.0921555173501 # Ar
1758 1758 1 0.0 597.5578148439765 582.07693583225 133.7139640836737 # Ar
1759 1759 1 0.0 1021.2669587299608 778.532363243696 1194.025729261877 # Ar
1760 1760 1 0.0 170.1370271758699 784.0069590031507 519.2223006083259 # Ar
1761 1761 1 0.0 268.20116985873125 771.1971788205053 1130.9537633639968 # Ar
1762 1762 1 0.0 261.81149555225636 855.2169580479497 37.55276571146912 # Ar
1763 1763 1 0.0 1033.019100842171 987.76312450955 9.823377737651361 # Ar
1764 1764 1 0.0 953.584357100975 318.97145931629524 93.93929288639434 # Ar
1765 1765 1 0.0 1195.208214826432 270.79112223782664 968.0002289104701 # Ar
1766 1766 1 0.0 1156.3494609099555 1015.8776941396546 180.989624568966 # Ar
1767 1767 1 0.0 1074.1552978902225 1139.8143675699112 135.9727272894305 # Ar
1768 1768 1 0.0 315.62932905849664 614.1296843156276 1224.8076607479718 # Ar
1769 1769 1 0.0 1048.30932895054 1205.3886252546909 1236.2819127468804 # Ar
1770 1770 1 0.0 126.44864647030329 881.0966117895155 173.87105200047418 # Ar
1771 1771 1 0.0 1009.6220670137232 152.7765936540023 0.9321971586527237 # Ar
1772 1772 1 0.0 749.7800610646309 184.26671167855298 820.8900699502954 # Ar
1773 1773 1 0.0 1138.7243573232859 1175.9233163835459 161.19447578420198 # Ar
1774 1774 1 0.0 1056.6999261479025 131.92221282655467 826.5879024876411 # Ar
1775 1775 1 0.0 874.6459444939358 374.88692379693975 162.29710419337943 # Ar
1776 1776 1 0.0 715.4945675656917 846.3319584689566 782.5288451664918 # Ar
1777 1777 1 0.0 604.8512647928087 888.4276102556836 853.0739140935822 # Ar
1778 1778 1 0.0 929.4236252582184 642.0641939253416 524.1146228970078 # Ar
1779 1779 1 0.0 119.3475901051546 144.1156071749779 433.5092935476349 # Ar
1780 1780 1 0.0 680.6809620104747 348.1755459950641 338.56073020564 # Ar
1781 1781 1 0.0 810.0419409967053 11.30667724049931 716.7181450491747 # Ar
1782 1782 1 0.0 629.0417874685845 474.20891517345746 847.2957336404547 # Ar
1783 1783 1 0.0 600.4077532558408 900.8147518700674 263.6741922094232 # Ar
1784 1784 1 0.0 1069.3859553553896 805.2674934391936 802.9028813061517 # Ar
1785 1785 1 0.0 149.0854930172904 282.03428270809076 309.1955501992235 # Ar
1786 1786 1 0.0 261.97635579415527 446.96134611820844 1136.426208080477 # Ar
1787 1787 1 0.0 518.5968256013998 521.6559202951657 470.7624908606144 # Ar
1788 1788 1 0.0 332.8590530483156 168.3225696948362 983.249982518845 # Ar
1789 1789 1 0.0 687.0475252678045 934.3118850288838 1061.6754978233434 # Ar
1790 1790 1 0.0 1092.9034036485768 562.891881659131 18.29457230291286 # Ar
1791 1791 1 0.0 785.878565584001 382.92181230437285 390.5193005011138 # Ar
1792 1792 1 0.0 302.7803067514869 1239.083807633623 668.9356670637258 # Ar
1793 1793 1 0.0 1155.7636504363215 1010.2498502348021 1232.3396547613474 # Ar
1794 1794 1 0.0 358.7762126795834 427.291521693081 32.059529662846714 # Ar
1795 1795 1 0.0 220.40872946610108 389.5431708688029 71.47894269245384 # Ar
1796 1796 1 0.0 719.8205403314913 439.83825860908206 654.4155172083628 # Ar
1797 1797 1 0.0 254.52769204113812 32.108623275981884 34.93742241673925 # Ar
1798 1798 1 0.0 1233.50060828269 787.5702578645652 621.1391657029658 # Ar
1799 1799 1 0.0 28.68578024876998 467.39540863818434 609.115398631928 # Ar
1800 1800 1 0.0 1037.504460709235 487.7198023957797 540.6557536920911 # Ar
1801 1801 1 0.0 1232.9877289194037 1016.0873790895306 75.51283939436959 # Ar
1802 1802 1 0.0 318.85639039437183 982.5754793693472 176.48929197268882 # Ar
1803 1803 1 0.0 861.0987627287215 1012.3469161996485 476.89641036326265 # Ar
1804 1804 1 0.0 637.7443465645683 419.7677682215756 154.32266512784415 # Ar
1805 1805 1 0.0 474.96892901927873 531.0759568962197 989.3423398909589 # Ar
1806 1806 1 0.0 659.0399051684672 1109.2522803339662 1190.234163939896 # Ar
1807 1807 1 0.0 345.95799010842194 586.6649357875788 289.8189886520799 # Ar
1808 1808 1 0.0 118.71102291495983 928.541716007202 904.7698402528753 # Ar
1809 1809 1 0.0 139.65708020284976 669.2660095108638 988.0396099560775 # Ar
1810 1810 1 0.0 773.3467320457978 377.2283246492036 158.7953198500008 # Ar
1811 1811 1 0.0 870.3602264688029 912.83771608481 691.7167261851075 # Ar
1812 1812 1 0.0 1236.730548644258 134.14378542758868 784.3266217919238 # Ar
1813 1813 1 0.0 866.7712799976025 1097.7264881271562 428.3163523532313 # Ar
1814 1814 1 0.0 1106.277297027243 145.78797300192758 282.2049683364106 # Ar
1815 1815 1 0.0 249.64910635663188 168.13195335157047 909.4932386524932 # Ar
1816 1816 1 0.0 859.141686518462 36.839985436414175 679.368981061522 # Ar
1817 1817 1 0.0 44.611845959084015 390.8329460641177 1197.4912864871662 # Ar
1818 1818 1 0.0 1098.769592175917 313.34554485366107 390.7240626980023 # Ar
1819 1819 1 0.0 919.4610913255952 220.53156439241374 1005.9301632112929 # Ar
1820 1820 1 0.0 848.3748749080398 69.63806914852576 1165.6846016543675 # Ar
1821 1821 1 0.0 934.4068192202681 628.136365303335 227.89596494497988 # Ar
1822 1822 1 0.0 1237.488501376673 1132.0191671311459 1004.6864991549297 # Ar
1823 1823 1 0.0 113.02650790341971 615.8139284816978 408.9337396017226 # Ar
1824 1824 1 0.0 413.9919027154439 468.38208955562516 1205.3538937895228 # Ar
1825 1825 1 0.0 345.9127954131673 236.82528620310293 536.6247690903219 # Ar
1826 1826 1 0.0 485.4551679692536 846.5700020510935 830.6862002262667 # Ar
1827 1827 1 0.0 673.9042809847368 745.5822803255661 14.936313137911386 # Ar
1828 1828 1 0.0 314.72197547693787 824.2157176956614 683.7505030433983 # Ar
1829 1829 1 0.0 1205.5460495370548 803.1023453521001 126.78265638319525 # Ar
1830 1830 1 0.0 897.8372234445746 26.480921734031774 0.8822645228245397 # Ar
1831 1831 1 0.0 726.4750964123671 1094.9597504423305 681.9955589784255 # Ar
1832 1832 1 0.0 425.05281472063376 336.38653761625653 980.6545719248398 # Ar
1833 1833 1 0.0 735.8362842887831 674.9750416917399 1135.542547608583 # Ar
1834 1834 1 0.0 697.2328130205312 649.1681320394107 42.572682395321344 # Ar
1835 1835 1 0.0 303.35595952508805 604.6751671160632 492.2062152157078 # Ar
1836 1836 1 0.0 26.852692483999896 390.29898680455125 947.2525605271517 # Ar
1837 1837 1 0.0 181.25821170359015 927.8879236285662 292.4995696170981 # Ar
1838 1838 1 0.0 747.8367526458475 575.302666612487 801.0112792683896 # Ar
1839 1839 1 0.0 160.58105023242032 692.7559609833332 112.78603663301115 # Ar
1840 1840 1 0.0 823.9226979136992 143.6125085050073 180.86853708552914 # Ar
1841 1841 1 0.0 20.389025978235885 157.32123778237533 1103.9116841697132 # Ar
1842 1842 1 0.0 220.4123871946963 20.248430225288534 859.5601056001923 # Ar
1843 1843 1 0.0 1072.5908116304422 504.3554430113786 411.2339300098614 # Ar
1844 1844 1 0.0 299.41544335162644 995.2802335380745 507.9174994029635 # Ar
1845 1845 1 0.0 1219.3955173199054 223.42871819658717 405.6928360073316 # Ar
1846 1846 1 0.0 1206.81182835998 8.06533851374173 588.0820408075858 # Ar
1847 1847 1 0.0 595.1892930351526 557.3710375971995 149.83678094857373 # Ar
1848 1848 1 0.0 626.8340705297411 153.02712918522133 227.93812148776132 # Ar
1849 1849 1 0.0 1203.3926289643402 340.0208988378486 839.946206761736 # Ar
1850 1850 1 0.0 972.6939616982488 526.0333179528039 862.5215901687245 # Ar
1851 1851 1 0.0 1048.5453783312196 1073.6740954544455 117.1651261366657 # Ar
1852 1852 1 0.0 23.740739919495322 857.104409594726 889.0018170012484 # Ar
1853 1853 1 0.0 220.15147026313863 605.6271359723456 288.91473997429443 # Ar
1854 1854 1 0.0 1181.3403481760963 243.70670354072408 195.8452680512837 # Ar
1855 1855 1 0.0 333.5683243006989 704.4555022232603 334.90597160565073 # Ar
1856 1856 1 0.0 90.85887853917637 491.5821919069627 305.3538726052125 # Ar
1857 1857 1 0.0 612.3588177572035 726.9192754927095 1089.3569506414387 # Ar
1858 1858 1 0.0 571.7628586581292 513.337987175518 335.95930016683246 # Ar
1859 1859 1 0.0 657.2823068325939 917.1593654235702 998.4803752097121 # Ar
1860 1860 1 0.0 451.0661844877798 1042.3185131052567 271.43996542734124 # Ar
1861 1861 1 0.0 212.9734156478667 1065.4661147870113 12.612632696002889 # Ar
1862 1862 1 0.0 631.8829314382316 582.8833419260509 1114.318775819732 # Ar
1863 1863 1 0.0 857.4340751206402 1210.8289085333224 22.437114234621074 # Ar
1864 1864 1 0.0 631.0328234831238 189.67187397686286 476.9318124916196 # Ar
1865 1865 1 0.0 7.495411184771032 1006.1174565795526 375.4336554898682 # Ar
1866 1866 1 0.0 308.5907387202988 1151.1646902572618 824.4268135626763 # Ar
1867 1867 1 0.0 439.50506847986117 879.6113569006635 409.4379588082096 # Ar
1868 1868 1 0.0 563.5655406712663 1022.5189276665195 199.8938248760295 # Ar
1869 1869 1 0.0 121.38674717056486 364.4877868103873 309.37488574549315 # Ar
1870 1870 1 0.0 992.1118042546185 1138.9016712856414 1074.7371942549805 # Ar
1871 1871 1 0.0 755.5646960137555 478.5363404253364 1147.6008385806017 # Ar
1872 1872 1 0.0 101.3592436236624 1232.9804457838854 1059.8565801952786 # Ar
1873 1873 1 0.0 703.4132108024365 1140.3040226446094 176.18524964420448 # Ar
1874 1874 1 0.0 220.43112806166155 581.9914094988193 192.83541764822186 # Ar
1875 1875 1 0.0 128.1916455747409 578.3519004059202 768.8252650390964 # Ar
1876 1876 1 0.0 825.689390350362 480.1436882980941 181.83652500238352 # Ar
1877 1877 1 0.0 108.07290225865778 44.295108970255306 733.0706914242656 # Ar
1878 1878 1 0.0 235.41295768793438 122.3065701478315 623.8884038926894 # Ar
1879 1879 1 0.0 26.48726731752581 1029.2638643798514 1039.2178579246713 # Ar
1880 1880 1 0.0 731.6667907264061 283.62551213192955 519.4188806100153 # Ar
1881 1881 1 0.0 93.46937459284003 1069.1005074369568 977.7244364323083 # Ar
1882 1882 1 0.0 993.4344407364158 1139.4074750073655 935.6602945520755 # Ar
1883 1883 1 0.0 416.013597050316 793.4822144349926 1108.9666746872424 # Ar
1884 1884 1 0.0 96.45438475778514 1181.8578012026312 212.22536442734238 # Ar
1885 1885 1 0.0 516.3538543151317 1197.4244731536724 382.3900006232285 # Ar
1886 1886 1 0.0 233.78050698721708 743.0568784718668 1119.1428505185106 # Ar
1887 1887 1 0.0 375.1207391703156 1048.7651126131818 790.6414965539666 # Ar
1888 1888 1 0.0 210.84571013017623 1045.8749771743153 924.3343958573104 # Ar
1889 1889 1 0.0 745.2639149045601 213.10046388952705 1083.7909045320755 # Ar
1890 1890 1 0.0 549.4975031197077 859.9483269870441 354.0153201032155 # Ar
1891 1891 1 0.0 1135.7105521754722 481.4803099003643 250.68918438261403 # Ar
1892 1892 1 0.0 1146.8278714949163 97.35892918029303 568.8230512363465 # Ar
1893 1893 1 0.0 826.3052757784002 438.4268257500447 187.33463307418606 # Ar
1894 1894 1 0.0 69.02191781115425 615.0268402760715 529.1348357154161 # Ar
1895 1895 1 0.0 203.4206092435235 970.337919277294 329.800621225686 # Ar
1896 1896 1 0.0 313.606332228311 629.8822459974557 905.3226125856368 # Ar
1897 1897 1 0.0 1081.7228764701192 515.975332534874 532.9627278226301 # Ar
1898 1898 1 0.0 453.4362715077327 421.65127481595056 972.2775573480658 # Ar
1899 1899 1 0.0 239.9282284722216 572.4594601919706 709.8136647011497 # Ar
1900 1900 1 0.0 582.7113926491076 1212.2937118683935 1088.131932891433 # Ar
1901 1901 1 0.0 6.819931125902208 455.81694012144544 396.70240678956367 # Ar
1902 1902 1 0.0 972.0715869114232 483.6687484386792 353.2360262606864 # Ar
1903 1903 1 0.0 303.505376467638 445.15403271407007 1160.404913740684 # Ar
1904 1904 1 0.0 746.0767874803748 749.1687049813315 834.7150019594093 # Ar
1905 1905 1 0.0 683.7961386843489 401.06640996218266 822.7726470109527 # Ar
1906 1906 1 0.0 1019.8915604931735 963.4511581253232 411.92026120387527 # Ar
1907 1907 1 0.0 695.5740973457282 500.69556684078873 1210.9071763492564 # Ar
1908 1908 1 0.0 968.0406720712452 1081.0107033306251 240.37758598166238 # Ar
1909 1909 1 0.0 306.24027825580595 694.9950204810656 1076.63341574137 # Ar
1910 1910 1 0.0 307.8215820061852 1136.6535875863278 1062.5388118848389 # Ar
1911 1911 1 0.0 1046.3374353241838 330.4796394281704 704.8328049243116 # Ar
1912 1912 1 0.0 6.792733837898678 383.67242507384105 816.8834510181176 # Ar
1913 1913 1 0.0 746.0935290346448 641.271178936172 1136.972148176386 # Ar
1914 1914 1 0.0 263.35236181939456 771.3014177019569 201.65572057367675 # Ar
1915 1915 1 0.0 253.8900422001069 68.62775007177085 1177.749740738563 # Ar
1916 1916 1 0.0 174.89989632817583 615.2833465403098 219.61742492653858 # Ar
1917 1917 1 0.0 201.55666991211282 214.15866596285167 1146.6428529212658 # Ar
1918 1918 1 0.0 927.3711812212292 1068.7893633628291 1208.5417155853083 # Ar
1919 1919 1 0.0 1123.3634755039461 685.3291856976347 1138.4558731702386 # Ar
1920 1920 1 0.0 1221.7130881327123 1179.6765699433097 1037.0340245298587 # Ar
1921 1921 1 0.0 985.9645412879662 719.5880296217484 617.2503495401146 # Ar
1922 1922 1 0.0 91.32087188776099 88.07466092472283 437.3727249157931 # Ar
1923 1923 1 0.0 592.9865278050589 278.68295188298913 1122.5062738155477 # Ar
1924 1924 1 0.0 950.2599840910214 99.76305151262436 692.1406093160825 # Ar
1925 1925 1 0.0 862.2070735607232 738.8433658076152 770.0918982186658 # Ar
1926 1926 1 0.0 655.0976874066115 847.0417352881943 647.1705689737844 # Ar
1927 1927 1 0.0 1178.1994630703546 786.31198306393 26.63732244181931 # Ar
1928 1928 1 0.0 621.7464376838624 39.54068541802206 647.4702006561831 # Ar
1929 1929 1 0.0 821.435379854347 673.8227717458002 221.27061359723024 # Ar
1930 1930 1 0.0 119.83031142558055 930.0332133143138 737.6010142053681 # Ar
1931 1931 1 0.0 786.9277266587186 1239.9333919232238 281.97870171274826 # Ar
1932 1932 1 0.0 785.2727846294925 35.85415079585545 373.15536035194737 # Ar
1933 1933 1 0.0 416.45729881962944 1177.8143408959415 473.4359827909182 # Ar
1934 1934 1 0.0 418.16368710888787 1110.7009757404442 512.5664829065892 # Ar
1935 1935 1 0.0 633.6005761796597 790.3312958829741 1004.3215448589543 # Ar
1936 1936 1 0.0 771.2829117562133 559.0313311428994 689.5421955878145 # Ar
1937 1937 1 0.0 479.3510098092337 127.89055139419054 644.1767788459855 # Ar
1938 1938 1 0.0 1220.000528356092 687.0089804069327 34.33268145343892 # Ar
1939 1939 1 0.0 555.5154766175624 37.356206794933144 639.300338268146 # Ar
1940 1940 1 0.0 1231.1720450666696 359.853910131095 242.01394628418458 # Ar
1941 1941 1 0.0 357.5240920164495 1095.2668875404265 355.24930144142746 # Ar
1942 1942 1 0.0 246.04043189024893 102.81550066422689 852.1239420606345 # Ar
1943 1943 1 0.0 590.6226804799928 929.1905624535892 1168.9577152768518 # Ar
1944 1944 1 0.0 637.2893682299259 916.3203567321291 1034.962789904674 # Ar
1945 1945 1 0.0 195.54505459867707 344.3686010442946 837.9808313078765 # Ar
1946 1946 1 0.0 733.1634418140825 1200.6332142818383 1144.7829223240587 # Ar
1947 1947 1 0.0 150.80402142752763 684.6493138413232 1050.1064774627985 # Ar
1948 1948 1 0.0 707.9849867632238 910.6744097711268 734.0215637652805 # Ar
1949 1949 1 0.0 946.9167275165214 287.07837589221685 1120.1732557861278 # Ar
1950 1950 1 0.0 16.43846618287281 363.5169289004205 859.1316004533692 # Ar
1951 1951 1 0.0 944.1912961816407 189.9720295298935 160.26041434833607 # Ar
1952 1952 1 0.0 495.3931451162879 867.018064925535 742.5560310650428 # Ar
1953 1953 1 0.0 116.086699144608 249.11576855349975 395.0910325324639 # Ar
1954 1954 1 0.0 532.8158647151537 534.6383792397227 717.9719635237731 # Ar
1955 1955 1 0.0 703.0874264208503 879.8275567329158 698.3609698673748 # Ar
1956 1956 1 0.0 751.0377806851413 102.37559601902103 1175.1226778595433 # Ar
1957 1957 1 0.0 599.7816539447001 369.6138956547743 821.4985271255975 # Ar
1958 1958 1 0.0 488.86141859783515 248.87067932485493 275.07693717176767 # Ar
1959 1959 1 0.0 270.9529860594111 1041.1494435798254 293.2125361430114 # Ar
1960 1960 1 0.0 695.4116520996664 936.9884591038833 78.81709083649356 # Ar
1961 1961 1 0.0 884.8400366861978 1071.750013077244 268.9719685290914 # Ar
1962 1962 1 0.0 559.8615925514699 1086.1032462539947 554.8629516944496 # Ar
1963 1963 1 0.0 442.14015240265167 941.8555586588699 84.32329610385884 # Ar
1964 1964 1 0.0 276.9182428225832 1009.1398976895177 913.1547496238596 # Ar
1965 1965 1 0.0 766.988991382396 1195.903150139116 828.6216329464193 # Ar
1966 1966 1 0.0 1004.2983235332031 559.5671827993307 1143.6254392492347 # Ar
1967 1967 1 0.0 941.9997614361828 324.2853985324903 412.2547749442342 # Ar
1968 1968 1 0.0 26.17441630694472 107.76983065537635 842.8395205922458 # Ar
1969 1969 1 0.0 1051.7237391874703 993.4281825439422 1102.5081854576433 # Ar
1970 1970 1 0.0 430.78720005249573 73.06492267168107 364.93491665546264 # Ar
1971 1971 1 0.0 440.8709944038858 912.0314858840042 119.5654943357586 # Ar
1972 1972 1 0.0 1229.1668154997903 374.0491087353029 804.9777436534566 # Ar
1973 1973 1 0.0 1081.3812805957211 985.3436558084061 1029.849950370574 # Ar
1974 1974 1 0.0 509.7588968405523 1191.1264597517772 402.2432608478049 # Ar
1975 1975 1 0.0 810.0421434533627 514.0594129541499 918.7293914511781 # Ar
1976 1976 1 0.0 286.65497621912704 1039.8649036938443 372.8066393636593 # Ar
1977 1977 1 0.0 324.3063409821751 1073.7314312013293 210.88963279521477 # Ar
1978 1978 1 0.0 49.41090133009935 1144.3017893620654 969.7816910564813 # Ar
1979 1979 1 0.0 912.646281725864 371.4126368135819 1138.1122203896705 # Ar
1980 1980 1 0.0 355.94029721269123 338.56442733078507 666.0557985685822 # Ar
1981 1981 1 0.0 334.0937711342449 102.16247003271015 62.849330962828375 # Ar
1982 1982 1 0.0 452.4557160628259 96.28502732798187 1025.8441873370389 # Ar
1983 1983 1 0.0 687.9992352847389 64.94682160563994 539.8197683280607 # Ar
1984 1984 1 0.0 337.4360152442585 417.3621564145621 717.5453556556549 # Ar
1985 1985 1 0.0 475.80085921689357 1053.9378999977052 1017.5973624722749 # Ar
1986 1986 1 0.0 249.05395325965 864.1081504786564 1127.6888959762546 # Ar
1987 1987 1 0.0 624.07213184978 76.44706333870789 945.4072611835263 # Ar
1988 1988 1 0.0 890.2258724491115 575.9979962114625 580.3052610406585 # Ar
1989 1989 1 0.0 1186.8268354744791 546.381503219904 757.6292898603695 # Ar
1990 1990 1 0.0 658.8286876210241 1108.7681996289814 745.4913808419246 # Ar
1991 1991 1 0.0 876.4496441073304 1031.3954390271022 11.24845720819359 # Ar
1992 1992 1 0.0 274.68449826551165 290.1993576851376 784.494823251519 # Ar
1993 1993 1 0.0 312.4242588506588 829.3993823534882 595.17725506617 # Ar
1994 1994 1 0.0 1238.9904007525415 678.3929833068287 229.6891290509244 # Ar
1995 1995 1 0.0 1076.1130394050163 567.2754728632887 41.85188654202804 # Ar
1996 1996 1 0.0 920.6916509577857 842.8867867365549 803.3560562208799 # Ar
1997 1997 1 0.0 898.6542560729675 55.79156784719638 459.4415251612389 # Ar
1998 1998 1 0.0 678.9502401076289 901.3336030343228 142.1142065845656 # Ar
1999 1999 1 0.0 415.33399667639264 59.97217513622031 348.07301513659485 # Ar
2000 2000 1 0.0 772.4276553562859 974.0749874898528 545.9252776523471 # Ar
