LAMMPS data file -- atom_style full -- generated by chemfiles
150 atoms
0 bonds
0 angles
0 dihedrals
0 impropers
2 atom types
0 bond types
0 angle types
0 dihedral types
0 improper types
0.00000000 733.808041 xlo xhi
0.00000000 733.808041 ylo yhi
0.00000000 733.808041 zlo zhi

# Pair Coeffs
# 1 Ar
# 2 Ar+

Masses

1 39.948 # Ar
2 39.948 # Ar+

Atoms # full

1 1 1 0.0 491.91747170818365 264.9279093668878 620.5677967560655 # Ar
2 2 1 0.0 83.26160871631562 56.37796756690226 698.7131935851083 # Ar
3 3 1 0.0 56.22998337746824 24.496999035176703 321.61820315840464 # Ar
4 4 1 0.0 121.8636976487979 13.774250016286988 445.1460614827898 # Ar
5 5 1 0.0 209.80876594351614 278.00024512246983 654.5748202920832 # Ar
6 6 1 0.0 478.78655475506514 338.2805909097887 248.81474914616248 # Ar
7 7 1 0.0 730.0733756354555 160.13559535906413 256.22543631497706 # Ar
8 8 1 0.0 705.2260180289434 601.7372826031007 91.92192435035795 # Ar
9 9 1 0.0 211.76752953948957 223.65179892671242 227.56555936116735 # Ar
10 10 1 0.0 646.1586451561874 635.7983089752116 153.38818942242986 # Ar
11 11 1 0.0 247.4930943794527 21.230742079175673 376.8305321698849 # Ar
12 12 1 0.0 558.4458984195257 262.1605404682073 439.406341788438 # Ar
13 13 1 0.0 115.75455757673086 53.688122498520194 134.21820908386687 # Ar
14 14 1 0.0 203.6811951600661 697.9594455741627 291.11940571602037 # Ar
15 15 1 0.0 707.0226474636535 364.4503026575553 593.5024904072109 # Ar
16 16 1 0.0 403.2721289313878 431.88639875146515 131.7818443042559 # Ar
17 17 1 0.0 290.12046299185783 34.712519228643586 675.2218940892876 # Ar
18 18 1 0.0 672.6350178881554 524.2235688529515 596.5930927211537 # Ar
19 19 1 0.0 168.19200369920767 515.6059647663269 82.22234053933289 # Ar
20 20 1 0.0 661.6366483857815 417.88183287409373 343.9796539725764 # Ar
21 21 1 0.0 86.18820399427956 170.74414935877468 500.4515630658823 # Ar
22 22 1 0.0 47.22215511594929 108.72653576127466 372.33161892632734 # Ar
23 23 1 0.0 7.127073314873406 608.8019284822842 16.75938976107572 # Ar
24 24 1 0.0 128.2810944259601 17.105814324000487 607.4782510367346 # Ar
25 25 1 0.0 158.56594531105353 452.5317254603459 662.4476594095678 # Ar
26 26 1 0.0 560.9773358193537 249.77184239383033 517.8586560183429 # Ar
27 27 1 0.0 703.5597565715462 426.5634396261031 364.2643301238136 # Ar
28 28 1 0.0 490.37861370222015 253.08911051536222 457.31574618572097 # Ar
29 29 1 0.0 731.7641955690611 361.9138457558068 356.45168153995303 # Ar
30 30 1 0.0 187.9037280455587 499.02106221851386 718.7806753871175 # Ar
31 31 1 0.0 293.9474426591888 179.55242243273042 350.10368244365696 # Ar
32 32 1 0.0 402.35346065663094 184.33506549610166 638.5782018171647 # Ar
33 33 1 0.0 405.27331017052006 372.8734342744998 32.50813332776323 # Ar
34 34 1 0.0 226.01709888447945 143.554365003027 526.4227582117738 # Ar
35 35 1 0.0 362.6402822224476 618.1364403242088 627.9639406029305 # Ar
36 36 1 0.0 81.87896920095531 553.5068707051182 3.3544815092734503 # Ar
37 37 1 0.0 679.184187333334 641.6757270154292 459.7506164073782 # Ar
38 38 1 0.0 447.2416134696929 214.1974814601805 482.5644460550718 # Ar
39 39 1 0.0 216.95740007704728 694.1253397207722 549.0376311374154 # Ar
40 40 1 0.0 638.551776430956 545.0539709955018 129.38123333524894 # Ar
41 41 1 0.0 557.1552484675783 264.6451600423232 512.6901661468017 # Ar
42 42 1 0.0 135.5585458291747 134.0361865069838 138.50839496297243 # Ar
43 43 1 0.0 448.5907897204861 164.02653154504313 703.5996534303969 # Ar
44 44 1 0.0 159.4413689346144 634.426225822482 79.60068201046164 # Ar
45 45 1 0.0 276.92856679660616 193.26608381531477 538.6311574477052 # Ar
46 46 1 0.0 191.16134679101154 491.81978541756865 181.1728278049154 # Ar
47 47 1 0.0 691.6955774513367 575.7877202521561 299.41665357425137 # Ar
48 48 1 0.0 596.657900582316 319.4893313427477 67.8683589976643 # Ar
49 49 1 0.0 439.7388198649357 603.2957702675618 301.43010281519815 # Ar
50 50 1 0.0 148.75964825364653 696.9532264869079 141.25474195965344 # Ar
51 51 1 0.0 216.3246735225762 92.70106410640206 384.26824141863955 # Ar
52 52 1 0.0 464.98254825479364 325.47722073276856 350.9735300047617 # Ar
53 53 1 0.0 2.5021505523549616 221.7028711762758 295.34270713210185 # Ar
54 54 1 0.0 648.1132556785574 358.12434254297256 577.3863616293714 # Ar
55 55 1 0.0 401.8523451182562 301.8768588837914 426.13340367396927 # Ar
56 56 1 0.0 381.7337031197934 705.0956855376113 674.8325834111122 # Ar
57 57 1 0.0 441.5756196246613 239.79106467639036 262.75764510061555 # Ar
58 58 1 0.0 262.76919872710977 49.77670208156679 138.68072070702772 # Ar
59 59 1 0.0 171.57752006274478 435.8896687658975 330.28656574991004 # Ar
60 60 1 0.0 688.3247951488164 68.96333544425887 157.94983909995915 # Ar
61 61 1 0.0 360.3163912828282 589.0539994202169 541.0840919548021 # Ar
62 62 1 0.0 305.2527027511051 693.9953207006253 20.647939953858362 # Ar
63 63 1 0.0 410.90581773442017 585.0057776056282 122.39048259858815 # Ar
64 64 1 0.0 389.30354671325716 115.47829658998097 214.0267322289933 # Ar
65 65 1 0.0 24.60468955985549 257.98214312362 76.90262776327714 # Ar
66 66 1 0.0 668.9984532375507 156.9743179158922 342.79243335957375 # Ar
67 67 1 0.0 293.8104711380096 197.09953592177976 590.1372174815718 # Ar
68 68 1 0.0 494.70264969162054 30.184688061605986 54.58880367807228 # Ar
69 69 1 0.0 384.68021280040966 399.3076472368947 511.3102408719581 # Ar
70 70 1 0.0 673.5738555449115 156.8186656806978 525.1388099900831 # Ar
71 71 1 0.0 634.8220673697366 410.3266227810385 495.50409192598084 # Ar
72 72 1 0.0 94.2711233342332 188.20834653688314 535.4552299513286 # Ar
73 73 1 0.0 472.60473802829506 504.72968533280994 372.77031575416606 # Ar
74 74 1 0.0 420.5231418716997 459.79083656431857 142.39995481578384 # Ar
75 75 1 0.0 389.315155531806 132.53327650632204 500.9577098174164 # Ar
76 76 1 0.0 178.03471235805503 269.5739184787204 62.194432137623565 # Ar
77 77 1 0.0 251.99780492635375 286.3263869404454 38.77182498823928 # Ar
78 78 1 0.0 427.67441870552614 452.1894474956215 281.750644329781 # Ar
79 79 1 0.0 311.96130256744607 158.83186477462766 309.7413335461911 # Ar
80 80 1 0.0 100.57149067708934 562.1730636677719 165.65023448571975 # Ar
81 81 1 0.0 732.7698043767231 436.85055958486055 345.6325577417592 # Ar
82 82 1 0.0 278.7853201902423 715.0804877551101 207.21674694828295 # Ar
83 83 1 0.0 696.1613731903848 471.14673919966936 544.9643587089604 # Ar
84 84 1 0.0 518.4222416486851 724.4339483382319 368.2091711240932 # Ar
85 85 1 0.0 19.56509168017629 491.2491005598487 67.33191449704196 # Ar
86 86 1 0.0 324.4177042014654 293.15907336992206 202.07957043336066 # Ar
87 87 1 0.0 697.1551097698382 599.75970303674 536.5460635171225 # Ar
88 88 1 0.0 326.0924166829885 654.2389693157305 567.2210337253049 # Ar
89 89 1 0.0 112.48421891114461 206.4093281911678 628.3924425662738 # Ar
90 90 1 0.0 28.709944834994243 164.3325871878089 699.6013280204851 # Ar
91 91 1 0.0 190.44711157048204 266.95443046396184 7.222134996400591 # Ar
92 92 1 0.0 276.3751126258384 72.69062483164373 30.898786308654245 # Ar
93 93 1 0.0 407.497605324095 470.2243736712832 278.3857079730308 # Ar
94 94 1 0.0 393.16124422339715 729.6386965280664 663.8682610348959 # Ar
95 95 1 0.0 317.422366042215 248.60331588640406 668.3380748199422 # Ar
96 96 1 0.0 633.4971967654229 708.1665986039419 726.4411880653638 # Ar
97 97 1 0.0 428.0666329024904 94.85203094467761 304.1677077890073 # Ar
98 98 1 0.0 249.30387285435654 566.284604943981 232.6177729041366 # Ar
99 99 1 0.0 631.8124343958725 54.50502812661949 523.4665097865171 # Ar
100 100 1 0.0 335.99577454892216 145.31863178308802 141.37281329970298 # Ar
101 101 1 0.0 91.90705980937267 49.43147202244128 683.084238148605 # Ar
102 102 1 0.0 267.7509986786127 185.20397930292154 113.93961525753946 # Ar
103 103 1 0.0 17.773942893726698 164.26717609285265 551.1535049960494 # Ar
104 104 1 0.0 340.0564444616424 136.87925893992758 65.95310209653594 # Ar
105 105 1 0.0 504.31326672069747 167.08944124852937 199.65188364814856 # Ar
106 106 1 0.0 582.3841059084708 601.9087431874258 490.5063051484145 # Ar
107 107 1 0.0 404.1254756573101 710.7891766250241 271.7215896245996 # Ar
108 108 1 0.0 424.7711122588203 129.7439549078249 80.932859542137 # Ar
109 109 1 0.0 446.6414469413773 524.7149020722417 256.2262158016529 # Ar
110 110 1 0.0 388.7327434631316 578.3888617719484 88.1911715863893 # Ar
111 111 1 0.0 524.3173706688973 208.25976174923045 618.965532929884 # Ar
112 112 1 0.0 61.22580984155123 462.0919630311403 365.9771146580261 # Ar
113 113 2 0.0 407.60523470911033 243.77653171800904 710.9065350866249 # Ar+
114 114 2 0.0 575.1974722023004 76.05691461461507 502.1989250801041 # Ar+
115 115 2 0.0 220.9075928385292 164.40505989411338 55.07721718215531 # Ar+
116 116 2 0.0 112.62262508103748 418.9177480588013 32.96707590164585 # Ar+
117 117 2 0.0 324.47758072170353 47.27692001176994 692.0643576229759 # Ar+
118 118 2 0.0 68.32987620378357 425.6953363839781 281.5619356198964 # Ar+
119 119 2 0.0 678.0052294751168 354.75213973143644 281.5537051308139 # Ar+
120 120 2 0.0 22.775123517967536 351.49306904891455 605.2262948411316 # Ar+
121 121 2 0.0 200.166662699913 449.5901119241337 331.1529519775708 # Ar+
122 122 2 0.0 488.71881311723786 505.81336649071284 608.1758187899102 # Ar+
123 123 2 0.0 176.656789457905 588.0679715497122 64.88479344656959 # Ar+
124 124 2 0.0 540.4945648640077 186.19047173616246 552.8420056881516 # Ar+
125 125 2 0.0 15.83267114126821 46.025408913970374 191.3516619323232 # Ar+
126 126 2 0.0 527.6295024425896 96.87670861404459 518.1905570573666 # Ar+
127 127 2 0.0 684.1193732954926 73.58764791448111 131.48367816940925 # Ar+
128 128 2 0.0 463.97199591634393 197.5804729067654 584.0912443721849 # Ar+
129 129 2 0.0 592.9422290991673 597.4873144183233 555.9284176765744 # Ar+
130 130 2 0.0 445.8402201286033 142.0630646932563 240.91381892393508 # Ar+
131 131 2 0.0 206.36564693474327 635.0737413026865 128.50801382933122 # Ar+
132 132 2 0.0 340.3634729648923 535.5100359112657 591.3760660225964 # Ar+
133 133 2 0.0 245.54248268147705 224.4294652298905 465.9258988957009 # Ar+
134 134 2 0.0 670.3537517436209 383.0708957085511 194.61801341578592 # Ar+
135 135 2 0.0 524.5113636857351 624.0338907071837 574.117514118825 # Ar+
136 136 2 0.0 180.80712127712692 613.6176218140658 373.1425351129155 # Ar+
137 137 2 0.0 448.51109827524624 732.6300027260137 133.0635028604603 # Ar+
138 138 2 0.0 159.75550865150595 522.4148908320115 220.36000029474243 # Ar+
139 139 2 0.0 376.60376230473173 22.20487681899577 216.09586654880704 # Ar+
140 140 2 0.0 508.3520572954168 87.29306207956475 32.06338289100129 # Ar+
141 141 2 0.0 651.1529636578174 684.6311995660353 685.2196895864191 # Ar+
142 142 2 0.0 41.70229391514903 638.3305325053369 455.3728589408705 # Ar+
143 143 2 0.0 180.44490348307235 138.69256159402912 6.748673749676707 # Ar+
144 144 2 0.0 356.17054219153545 124.28606626462583 467.88444320322253 # Ar+
145 145 2 0.0 179.55249630637292 616.0754707899486 692.9227420580005 # Ar+
146 146 2 0.0 708.0080475122658 697.5325702610916 19.14742940796197 # Ar+
147 147 2 0.0 456.2032884951579 253.18586498081777 132.7058100113325 # Ar+
148 148 2 0.0 456.4785164088659 404.41070188814257 360.7850778363464 # Ar+
149 149 2 0.0 662.6746462403999 648.8107759828714 188.62851075649422 # Ar+
150 150 2 0.0 583.3198559577071 306.8484676281272 259.2790964415651 # Ar+
