LAMMPS data file -- atom_style full -- generated by chemfiles
150 atoms
0 bonds
0 angles
0 dihedrals
0 impropers
2 atom types
0 bond types
0 angle types
0 dihedral types
0 improper types
0.00000000 1169.82196 xlo xhi
0.00000000 1169.82196 ylo yhi
0.00000000 1169.82196 zlo zhi

# Pair Coeffs
# 1 Ar
# 2 Ar+

Masses

1 39.948 # Ar
2 39.948 # Ar+

Atoms # full

1 1 1 0.0 476.5668762479654 783.9235435763648 1143.8540724978693 # Ar
2 2 1 0.0 47.23951610373351 375.41956999769747 163.62107594622478 # Ar
3 3 1 0.0 582.5609633054723 418.98982436925445 724.8984965555335 # Ar
4 4 1 0.0 833.1784407087413 422.05194451350184 866.0115986822979 # Ar
5 5 1 0.0 604.6903255952375 29.82907581354765 1037.0824157547784 # Ar
6 6 1 0.0 602.9461430423406 509.6767842037675 818.7426517369599 # Ar
7 7 1 0.0 1060.5852803029986 1169.5650074465568 839.9573615739016 # Ar
8 8 1 0.0 927.568418531897 868.5712768612431 533.0791357780995 # Ar
9 9 1 0.0 483.08013061093595 620.2454638136359 98.38731672638215 # Ar
10 10 1 0.0 842.4904009832161 1161.4738003690356 574.9007081622136 # Ar
11 11 1 0.0 1119.8032081232236 490.5866075433324 233.40800875716187 # Ar
12 12 1 0.0 825.9950640009797 273.1237359011729 567.7196081474697 # Ar
13 13 1 0.0 1103.6387871517113 739.7388274155946 1130.4866056666363 # Ar
14 14 1 0.0 818.5790812265097 915.4622778233629 992.2250785325467 # Ar
15 15 1 0.0 207.22543940307548 388.74250588840323 1131.0533611750996 # Ar
16 16 1 0.0 428.378017918208 352.9036230432186 764.8642952443441 # Ar
17 17 1 0.0 327.4234728627522 437.90611900404286 1095.6452410378208 # Ar
18 18 1 0.0 40.959229301303495 511.5853984821299 1003.8784035569673 # Ar
19 19 1 0.0 707.0282647240357 878.8895418612477 848.800565640555 # Ar
20 20 1 0.0 46.574931501530955 6.239470055675927 242.09870944222033 # Ar
21 21 1 0.0 705.2446828480307 542.8790880866441 1159.1962820959304 # Ar
22 22 1 0.0 746.8215677945285 710.3355302653458 673.7111420927936 # Ar
23 23 1 0.0 1104.467016252534 598.0838918824744 735.6207798633112 # Ar
24 24 1 0.0 1150.374208538974 1136.293273181996 581.5047755328922 # Ar
25 25 1 0.0 281.9082384617709 1015.5432334846128 110.38673950179053 # Ar
26 26 1 0.0 184.82083765643742 1063.9797764394657 545.125355195126 # Ar
27 27 1 0.0 848.0955061019162 696.5298968593405 1099.4293624553436 # Ar
28 28 1 0.0 271.54559798964016 292.5499883062199 274.76507881739604 # Ar
29 29 1 0.0 58.55945819322579 258.41564517629917 460.8648753731883 # Ar
30 30 1 0.0 1013.4564473190528 473.29832657558 1050.554263347981 # Ar
31 31 1 0.0 581.7591968994284 796.1350921227332 1085.650681406774 # Ar
32 32 1 0.0 359.2810472614732 456.51442872787555 825.6618355267308 # Ar
33 33 1 0.0 476.792473498273 973.7342914111333 233.04732452863686 # Ar
34 34 1 0.0 52.79329095199631 10.286065977957945 933.9288760701565 # Ar
35 35 1 0.0 474.0887685511338 955.0658802029053 871.2999863359905 # Ar
36 36 1 0.0 669.1595128055 199.3159050701563 712.108989022514 # Ar
37 37 1 0.0 933.6186289053857 919.8357032802387 283.7734291953828 # Ar
38 38 1 0.0 353.1795295450752 610.6070816749567 851.6537194338621 # Ar
39 39 1 0.0 966.1400776106951 930.3723171431544 169.80569114650825 # Ar
40 40 1 0.0 357.9845698196455 600.5481423863396 353.2594752089132 # Ar
41 41 1 0.0 76.48627470863053 361.01982914493425 289.8758862409108 # Ar
42 42 1 0.0 737.6341951259219 91.42487743251714 302.22703601841766 # Ar
43 43 1 0.0 395.09139623983805 205.33411160108056 661.5997611270309 # Ar
44 44 1 0.0 791.3899548062748 422.906601720026 416.6205696108805 # Ar
45 45 1 0.0 9.811361320342995 1013.8235024786981 585.2753649064583 # Ar
46 46 1 0.0 696.6536500768607 337.22093337005833 74.5614017951786 # Ar
47 47 1 0.0 1080.8544202008397 1017.4617339051209 227.3779094868295 # Ar
48 48 1 0.0 607.6843501723715 523.0058011497633 10.710910050254032 # Ar
49 49 1 0.0 5.523566717011889 446.59460676435504 307.65433796238074 # Ar
50 50 1 0.0 231.59089002193383 38.23111079261653 208.05994142546496 # Ar
51 51 1 0.0 1056.8095909655779 705.8150735896388 485.30927226874127 # Ar
52 52 1 0.0 1100.7135292557364 723.7541796461194 463.44152981617106 # Ar
53 53 1 0.0 85.77812039668842 352.28606548565944 889.3967319841455 # Ar
54 54 1 0.0 113.20336119647044 397.02054847189055 61.68148976045681 # Ar
55 55 1 0.0 95.77449065418082 487.5096201745682 376.150004974869 # Ar
56 56 1 0.0 1132.0165653996169 51.21457059515508 189.47198903472378 # Ar
57 57 1 0.0 104.23471703775847 1059.8420932098618 237.4121005118424 # Ar
58 58 1 0.0 663.6380141987648 896.6523394648491 693.5818256907007 # Ar
59 59 1 0.0 105.52558369240417 443.77594369715723 809.1615297639344 # Ar
60 60 1 0.0 709.2361756920437 700.5057975129888 406.03582185087816 # Ar
61 61 1 0.0 656.2929726221437 639.0297329763883 429.1364898955593 # Ar
62 62 1 0.0 128.91766401085061 150.02980644016583 333.77939654742335 # Ar
63 63 1 0.0 770.9976257770987 607.4499553309236 940.3630615010964 # Ar
64 64 1 0.0 14.545912444661397 1043.9461367129265 217.72996068381025 # Ar
65 65 1 0.0 889.408311361812 465.5440837293138 219.22613260165977 # Ar
66 66 1 0.0 357.1038689401241 562.3599797427257 378.6270223262611 # Ar
67 67 1 0.0 220.62894480659642 608.4133395346223 368.50929241339827 # Ar
68 68 1 0.0 536.5160824642844 325.1283967121338 700.355452311254 # Ar
69 69 1 0.0 781.3818601712994 1042.6301656893502 466.8091853969137 # Ar
70 70 1 0.0 666.4362508650507 208.33107988890586 504.02554804075675 # Ar
71 71 1 0.0 455.3948683080224 270.053943328063 526.4899837216357 # Ar
72 72 1 0.0 705.7882944765311 1037.58563847181 985.5318259767107 # Ar
73 73 1 0.0 117.65979972950514 925.6892422155605 903.371978078536 # Ar
74 74 1 0.0 864.5994138275553 929.9493285964138 826.8698391635849 # Ar
75 75 1 0.0 1165.240613497639 815.1262470964105 866.4259528469652 # Ar
76 76 1 0.0 1105.0536453899063 727.0421231605251 1121.218548367105 # Ar
77 77 1 0.0 427.42994253766216 929.175497191586 407.2457759573499 # Ar
78 78 1 0.0 349.8781328353661 576.731466686768 177.01637879543432 # Ar
79 79 1 0.0 1011.374990000516 620.3703517144437 215.01503305219006 # Ar
80 80 1 0.0 441.0561735258783 154.18863092647106 190.82647490581658 # Ar
81 81 1 0.0 493.0474727167247 130.2545547298736 486.8247032994743 # Ar
82 82 1 0.0 279.6730226159935 80.2506148377915 577.8439937523916 # Ar
83 83 1 0.0 1066.151674889996 1102.6785178030298 960.067437544801 # Ar
84 84 1 0.0 649.0012664933491 895.4039217905827 436.0723075711108 # Ar
85 85 1 0.0 247.96001688107958 402.90639258481895 1148.5376270420795 # Ar
86 86 1 0.0 1068.3555876904109 65.11173379277504 862.2292660114659 # Ar
87 87 2 0.0 879.4993171087025 613.3136289280714 1038.676565993737 # Ar+
88 88 2 0.0 915.0874884137294 614.4456522645369 1012.0059778642151 # Ar+
89 89 2 0.0 657.918952724721 651.0703597799894 678.4283090668231 # Ar+
90 90 2 0.0 1090.1093278985015 349.8798045852722 886.5732725980541 # Ar+
91 91 2 0.0 653.9062422194341 1144.0298905127208 263.34247348766195 # Ar+
92 92 2 0.0 1062.1978590361548 762.3243372209625 407.40215358473495 # Ar+
93 93 2 0.0 860.4581342950061 183.9367665615625 813.8192198981379 # Ar+
94 94 2 0.0 901.3148894159555 73.28829480672165 164.02949901538662 # Ar+
95 95 2 0.0 642.572609826446 580.7038761902307 479.59453265440686 # Ar+
96 96 2 0.0 841.7189751738408 1063.0770914289571 158.96459800679384 # Ar+
97 97 2 0.0 424.90279965527134 835.9496729951181 106.3285743297169 # Ar+
98 98 2 0.0 264.9141084680279 547.6871762939759 592.0167750755436 # Ar+
99 99 2 0.0 754.7823501572545 768.9302935959871 679.5107349049006 # Ar+
100 100 2 0.0 593.9822231724029 785.9626155852155 532.8007816722603 # Ar+
101 101 2 0.0 127.26884064831233 699.1408354693458 971.54339682043 # Ar+
102 102 2 0.0 1077.8657306932323 770.400143379771 966.3754645889868 # Ar+
103 103 2 0.0 293.905707944369 235.04884403593576 986.8787987671376 # Ar+
104 104 2 0.0 1066.1553180134163 450.83770835228376 194.92798989894433 # Ar+
105 105 2 0.0 353.5965162292585 421.3023075066071 449.16124646357963 # Ar+
106 106 2 0.0 102.21867401202411 905.3977472912943 825.7559882688535 # Ar+
107 107 2 0.0 1009.1660036482657 310.3960587655298 700.1905004350331 # Ar+
108 108 2 0.0 87.90988197138275 1050.9370637863399 472.36170653535356 # Ar+
109 109 2 0.0 759.982884809494 208.63759186674892 501.74252025900023 # Ar+
110 110 2 0.0 438.4101566814287 986.9306887627375 318.92944447172414 # Ar+
111 111 2 0.0 597.6985288916642 1087.1908701715458 425.89773706912473 # Ar+
112 112 2 0.0 714.1745005632022 362.603634405003 998.6188608240078 # Ar+
113 113 2 0.0 278.7661560798377 1126.4073429988127 466.5014912802025 # Ar+
114 114 2 0.0 587.0188970359904 896.8427076170833 347.0520652978506 # Ar+
115 115 2 0.0 110.67297972240466 571.8791160192183 854.1272274317258 # Ar+
116 116 2 0.0 426.4900994804758 822.9803831485663 955.8903883752852 # Ar+
117 117 2 0.0 698.827541629332 786.4259442770402 423.4976672554644 # Ar+
118 118 2 0.0 462.83731513075156 44.025221149510166 763.8416354897616 # Ar+
119 119 2 0.0 31.889653016774098 365.0541818162408 1024.6569278926656 # Ar+
120 120 2 0.0 526.4358746895754 1051.8867342485992 460.74841975290974 # Ar+
121 121 2 0.0 793.8973621320548 344.9400675233425 535.8561767700971 # Ar+
122 122 2 0.0 251.99963818713994 1103.178218220312 156.2995460453774 # Ar+
123 123 2 0.0 258.44211307299065 923.5309122835797 427.08146466028165 # Ar+
124 124 2 0.0 284.4730608494777 876.2943031572039 203.9170305671048 # Ar+
125 125 2 0.0 1132.196199371399 759.8131424557761 524.58143926531 # Ar+
126 126 2 0.0 787.6890817137078 1064.34776901525 255.46620180301602 # Ar+
127 127 2 0.0 712.3046548646407 586.2740296498741 732.7692994896513 # Ar+
128 128 2 0.0 1128.3668644861766 1142.01475482583 928.6161677425519 # Ar+
129 129 2 0.0 426.23990272935936 537.365617376614 371.1144847195128 # Ar+
130 130 2 0.0 555.1403901439569 984.6673769229885 758.7447664868827 # Ar+
131 131 2 0.0 864.286057629376 333.7047879910055 554.4721101667518 # Ar+
132 132 2 0.0 190.31455220787487 146.12745337318086 766.1376540077836 # Ar+
133 133 2 0.0 433.77710068120354 978.7635211835827 327.91919635265486 # Ar+
134 134 2 0.0 1003.9774821313407 101.40987758115276 24.28776826022414 # Ar+
135 135 2 0.0 433.4270026579898 513.6295243862547 206.90099729591344 # Ar+
136 136 2 0.0 674.8952353461008 211.76177154087634 675.6742304141932 # Ar+
137 137 2 0.0 634.5481884933387 70.68962126145604 501.477727950612 # Ar+
138 138 2 0.0 248.4878993728025 202.02266471301715 748.8111087615459 # Ar+
139 139 2 0.0 674.0296021285523 585.6432799592616 622.6736891445208 # Ar+
140 140 2 0.0 669.0130203776442 731.4013160550325 172.13909616499205 # Ar+
141 141 2 0.0 503.98042161917465 639.6360824853929 407.26498646351564 # Ar+
142 142 2 0.0 231.305885510481 719.7816050294264 1118.4110280547222 # Ar+
143 143 2 0.0 635.1678253545501 879.0221959780426 796.1142356939614 # Ar+
144 144 2 0.0 1164.4154046792248 894.3243215651422 439.04370147250603 # Ar+
145 145 2 0.0 133.227474639681 541.1955487635408 930.8937127155815 # Ar+
146 146 2 0.0 1044.515928543122 994.373776330478 316.97938964246384 # Ar+
147 147 2 0.0 733.9043479983262 170.7398883744251 705.193191922403 # Ar+
148 148 2 0.0 39.5307501977446 753.3650165874758 798.3158187807845 # Ar+
149 149 2 0.0 404.87598924026196 76.69753437880136 378.88865683609635 # Ar+
150 150 2 0.0 306.94224324946686 914.5187164179129 1090.9912964305856 # Ar+
