LAMMPS data file -- atom_style full -- generated by chemfiles
2000 atoms
0 bonds
0 angles
0 dihedrals
0 impropers
1 atom types
0 bond types
0 angle types
0 dihedral types
0 improper types
0.00000000 514.583145 xlo xhi
0.00000000 514.583145 ylo yhi
0.00000000 514.583145 zlo zhi

# Pair Coeffs
# 1 Ar

Masses

1 39.948 # Ar

Atoms # full

1 1 1 0.0 263.8996313745536 227.36138189011658 297.87517501113507 # Ar
2 2 1 0.0 109.21432461033397 240.4961360495842 280.1171996045458 # Ar
3 3 1 0.0 356.3520764291877 156.77174713105066 26.008821605034594 # Ar
4 4 1 0.0 56.81908962074935 240.46335035210632 89.27189576475546 # Ar
5 5 1 0.0 197.86257984741005 136.61003793815763 177.00105074446907 # Ar
6 6 1 0.0 141.41097569387887 15.566854276877246 305.46869848144274 # Ar
7 7 1 0.0 330.0761992237551 39.51631289356961 463.8374511124147 # Ar
8 8 1 0.0 220.63976805533497 300.7057821487837 24.83826297018728 # Ar
9 9 1 0.0 139.6560371164808 309.85621508732817 8.758651596410301 # Ar
10 10 1 0.0 473.8237642857265 327.00660095818256 461.55492062668526 # Ar
11 11 1 0.0 309.1127890574995 403.0359782211483 506.1205526524861 # Ar
12 12 1 0.0 99.9933908586179 78.18158130072284 171.88995090061843 # Ar
13 13 1 0.0 83.69956624616012 79.15579537283422 39.38461717996643 # Ar
14 14 1 0.0 452.88639019688003 333.7553381152175 38.99261718547994 # Ar
15 15 1 0.0 232.9502974306357 316.25536681670667 355.4998578799662 # Ar
16 16 1 0.0 150.26034682073055 41.02341197516686 274.5927718619396 # Ar
17 17 1 0.0 288.13107059293725 73.38196965172166 208.2361852098287 # Ar
18 18 1 0.0 327.5095229547443 17.960514022579332 359.03049651653174 # Ar
19 19 1 0.0 493.9361944335947 489.8438138087276 477.54014670654595 # Ar
20 20 1 0.0 272.8470752175469 203.78293642637743 86.22278987905486 # Ar
21 21 1 0.0 292.0947398345439 38.290243910811995 250.83114656838362 # Ar
22 22 1 0.0 448.7088834679922 194.49425652787897 325.1202924804332 # Ar
23 23 1 0.0 337.132899145508 179.7402455788444 438.31032276362566 # Ar
24 24 1 0.0 65.92877867992158 351.8066464477666 352.5379534079496 # Ar
25 25 1 0.0 237.42417589964023 389.594066456576 47.111628653977654 # Ar
26 26 1 0.0 19.992972204584916 310.7230985978212 73.32333209197559 # Ar
27 27 1 0.0 85.04027417186396 474.5229665756879 29.86169965712933 # Ar
28 28 1 0.0 293.95653427135136 78.82869235607014 139.2939840067325 # Ar
29 29 1 0.0 209.55618445051766 33.37039165286018 486.3870911514818 # Ar
30 30 1 0.0 24.5114826665952 454.9610521864898 227.98990600734209 # Ar
31 31 1 0.0 178.125450622789 51.413962240287404 498.8939642955259 # Ar
32 32 1 0.0 142.80266141315852 387.6166351830174 319.4794388769507 # Ar
33 33 1 0.0 323.4237888930916 95.3399524382309 308.7647654987572 # Ar
34 34 1 0.0 141.80002406818704 20.843511525836004 215.46918903353605 # Ar
35 35 1 0.0 107.3769037699978 371.69279183780105 59.966140610653625 # Ar
36 36 1 0.0 123.34558732727523 175.5512161473626 429.84063669280675 # Ar
37 37 1 0.0 163.24385433297843 11.34355883859392 332.0858197363803 # Ar
38 38 1 0.0 289.3964148537175 227.6784001509665 240.0874303402071 # Ar
39 39 1 0.0 303.50398908747405 262.46902145665865 444.11193319942026 # Ar
40 40 1 0.0 303.12307034884697 149.9685991128684 242.23591573697263 # Ar
41 41 1 0.0 166.21916410973296 356.5014914546849 314.0200721799033 # Ar
42 42 1 0.0 356.54292513538235 116.61279746213607 326.71031142034855 # Ar
43 43 1 0.0 78.32635995901094 72.4892878805289 185.41622565364207 # Ar
44 44 1 0.0 455.7892675827877 26.209900857309727 288.8173142369632 # Ar
45 45 1 0.0 460.8875920223349 163.32269460707062 274.4739844138476 # Ar
46 46 1 0.0 16.620366615173058 200.23142780829173 51.39280937231304 # Ar
47 47 1 0.0 477.0583620208542 358.6158129291468 435.35300964546065 # Ar
48 48 1 0.0 370.0570261052823 328.94800379403836 86.56516852789784 # Ar
49 49 1 0.0 301.717062969898 360.73008026866654 111.39628106080197 # Ar
50 50 1 0.0 201.75471784649739 277.3238469508928 184.8340762694336 # Ar
51 51 1 0.0 12.233881973726463 463.4546639398071 35.59346289414859 # Ar
52 52 1 0.0 291.9235397571998 7.6377447138219665 185.30686640755553 # Ar
53 53 1 0.0 494.31695899279583 241.18150649752764 102.73204107387089 # Ar
54 54 1 0.0 293.33119964748965 227.93535912944213 264.9928603890476 # Ar
55 55 1 0.0 106.41628864627687 231.41090070709097 493.63918008214864 # Ar
56 56 1 0.0 97.08458408736391 296.45644797184593 95.64845558390961 # Ar
57 57 1 0.0 218.56836045245197 448.8729447110642 486.6894133171851 # Ar
58 58 1 0.0 488.173155169618 139.19714905734753 511.6349220506149 # Ar
59 59 1 0.0 143.11316166523795 107.07909291448021 296.9532075257658 # Ar
60 60 1 0.0 267.42157666017465 296.94080435380425 153.60607321706925 # Ar
61 61 1 0.0 243.5313244923624 372.77489557836003 330.01699918766434 # Ar
62 62 1 0.0 488.40415187159533 232.35458712514293 75.98390569056352 # Ar
63 63 1 0.0 219.74364505721903 134.1123804139733 351.2678206325794 # Ar
64 64 1 0.0 62.310031407006605 450.9267456278396 17.477878449859073 # Ar
65 65 1 0.0 140.1793559924379 384.2026208877365 44.81749333897823 # Ar
66 66 1 0.0 188.58664387474158 272.6845595820639 294.0182206148386 # Ar
67 67 1 0.0 309.07434255552334 34.631217386630844 465.22436157641647 # Ar
68 68 1 0.0 194.50511777018096 390.3684860153052 423.0921771525611 # Ar
69 69 1 0.0 180.54364329057464 15.911117034800156 360.6763878438993 # Ar
70 70 1 0.0 412.98513044640106 186.73004501052446 397.1547530362619 # Ar
71 71 1 0.0 43.183263642349374 8.77164126928045 178.68402352213818 # Ar
72 72 1 0.0 135.8795478920556 139.9905225009019 165.1708317897533 # Ar
73 73 1 0.0 194.9691375507899 45.037216279992066 309.522234030932 # Ar
74 74 1 0.0 328.4045083475495 482.3616419599179 113.84358176057737 # Ar
75 75 1 0.0 218.2501718640931 289.0798009309925 113.12979989509331 # Ar
76 76 1 0.0 289.69750939106166 248.57192172785847 88.36922685290276 # Ar
77 77 1 0.0 74.44554165514208 467.53604257257797 175.4447693065709 # Ar
78 78 1 0.0 412.7593780355542 426.09320338040175 456.43442656308474 # Ar
79 79 1 0.0 415.5128049141009 118.03612196525472 415.96075399337593 # Ar
80 80 1 0.0 149.44570141866097 463.5292715510402 220.69778780689586 # Ar
81 81 1 0.0 234.37742719160528 80.97167862110506 209.35944751385196 # Ar
82 82 1 0.0 306.70830057549273 299.8026440030325 103.52044426067765 # Ar
83 83 1 0.0 471.4813896465215 138.98832715650573 318.44625823743587 # Ar
84 84 1 0.0 477.3333806232056 13.695623578739436 484.0666339879018 # Ar
85 85 1 0.0 431.4436667025524 363.6216267072556 221.44036407289946 # Ar
86 86 1 0.0 340.9227553804998 87.5883524585422 436.21774870606765 # Ar
87 87 1 0.0 513.0607004874842 219.11906546404026 88.16452298900703 # Ar
88 88 1 0.0 337.1296533709749 15.544110242504203 483.39343263961064 # Ar
89 89 1 0.0 251.10929683789092 72.42224768240513 178.2161833138593 # Ar
90 90 1 0.0 222.4815340407857 366.99819518902126 414.96861930965616 # Ar
91 91 1 0.0 256.94656875799194 0.7383989535605048 142.83563170542902 # Ar
92 92 1 0.0 108.93954842697276 109.81249240232037 338.84160325404446 # Ar
93 93 1 0.0 222.09887887824885 249.6748434240031 362.72530299722445 # Ar
94 94 1 0.0 405.3454953639385 436.8817389865811 428.2461197913339 # Ar
95 95 1 0.0 244.29246920118723 416.1684740420933 322.2242081683261 # Ar
96 96 1 0.0 450.68712561763965 368.87346003656035 119.57050743026119 # Ar
97 97 1 0.0 215.8450151904577 51.18973155285788 73.16628478524359 # Ar
98 98 1 0.0 452.9442283590763 161.21768560015278 56.176766853350685 # Ar
99 99 1 0.0 480.142125157735 28.667205719701744 338.73846098900236 # Ar
100 100 1 0.0 262.03951807245755 58.43342522528473 65.89282777734337 # Ar
101 101 1 0.0 410.0070708991448 322.47649577399164 336.65136419485617 # Ar
102 102 1 0.0 508.7222688919892 146.4577929346104 23.455981006974934 # Ar
103 103 1 0.0 400.8968374650731 96.97627481670314 380.55449032397286 # Ar
104 104 1 0.0 397.60763148923 448.3490422264426 329.1230635215827 # Ar
105 105 1 0.0 375.34102219364706 209.89866792918278 418.2014387092726 # Ar
106 106 1 0.0 95.06592303943563 234.58000739562496 454.0560982731495 # Ar
107 107 1 0.0 137.68857640700725 449.0714370548202 441.92490486501293 # Ar
108 108 1 0.0 340.31339557100944 363.37979651101267 419.8432703592665 # Ar
109 109 1 0.0 265.5617345419986 116.13472859927398 94.47612094496762 # Ar
110 110 1 0.0 221.30177253706375 52.350519471652326 159.83114754183296 # Ar
111 111 1 0.0 484.03850468062785 414.8085755319284 97.32508890277391 # Ar
112 112 1 0.0 210.23774075048777 195.07748592169156 20.919792692245448 # Ar
113 113 1 0.0 300.55278474734183 46.468284612469766 402.65539236038876 # Ar
114 114 1 0.0 139.52581024869616 456.16930168622366 240.39774933653322 # Ar
115 115 1 0.0 300.5091596301489 313.85089494453086 247.04447225072582 # Ar
116 116 1 0.0 15.677369042823672 438.32404559308486 211.11976847194006 # Ar
117 117 1 0.0 125.30691554935643 439.73659014034405 145.08201042944088 # Ar
118 118 1 0.0 102.74877413760167 445.9595054895042 37.51763393668487 # Ar
119 119 1 0.0 94.27577325266208 177.5834141248274 495.6109364219461 # Ar
120 120 1 0.0 23.59863631720198 390.4077331137186 431.93001964228193 # Ar
121 121 1 0.0 7.021977019563933 163.90277391453208 391.68133462029505 # Ar
122 122 1 0.0 469.9339502247752 37.564727112148745 145.19564629958253 # Ar
123 123 1 0.0 199.8065518136251 47.4874690826665 120.601114665273 # Ar
124 124 1 0.0 451.1708760414392 252.69428591609386 406.26433430068647 # Ar
125 125 1 0.0 142.8277818171571 13.831470630679714 336.0260178781401 # Ar
126 126 1 0.0 130.38986680750955 266.1183014257431 329.01643462344435 # Ar
127 127 1 0.0 301.6984779720916 190.04084396771867 299.2305580173332 # Ar
128 128 1 0.0 217.51105898511923 18.750811376632047 424.81856651551436 # Ar
129 129 1 0.0 289.9452768970623 74.40104083586782 432.66397789513667 # Ar
130 130 1 0.0 229.62692862995374 41.317907020634976 478.81344551608777 # Ar
131 131 1 0.0 298.99335461124423 294.2271622824576 345.9999393788602 # Ar
132 132 1 0.0 384.8660573963692 67.34697487544594 452.8290912918078 # Ar
133 133 1 0.0 111.99938620100656 41.636153509394134 416.773768444472 # Ar
134 134 1 0.0 438.7286403240907 225.9987170474286 6.101605226784045 # Ar
135 135 1 0.0 298.0538971612292 441.22275541830624 206.45897921520142 # Ar
136 136 1 0.0 277.3637547052095 384.4846637925335 260.57113294852263 # Ar
137 137 1 0.0 477.7875737453099 124.60726639438874 435.1880355213483 # Ar
138 138 1 0.0 463.685016262553 407.11636087336035 339.8453997865782 # Ar
139 139 1 0.0 217.32779809975435 477.0994209665191 447.316732806666 # Ar
140 140 1 0.0 219.92004746029696 500.08873818512103 265.3486252214028 # Ar
141 141 1 0.0 348.8339167450821 37.29421018240029 119.85676416346503 # Ar
142 142 1 0.0 460.5570214869893 279.2758397766666 333.06372641941323 # Ar
143 143 1 0.0 67.16895772718165 174.7969646896612 12.514729950268535 # Ar
144 144 1 0.0 189.76235038185752 46.894154500571055 161.7719393298733 # Ar
145 145 1 0.0 181.1531843753879 129.06157950961884 237.06164441339658 # Ar
146 146 1 0.0 389.7432326854764 75.92457217098604 461.56901800692276 # Ar
147 147 1 0.0 435.44069030536417 243.68104672177785 421.66432843620186 # Ar
148 148 1 0.0 465.1856445626044 332.162661198015 364.23578419736026 # Ar
149 149 1 0.0 466.96038566808346 17.669486165945525 166.46274667562963 # Ar
150 150 1 0.0 345.75215502392734 142.51387514300677 207.08947446304987 # Ar
151 151 1 0.0 121.80657357981585 136.17494516384244 155.2322996624682 # Ar
152 152 1 0.0 116.5469794373089 381.69404598097526 418.15332149946477 # Ar
153 153 1 0.0 5.648974001492802 154.14951068246552 299.2051445148972 # Ar
154 154 1 0.0 394.0864435393061 110.77102276598104 88.95867470688884 # Ar
155 155 1 0.0 129.44409635455975 395.83501442857636 490.04339899128564 # Ar
156 156 1 0.0 35.71219864347139 145.21757843307606 377.53901351197226 # Ar
157 157 1 0.0 48.84724479166342 30.547324369721252 119.46781497212785 # Ar
158 158 1 0.0 93.48960834394869 300.75528554695387 266.20700369562405 # Ar
159 159 1 0.0 171.3016965092999 446.18015202973737 454.46034803642317 # Ar
160 160 1 0.0 174.15711328103944 179.09275044445562 264.96610279349693 # Ar
161 161 1 0.0 219.12032719448788 22.11635595267284 222.67698210701775 # Ar
162 162 1 0.0 203.29323550841272 69.26797054911496 403.2561503406773 # Ar
163 163 1 0.0 25.756573043870148 425.0683453834719 417.2918353444452 # Ar
164 164 1 0.0 122.2151231574944 282.59912676212684 473.44081984960064 # Ar
165 165 1 0.0 458.0459382472484 124.11317348593995 112.01762525464984 # Ar
166 166 1 0.0 205.05343419562524 412.7306952959924 385.87394900789997 # Ar
167 167 1 0.0 165.3348508918064 217.1062012467661 48.71526827818869 # Ar
168 168 1 0.0 16.858810904363185 81.24560900280277 287.62097165747315 # Ar
169 169 1 0.0 316.579411468984 339.7133577490022 371.6379908067448 # Ar
170 170 1 0.0 355.20916595318926 203.02703872454643 320.6432885698128 # Ar
171 171 1 0.0 209.1282055622483 155.13291624772705 277.37169691564964 # Ar
172 172 1 0.0 290.4907127906426 469.0801063039751 252.61255970421516 # Ar
173 173 1 0.0 246.04735435488558 50.6362838917164 290.49664070131206 # Ar
174 174 1 0.0 468.6790748145209 329.8791542201203 463.53515279310454 # Ar
175 175 1 0.0 15.949346719658935 73.28365000649303 7.926268480098543 # Ar
176 176 1 0.0 274.551713054674 89.48457712530619 269.8043069423887 # Ar
177 177 1 0.0 113.11986320663121 8.068696409297065 235.8875865488867 # Ar
178 178 1 0.0 53.076542248008536 230.9159354594832 63.51682578948313 # Ar
179 179 1 0.0 369.89386898582995 167.1599477005491 340.9027775804313 # Ar
180 180 1 0.0 160.72733214750133 143.70729312933477 451.1311628417877 # Ar
181 181 1 0.0 370.88693259364015 310.47285044939156 103.37703661047046 # Ar
182 182 1 0.0 449.7662735347331 31.771271496529558 312.3074452072133 # Ar
183 183 1 0.0 232.08949503335643 464.86997639559274 96.4741668436913 # Ar
184 184 1 0.0 399.1095352463812 503.2460306381004 203.0466408806534 # Ar
185 185 1 0.0 172.32757242937708 345.6007128804369 232.8186836730521 # Ar
186 186 1 0.0 383.3284866268306 127.73466302967141 228.89956486650243 # Ar
187 187 1 0.0 464.5967624940974 324.113582448998 304.2814645098941 # Ar
188 188 1 0.0 436.4761342926954 307.8891394123046 137.16096447576277 # Ar
189 189 1 0.0 446.843426582308 28.158865786629455 509.0173004466703 # Ar
190 190 1 0.0 151.15461276088035 472.60043214983483 160.35076857301286 # Ar
191 191 1 0.0 466.4529309699544 393.96508662342666 145.27720281966018 # Ar
192 192 1 0.0 80.47398709292085 166.05848656719454 210.8281182469558 # Ar
193 193 1 0.0 462.76186495055737 83.89691769608348 345.27862222428257 # Ar
194 194 1 0.0 294.6775196413007 231.61860889421007 73.56262900813026 # Ar
195 195 1 0.0 260.77344134941126 260.6155677745742 69.7631382619907 # Ar
196 196 1 0.0 158.99928332272665 358.70140372175666 506.43602494410004 # Ar
197 197 1 0.0 428.4728970349708 5.457496034215842 469.28800809346137 # Ar
198 198 1 0.0 304.7740842666347 442.33683153687844 22.467505940973073 # Ar
199 199 1 0.0 138.01029451903773 367.3608405864082 73.86256907035879 # Ar
200 200 1 0.0 493.1258558490608 363.750303761152 462.08120602217946 # Ar
201 201 1 0.0 496.67514972737655 423.2462651082287 386.8521050994166 # Ar
202 202 1 0.0 172.94975916163767 365.9540688281657 227.48267479348183 # Ar
203 203 1 0.0 239.9546665345756 44.833262237294555 475.0456062376098 # Ar
204 204 1 0.0 125.72155473939513 277.57283746406046 178.26942621945503 # Ar
205 205 1 0.0 396.833088015937 10.743126333998278 130.19201340767015 # Ar
206 206 1 0.0 237.12736513462485 272.84472909938347 227.8960637760982 # Ar
207 207 1 0.0 289.56906805968504 492.2776256983407 244.43291592138314 # Ar
208 208 1 0.0 153.2406727088429 460.3135441928636 438.47749945263405 # Ar
209 209 1 0.0 142.71982363730652 29.299076636451733 61.75680263522952 # Ar
210 210 1 0.0 175.55885293337417 267.1512377467681 211.1402375125529 # Ar
211 211 1 0.0 466.8790165438134 15.492474389143881 151.65338998273023 # Ar
212 212 1 0.0 360.8958953344555 271.864017964797 169.06513883346634 # Ar
213 213 1 0.0 47.242709042164186 182.1726652518561 368.93858831502104 # Ar
214 214 1 0.0 416.1160462600569 353.7672840537465 15.740502190261036 # Ar
215 215 1 0.0 73.1305272375867 244.22129905300758 496.563274443125 # Ar
216 216 1 0.0 241.2500665395991 40.45535489130173 407.334169241078 # Ar
217 217 1 0.0 268.6357099748099 475.93079715222234 128.106585171131 # Ar
218 218 1 0.0 71.92212410690036 48.37807639355003 447.4195347770818 # Ar
219 219 1 0.0 359.7216241861597 482.51974548064305 324.901486709586 # Ar
220 220 1 0.0 187.34130685984962 236.83800387305345 284.00701193636326 # Ar
221 221 1 0.0 345.1357895063716 424.65598644670064 131.06121446427815 # Ar
222 222 1 0.0 318.43568332248987 137.9496635359322 96.85362290571324 # Ar
223 223 1 0.0 358.412010658377 256.35411936464226 263.1687304840076 # Ar
224 224 1 0.0 143.43470291332298 7.933098648923176 494.4117474603001 # Ar
225 225 1 0.0 304.33685696353183 389.5491668501176 122.5103539429164 # Ar
226 226 1 0.0 248.1729485504037 110.72567536995858 482.63025378864296 # Ar
227 227 1 0.0 171.19849119626693 470.9207307744223 492.0349281845013 # Ar
228 228 1 0.0 33.97062472817967 195.35613882998757 401.77670291977205 # Ar
229 229 1 0.0 365.4070637057706 219.24415527635196 96.77609409685789 # Ar
230 230 1 0.0 315.9861145287952 498.35656354058733 84.20930741587873 # Ar
231 231 1 0.0 495.35414270668247 82.87921806082427 175.78502344040453 # Ar
232 232 1 0.0 169.33064462874438 383.2118587909295 246.47865599542968 # Ar
233 233 1 0.0 402.9791599726186 348.0156354225994 308.901598282445 # Ar
234 234 1 0.0 147.60776772480588 223.42514395879 196.8057710982231 # Ar
235 235 1 0.0 148.6089722244743 436.50730377026565 410.28004319104673 # Ar
236 236 1 0.0 165.31691044151154 50.763028652135844 206.31618397698085 # Ar
237 237 1 0.0 342.04846533581434 21.296611086123907 0.6067660917842613 # Ar
238 238 1 0.0 131.94523659888884 280.78231757918616 33.97104477196983 # Ar
239 239 1 0.0 344.2867537969548 309.8704098618503 458.18480281154206 # Ar
240 240 1 0.0 296.7983798710882 206.78688395134162 403.9996328943285 # Ar
241 241 1 0.0 169.32637055938523 493.4199095274688 11.668648439825766 # Ar
242 242 1 0.0 438.6090568354962 465.07691077663907 118.1825098206725 # Ar
243 243 1 0.0 183.58355603765924 392.2616633684076 247.2212192284794 # Ar
244 244 1 0.0 78.84175305349764 463.853312925457 406.7223639947769 # Ar
245 245 1 0.0 193.9059589565362 389.2761621250279 425.8576962341316 # Ar
246 246 1 0.0 273.6767106172976 487.04631210094414 334.5696082675098 # Ar
247 247 1 0.0 308.65797278848794 300.30606472822336 116.3177098135354 # Ar
248 248 1 0.0 77.20221844226933 43.3032253501482 92.00022213002849 # Ar
249 249 1 0.0 41.36320430259405 35.28585764520321 475.2811020558591 # Ar
250 250 1 0.0 239.22324007828365 442.5970006009418 212.11762780428108 # Ar
251 251 1 0.0 480.8026017426683 56.14270426169291 490.92114375343283 # Ar
252 252 1 0.0 173.3004855193584 159.59983641068496 43.0317664794325 # Ar
253 253 1 0.0 280.09734689373596 226.01563639644138 201.17472410243136 # Ar
254 254 1 0.0 108.44638199787306 430.67898669419225 361.4178298798968 # Ar
255 255 1 0.0 243.73221477403754 429.74580741569264 380.2511574153274 # Ar
256 256 1 0.0 145.37090776301136 343.06788139694726 67.99144621972268 # Ar
257 257 1 0.0 504.8918945659276 304.2555385288562 355.07684701432214 # Ar
258 258 1 0.0 26.635759898231203 255.74217452439592 141.87699110523954 # Ar
259 259 1 0.0 28.469413933155945 260.36642919458137 360.9201799831261 # Ar
260 260 1 0.0 287.431425507565 503.47842365619795 450.77199168479035 # Ar
261 261 1 0.0 395.7760346261221 47.51840151015099 468.5303532078133 # Ar
262 262 1 0.0 213.19667100972117 327.7488355029413 98.90133274179948 # Ar
263 263 1 0.0 220.83143875965536 238.37855736362638 78.44508278172962 # Ar
264 264 1 0.0 417.1181332423942 450.53466137353166 296.0606537735989 # Ar
265 265 1 0.0 394.1393500645851 246.03929422944822 462.5416003880527 # Ar
266 266 1 0.0 147.62719139581188 87.11030906175449 243.08586396677387 # Ar
267 267 1 0.0 305.3817602139378 304.2603302913456 130.14718017079738 # Ar
268 268 1 0.0 187.49324566562572 511.4407779057454 31.03782872705645 # Ar
269 269 1 0.0 384.54895434843576 422.451329104482 449.2024773187688 # Ar
270 270 1 0.0 79.69109661093968 122.3642203265199 348.6886521497606 # Ar
271 271 1 0.0 222.08150654096787 229.45992501612943 57.26839030105245 # Ar
272 272 1 0.0 35.72845489503515 386.0402827688775 266.8538543957095 # Ar
273 273 1 0.0 376.5521114301976 415.0572456629404 119.60479356064072 # Ar
274 274 1 0.0 313.1298237339138 153.27269168979677 348.6897609627431 # Ar
275 275 1 0.0 419.72832110233696 388.0474044360653 32.03997273535429 # Ar
276 276 1 0.0 227.2930637206646 368.61091816815446 85.46504504716353 # Ar
277 277 1 0.0 283.8924779858166 453.62147232511614 92.84740565464865 # Ar
278 278 1 0.0 259.9236466568452 46.58680063811825 139.0142227136794 # Ar
279 279 1 0.0 274.1021810916099 102.32239775835016 21.189318283518507 # Ar
280 280 1 0.0 100.28601176087253 435.46436484117845 105.02704973516366 # Ar
281 281 1 0.0 225.5275796780335 116.81355160043715 498.99667651010685 # Ar
282 282 1 0.0 509.1996492771111 258.01100331060223 209.64857495551664 # Ar
283 283 1 0.0 283.05327472626965 362.04103122943366 127.7845443563693 # Ar
284 284 1 0.0 300.65219497594416 162.16033600988928 122.16560204331964 # Ar
285 285 1 0.0 349.1025983077631 299.0232083197208 45.863046081124935 # Ar
286 286 1 0.0 19.27136413794945 271.4481205274468 156.85391765128756 # Ar
287 287 1 0.0 67.3822694653758 489.22887940630557 112.94569316343483 # Ar
288 288 1 0.0 103.11647119986434 422.37372687767026 72.29674902852531 # Ar
289 289 1 0.0 223.0513900914823 182.52738630434777 71.55589257700588 # Ar
290 290 1 0.0 396.8180728725718 234.23360475280631 416.10011096337035 # Ar
291 291 1 0.0 172.93599554867478 64.05828527908773 1.3606216847503223 # Ar
292 292 1 0.0 508.7151441544622 193.53922560363873 328.4845316935839 # Ar
293 293 1 0.0 473.0438370359777 22.615870535754112 455.75395516677565 # Ar
294 294 1 0.0 345.599822850487 488.7433349353463 376.1102024130758 # Ar
295 295 1 0.0 311.3618096742449 429.3281722628606 412.8814734895247 # Ar
296 296 1 0.0 121.71749048009626 152.99802309748213 349.2956933951727 # Ar
297 297 1 0.0 299.14930191294803 152.08827523439618 290.26389181026695 # Ar
298 298 1 0.0 53.785928510443256 507.23144808484795 360.7225396900944 # Ar
299 299 1 0.0 355.21235923936933 57.42575427470346 338.8774784583783 # Ar
300 300 1 0.0 214.56571478670998 4.358977650857218 435.1979898298877 # Ar
301 301 1 0.0 388.6294713154328 370.9526584418168 372.2728277917546 # Ar
302 302 1 0.0 108.75991812241305 215.88958621754762 186.7001554961443 # Ar
303 303 1 0.0 333.14356512741364 265.2917085490043 82.74692988518758 # Ar
304 304 1 0.0 374.35617729990554 422.1061615963155 400.489543806465 # Ar
305 305 1 0.0 91.66869109838846 399.47853209446816 409.07326567516316 # Ar
306 306 1 0.0 382.84361787815965 288.755742217164 373.7269259654891 # Ar
307 307 1 0.0 64.93121762347532 252.48221882878596 310.8223945089603 # Ar
308 308 1 0.0 431.2986295150967 214.61074898952216 78.70570705291323 # Ar
309 309 1 0.0 18.555661208045603 313.0654488314647 306.22636146507796 # Ar
310 310 1 0.0 245.2849762489154 355.63503763956555 10.212892880081679 # Ar
311 311 1 0.0 163.93185614650406 374.15353406449276 45.69625239789866 # Ar
312 312 1 0.0 310.6062077584905 502.10326154995136 319.7866668097553 # Ar
313 313 1 0.0 111.00145722535476 93.71285997447539 338.8049788721561 # Ar
314 314 1 0.0 86.34662881371052 284.9501736991357 393.6704992817582 # Ar
315 315 1 0.0 238.86926643414967 7.264470724556573 207.97059828933345 # Ar
316 316 1 0.0 76.90608790175102 382.15173040488975 244.51253921568832 # Ar
317 317 1 0.0 172.7180173668207 393.72381761524963 52.333399802539745 # Ar
318 318 1 0.0 10.267741330226873 481.20580386155814 276.92483648857365 # Ar
319 319 1 0.0 332.95919117012477 428.0927982428341 412.7528907152064 # Ar
320 320 1 0.0 343.7912105157694 66.4413098486919 266.0140037471185 # Ar
321 321 1 0.0 354.61375192112394 334.55833136944705 506.65614005526254 # Ar
322 322 1 0.0 298.8760286757249 88.33809236971804 42.33779055615102 # Ar
323 323 1 0.0 50.456473988960845 421.3387477621354 205.28164236884214 # Ar
324 324 1 0.0 115.29442404833634 497.8578436978288 36.52187381627131 # Ar
325 325 1 0.0 453.3654696442342 297.27768874355826 80.41460468949548 # Ar
326 326 1 0.0 405.52493344646723 207.73434087783485 206.9829081822657 # Ar
327 327 1 0.0 152.77703555330757 184.10930570183712 95.99762534478461 # Ar
328 328 1 0.0 432.3974322639744 292.83711963682885 455.8702884818753 # Ar
329 329 1 0.0 284.7944041952472 20.663937819777125 448.4946888243853 # Ar
330 330 1 0.0 162.83120383636805 97.50793301837605 456.3365988232107 # Ar
331 331 1 0.0 106.29144041454299 96.18002684670977 470.13759623043904 # Ar
332 332 1 0.0 335.4840856256328 397.15730390445145 203.89933727979553 # Ar
333 333 1 0.0 141.87409879856028 85.21949813074929 305.18357339297455 # Ar
334 334 1 0.0 14.835458913263656 269.679967643846 231.60141220019892 # Ar
335 335 1 0.0 247.43729774387646 188.67584762426148 159.39262006257317 # Ar
336 336 1 0.0 495.04079678708445 52.911539308867994 186.13997591287605 # Ar
337 337 1 0.0 423.1044337051753 169.64275507734902 214.08081873611994 # Ar
338 338 1 0.0 161.31077291905302 160.29934899400507 224.04311036453936 # Ar
339 339 1 0.0 40.838430506543666 466.6146615663575 55.947759350851264 # Ar
340 340 1 0.0 192.8300789071061 45.118792767212675 511.26962183570566 # Ar
341 341 1 0.0 269.0379500169355 45.45265307105337 99.83111930079353 # Ar
342 342 1 0.0 118.60786390454385 27.16611986162859 187.9125627389513 # Ar
343 343 1 0.0 324.3021165038028 59.44658059698229 113.43829272500957 # Ar
344 344 1 0.0 388.05469090628793 387.2581995640824 335.5186919729905 # Ar
345 345 1 0.0 263.7279184585837 216.00404814094364 498.8232145789564 # Ar
346 346 1 0.0 406.5102560526475 216.64223629428267 86.99726203001879 # Ar
347 347 1 0.0 314.3575551982985 99.81756853989872 206.02317183869053 # Ar
348 348 1 0.0 176.79308140388756 427.18434530458313 59.59402204889091 # Ar
349 349 1 0.0 70.86300013056693 18.0354704538519 389.98845959114846 # Ar
350 350 1 0.0 150.3334433412767 121.70931593893093 359.940106702609 # Ar
351 351 1 0.0 434.62120137530724 194.73472152553944 77.8131913118731 # Ar
352 352 1 0.0 249.7340943264692 16.854081136803845 504.7607364302902 # Ar
353 353 1 0.0 442.6670410337485 182.98425310052767 85.91499527012009 # Ar
354 354 1 0.0 359.22430999324683 303.4360895155667 397.5131410271977 # Ar
355 355 1 0.0 221.92786337121458 426.888477863779 425.5788804734533 # Ar
356 356 1 0.0 205.0293483099283 207.63547477047555 259.14269293781575 # Ar
357 357 1 0.0 161.66914941271685 251.44416069970634 284.18245513522925 # Ar
358 358 1 0.0 300.4264115848401 506.78986301458417 357.96728216001543 # Ar
359 359 1 0.0 144.44009261584728 488.81794209640054 311.7686878938978 # Ar
360 360 1 0.0 347.2867318134463 296.45884985902666 380.68471885201984 # Ar
361 361 1 0.0 39.29789066589627 0.2421340014281271 421.224493312267 # Ar
362 362 1 0.0 390.0895276005242 387.73632355480305 471.5971026586434 # Ar
363 363 1 0.0 125.10004644398332 196.7241397700755 264.66278344067246 # Ar
364 364 1 0.0 395.8231542878944 383.33774889323433 51.4105911953536 # Ar
365 365 1 0.0 11.019945735966907 235.23346956154828 77.61916447957229 # Ar
366 366 1 0.0 228.72343438527142 37.57364945247425 505.2801149628106 # Ar
367 367 1 0.0 316.0629349382007 204.47696742202794 405.71970585092805 # Ar
368 368 1 0.0 395.33360381973637 15.952001839430798 3.6762130889778377 # Ar
369 369 1 0.0 121.91821849978473 196.35237278174637 130.95028234846424 # Ar
370 370 1 0.0 450.0751666979411 60.953601341934885 54.02949854721832 # Ar
371 371 1 0.0 264.2327420827314 44.94388277075478 314.5537661533957 # Ar
372 372 1 0.0 6.560091396727472 174.68789473660956 245.1818027656612 # Ar
373 373 1 0.0 182.54827359260415 342.48300568784776 30.35226856339358 # Ar
374 374 1 0.0 308.1910503781314 141.2734093686927 99.6694750897262 # Ar
375 375 1 0.0 98.17076775439465 246.7187939236426 190.84513943414152 # Ar
376 376 1 0.0 444.7915623584942 464.767070407047 287.9984390629934 # Ar
377 377 1 0.0 499.4702280865776 203.51769407108506 339.6872689473114 # Ar
378 378 1 0.0 74.6324533202759 337.71308039855484 97.31069929265854 # Ar
379 379 1 0.0 279.7519075401069 123.15296888045087 427.94783232722074 # Ar
380 380 1 0.0 377.3606745216389 505.48936727193893 19.64227235039751 # Ar
381 381 1 0.0 387.35069420152826 467.12575952921617 298.4047319268113 # Ar
382 382 1 0.0 133.23435808361177 322.4025846957236 152.96443173493935 # Ar
383 383 1 0.0 485.63138660526437 497.65071423895284 109.20359949109404 # Ar
384 384 1 0.0 117.81209791708953 373.0742644854734 511.84395939085516 # Ar
385 385 1 0.0 381.63651563981244 82.03149437321909 172.51820514318206 # Ar
386 386 1 0.0 406.5595972518581 272.5307535574075 46.963168405483785 # Ar
387 387 1 0.0 342.0049165445932 88.69486923297684 166.05907553217142 # Ar
388 388 1 0.0 250.60560197241387 341.28434427634795 502.49469047324436 # Ar
389 389 1 0.0 408.5290681697759 98.58755344301703 280.6065598182409 # Ar
390 390 1 0.0 263.01632328778953 349.5352213283528 161.9107556010332 # Ar
391 391 1 0.0 384.05877915975276 268.44140924283096 318.8453427308188 # Ar
392 392 1 0.0 434.95334534858375 413.32428960232875 432.21552748600436 # Ar
393 393 1 0.0 406.93026057651525 497.3554036656732 347.4875860605791 # Ar
394 394 1 0.0 7.074286387310265 451.32184760995705 270.6077082475247 # Ar
395 395 1 0.0 378.07843861955575 58.260614108508506 212.68794472212087 # Ar
396 396 1 0.0 339.86683995226724 408.37875861305974 9.404381336112413 # Ar
397 397 1 0.0 512.3507671921293 487.2740795239733 29.256821713141235 # Ar
398 398 1 0.0 377.19025340742303 106.24351140227682 336.9213621838105 # Ar
399 399 1 0.0 27.641189624790385 235.76134325293808 70.77897120613291 # Ar
400 400 1 0.0 436.4059612496874 62.84196663898099 59.303981386506294 # Ar
401 401 1 0.0 71.03850961122743 99.51564747865748 244.96381061174628 # Ar
402 402 1 0.0 318.7417817042241 332.2267435414822 407.30044406665166 # Ar
403 403 1 0.0 154.68665107955016 307.7291505310532 379.75757808251467 # Ar
404 404 1 0.0 117.85399220710633 65.4911551347293 159.3416147824888 # Ar
405 405 1 0.0 166.2384817402203 36.57099148018896 268.8998775657968 # Ar
406 406 1 0.0 281.3618232551226 34.70334827383167 281.8276289532762 # Ar
407 407 1 0.0 113.10432210896985 128.96400250387163 215.10026872886587 # Ar
408 408 1 0.0 400.1153876402959 393.8142904528898 424.14150186808456 # Ar
409 409 1 0.0 401.97192904923486 22.223839459572215 510.0074554975604 # Ar
410 410 1 0.0 478.4166686083985 163.8640460613447 174.78318653828157 # Ar
411 411 1 0.0 513.0681951815022 242.09217665984403 445.3041951554895 # Ar
412 412 1 0.0 371.58723334855387 401.30615864851706 503.58204723718967 # Ar
413 413 1 0.0 39.703260134073524 231.14619229181284 402.32363851731213 # Ar
414 414 1 0.0 268.21567253674397 484.812199530419 399.233258138735 # Ar
415 415 1 0.0 117.06595154550892 320.8856262925072 69.06592730108929 # Ar
416 416 1 0.0 110.38018500954622 102.61545248494795 261.8000083745805 # Ar
417 417 1 0.0 411.4013630471601 372.2458528671877 192.76048623588355 # Ar
418 418 1 0.0 155.36957744052796 472.15073906359385 456.89086688345935 # Ar
419 419 1 0.0 315.4909149802393 130.11509952276674 318.4585473882985 # Ar
420 420 1 0.0 50.69320416549763 5.139088235190889 459.18073972775363 # Ar
421 421 1 0.0 322.1471522045468 506.9378130829132 286.1299674948442 # Ar
422 422 1 0.0 190.5875261691191 389.17001924183734 248.65145018546025 # Ar
423 423 1 0.0 43.67498133256542 16.57779684325408 484.53692083217265 # Ar
424 424 1 0.0 154.4546139827234 328.12782024317175 268.35026791012336 # Ar
425 425 1 0.0 79.11379200092898 114.40480415774029 190.89503643932474 # Ar
426 426 1 0.0 476.4146052704318 187.76466900112564 166.82175688664384 # Ar
427 427 1 0.0 157.6519233142535 354.0908494629437 318.22658658022027 # Ar
428 428 1 0.0 390.3132289767241 214.71777153176944 510.5748244613387 # Ar
429 429 1 0.0 53.61020491665781 250.00317876051463 348.1117630663668 # Ar
430 430 1 0.0 242.4814969935184 291.9306680902383 165.43551639823175 # Ar
431 431 1 0.0 298.82456727033843 189.56327403541798 110.33331773225822 # Ar
432 432 1 0.0 372.07547997840504 485.3958019300734 386.98014716797286 # Ar
433 433 1 0.0 187.8370401357822 104.3285623203656 480.0579880681778 # Ar
434 434 1 0.0 136.09689602738962 375.3232534151149 218.21547389145599 # Ar
435 435 1 0.0 431.322268959323 62.8600088106775 165.80416498211093 # Ar
436 436 1 0.0 86.62629639175191 303.2334945392424 17.882149402079897 # Ar
437 437 1 0.0 256.448346872422 14.250377620423196 232.5992037487111 # Ar
438 438 1 0.0 421.76999675926874 312.3298872698761 144.64524479225022 # Ar
439 439 1 0.0 4.8784793583263495 325.91719664746086 200.7897897125116 # Ar
440 440 1 0.0 124.38516298180484 194.603826805949 161.54050681029872 # Ar
441 441 1 0.0 206.99943832597484 507.40833593996456 225.64506980906845 # Ar
442 442 1 0.0 14.401697854476184 136.64449681713455 472.8049664470593 # Ar
443 443 1 0.0 420.8156365049285 137.02222944574078 34.02062815799568 # Ar
444 444 1 0.0 137.69546945275772 171.21691747354623 56.17981168841896 # Ar
445 445 1 0.0 206.8581566416311 194.03177015185264 271.5519468583957 # Ar
446 446 1 0.0 379.1114477634589 237.82913243049512 489.0359123389432 # Ar
447 447 1 0.0 158.87503152764523 489.08096253847975 413.96139399868724 # Ar
448 448 1 0.0 267.7506462550984 295.2716644674019 161.38706888513002 # Ar
449 449 1 0.0 250.98719740173485 159.25329780989068 128.53428711707008 # Ar
450 450 1 0.0 306.4093165918876 408.7000800387978 354.17501056618454 # Ar
451 451 1 0.0 152.66664613782962 455.71244539830275 238.2796787574313 # Ar
452 452 1 0.0 41.03906761600148 504.4062141129836 14.794405452655253 # Ar
453 453 1 0.0 424.2732560700145 127.8728374820347 8.918559342969443 # Ar
454 454 1 0.0 301.864624562515 427.8185221889024 204.485217719944 # Ar
455 455 1 0.0 472.89994928721023 452.2542976069802 413.34972468331927 # Ar
456 456 1 0.0 440.4346465453715 2.541933745724321 223.9773179183852 # Ar
457 457 1 0.0 383.20519577137713 336.77044569840365 246.74271395065603 # Ar
458 458 1 0.0 161.14233309804183 254.14551719773687 116.53451531090177 # Ar
459 459 1 0.0 225.53991477323504 3.8917261682344195 498.1177893245625 # Ar
460 460 1 0.0 367.3664532681746 364.9764758720654 250.96997207650966 # Ar
461 461 1 0.0 141.00198589277676 370.75043270911993 256.2335887675387 # Ar
462 462 1 0.0 462.53738566660934 461.8434960164212 211.0109540410689 # Ar
463 463 1 0.0 511.98078520412815 446.63730821820957 463.455880852627 # Ar
464 464 1 0.0 422.9777056247998 402.8542113634534 13.50914752961677 # Ar
465 465 1 0.0 188.09134254668064 231.65732409148114 239.42794193581085 # Ar
466 466 1 0.0 335.7249310350118 295.3115718708403 115.45820587483841 # Ar
467 467 1 0.0 342.3899073416779 388.3675169789149 9.50335961406023 # Ar
468 468 1 0.0 226.55116593818798 20.428194959036105 436.68059036290356 # Ar
469 469 1 0.0 500.7032325688579 491.8837297526389 406.38999283680613 # Ar
470 470 1 0.0 457.4721802020751 464.08217514752056 512.928112899726 # Ar
471 471 1 0.0 260.9766571858984 512.2622297804089 137.78492268652985 # Ar
472 472 1 0.0 42.27167284111743 96.41639032357574 106.49286780192827 # Ar
473 473 1 0.0 462.71999659242493 124.5377197259754 435.7512824001712 # Ar
474 474 1 0.0 395.2483169390776 292.48442243317896 223.4495879646822 # Ar
475 475 1 0.0 168.646186896847 425.625668057042 202.1129778435304 # Ar
476 476 1 0.0 334.4416325545333 465.27398304765563 37.940952735952145 # Ar
477 477 1 0.0 364.36564602929656 228.20738598672287 278.6795026110773 # Ar
478 478 1 0.0 143.9709818720849 300.79856791314637 409.5695128656957 # Ar
479 479 1 0.0 375.92820871829963 225.5651409689172 357.1810634719715 # Ar
480 480 1 0.0 24.16653194112873 32.64192512707349 364.90720297609533 # Ar
481 481 1 0.0 306.8381402230417 388.64045162704065 286.5957321122059 # Ar
482 482 1 0.0 443.4723570437329 204.49060985253874 445.1092123387076 # Ar
483 483 1 0.0 83.63384781161088 57.87003364557541 347.80984009874425 # Ar
484 484 1 0.0 287.563759199933 158.58322862056409 226.32764538078163 # Ar
485 485 1 0.0 311.80698838803403 91.96849777325298 236.15693768667768 # Ar
486 486 1 0.0 317.4859810388289 143.65423026667503 481.91524223274365 # Ar
487 487 1 0.0 514.1192590854741 18.161994048611387 151.3694079967133 # Ar
488 488 1 0.0 280.3170610470199 293.0907433792242 335.5752900230961 # Ar
489 489 1 0.0 417.80835277395977 8.907325053970421 287.486813997581 # Ar
490 490 1 0.0 488.4273899887708 452.8028810347867 10.875336517306293 # Ar
491 491 1 0.0 174.4557650714665 398.6015917489742 104.64828584558495 # Ar
492 492 1 0.0 482.09535852394976 268.1181915657095 43.747786060365044 # Ar
493 493 1 0.0 243.8708930684566 455.28252276067815 305.79359806337254 # Ar
494 494 1 0.0 424.3001321928215 198.54935097131266 289.62133036244194 # Ar
495 495 1 0.0 214.2575641798848 289.70434552981374 294.13222583296056 # Ar
496 496 1 0.0 426.7587668871022 467.3399927895731 132.1408813844018 # Ar
497 497 1 0.0 93.35685756278004 174.0944596100992 423.93462111863596 # Ar
498 498 1 0.0 302.87348990255754 210.95403642796504 212.1067728869568 # Ar
499 499 1 0.0 374.3353957444147 157.7059803206717 466.02445461064485 # Ar
500 500 1 0.0 320.0910869020796 49.550580485057374 454.34287997717394 # Ar
501 501 1 0.0 284.03125250421573 495.38904701401094 407.21625243731154 # Ar
502 502 1 0.0 151.44369544372847 341.16772082193967 176.04125184612343 # Ar
503 503 1 0.0 406.94334238287786 238.52050190281386 301.7490450061972 # Ar
504 504 1 0.0 30.586701423308604 358.5503225999823 296.1955561144996 # Ar
505 505 1 0.0 91.15283525221581 22.908130884332984 296.95876119787215 # Ar
506 506 1 0.0 101.38253180419476 475.6465432126479 301.1970894492776 # Ar
507 507 1 0.0 451.16949155306787 478.2057777753083 188.3169928549556 # Ar
508 508 1 0.0 377.67743543240465 4.094963457391261 338.654181418125 # Ar
509 509 1 0.0 400.932661688733 210.3245595168402 333.6994023805694 # Ar
510 510 1 0.0 502.3609908385486 124.45635407061633 469.09952231448625 # Ar
511 511 1 0.0 285.6856914452004 454.79162414860866 501.1166712408661 # Ar
512 512 1 0.0 311.3686671076112 114.16265250716694 151.28075034491317 # Ar
513 513 1 0.0 362.46382189136654 285.50459564363786 18.024509621701302 # Ar
514 514 1 0.0 159.12072541693513 471.5267746930432 130.369767010836 # Ar
515 515 1 0.0 461.21736087150504 440.88195579760367 342.81313710325037 # Ar
516 516 1 0.0 397.048519070962 293.2511407432241 325.356699657203 # Ar
517 517 1 0.0 201.96392812947812 439.6361190344834 111.24672059611453 # Ar
518 518 1 0.0 317.2501303648548 360.6112820797451 144.42869732210463 # Ar
519 519 1 0.0 461.21927602114187 354.8087249249336 76.19931233735744 # Ar
520 520 1 0.0 334.9162999542452 413.0231784220433 155.3585865061375 # Ar
521 521 1 0.0 254.04251617321265 293.528148564777 374.23889991324165 # Ar
522 522 1 0.0 400.69383025758515 381.66563740429825 183.35242207920268 # Ar
523 523 1 0.0 335.42041682712727 507.8454753173851 304.62090279832967 # Ar
524 524 1 0.0 437.5494116800174 210.42434189190337 511.78413125794174 # Ar
525 525 1 0.0 72.47243930934285 492.09525321037626 182.93984218219842 # Ar
526 526 1 0.0 114.17968026618509 395.61144849541694 162.7645740675337 # Ar
527 527 1 0.0 59.353671946051726 9.317411290468756 419.7524224395105 # Ar
528 528 1 0.0 332.9846857628844 21.90578633127065 485.0375517116471 # Ar
529 529 1 0.0 416.94976316317985 173.7833453689499 324.238622936512 # Ar
530 530 1 0.0 245.92780315109866 331.36117703872276 226.05265802655683 # Ar
531 531 1 0.0 188.22736944418637 163.94289915215464 329.55743989470585 # Ar
532 532 1 0.0 469.37719197323867 26.892563744262254 273.1390764232894 # Ar
533 533 1 0.0 319.23041257104484 225.1070002969478 179.13653319773786 # Ar
534 534 1 0.0 375.37488976881684 463.0161765522033 144.70257186204586 # Ar
535 535 1 0.0 153.16347125284372 211.84971534891505 211.53562544304387 # Ar
536 536 1 0.0 153.57891339938982 313.9199926465915 328.46473053272604 # Ar
537 537 1 0.0 242.0982938908632 83.3482084022793 233.6715830850003 # Ar
538 538 1 0.0 362.8092072333131 477.47335662846376 326.6241948798553 # Ar
539 539 1 0.0 229.840849716427 388.55166715259094 396.113681469756 # Ar
540 540 1 0.0 103.25030033583576 500.4987777860532 250.16901730622047 # Ar
541 541 1 0.0 300.8814509872708 446.3461138950458 430.6723513295865 # Ar
542 542 1 0.0 299.1231343150844 327.0803787342522 478.7379562665656 # Ar
543 543 1 0.0 493.37110606271693 440.75984816331123 42.74771843545188 # Ar
544 544 1 0.0 380.486123787264 18.472634614229708 420.44363839968787 # Ar
545 545 1 0.0 232.58132023410303 10.329675588102713 409.07010201381354 # Ar
546 546 1 0.0 149.64114976308772 38.81512028227993 193.6359693500654 # Ar
547 547 1 0.0 373.94993387561755 510.76398655653173 476.3552773620626 # Ar
548 548 1 0.0 492.5791578207943 286.672483949768 430.8690844288331 # Ar
549 549 1 0.0 310.7575348530348 360.6810928519148 389.94563094818096 # Ar
550 550 1 0.0 30.391712883875567 31.765975482814294 370.9647614039698 # Ar
551 551 1 0.0 295.93418733940433 391.6547317458147 328.24957376801876 # Ar
552 552 1 0.0 6.018425766364771 78.13828024333573 441.3782647545747 # Ar
553 553 1 0.0 386.349283428716 219.4839356351978 468.674303405578 # Ar
554 554 1 0.0 227.81827459042003 239.5635718919591 375.1542130240097 # Ar
555 555 1 0.0 237.02869197098693 299.352748099145 251.3233407152009 # Ar
556 556 1 0.0 139.11409656695392 454.86553474767123 452.12487718443225 # Ar
557 557 1 0.0 485.9072972409223 50.18241234596482 315.48112781971747 # Ar
558 558 1 0.0 402.18219815406803 513.7977736424491 462.3747105622309 # Ar
559 559 1 0.0 263.18814160466536 439.3965909718448 446.8895114202915 # Ar
560 560 1 0.0 330.57071135866914 214.71940195156833 179.2918164625808 # Ar
561 561 1 0.0 388.0843492452106 105.35858423507317 217.9587775874833 # Ar
562 562 1 0.0 451.4358635739862 5.400215438095128 395.02326060485404 # Ar
563 563 1 0.0 49.8152295447544 263.71267848800477 427.0415094768776 # Ar
564 564 1 0.0 130.05997377726317 460.2529992317576 318.5461131747369 # Ar
565 565 1 0.0 224.24237520475717 164.04304558162133 153.60900197765312 # Ar
566 566 1 0.0 363.96224938271024 179.52564634062998 232.02704534423623 # Ar
567 567 1 0.0 388.57968086953605 174.16912217000566 506.1622984038485 # Ar
568 568 1 0.0 40.782530280383384 313.3322718872955 259.06101967376463 # Ar
569 569 1 0.0 172.29669657370684 264.2864449445026 338.0537770359336 # Ar
570 570 1 0.0 500.9649188441022 480.5505980650863 129.07593857934233 # Ar
571 571 1 0.0 205.9826107934815 148.80068161104697 474.3590039955118 # Ar
572 572 1 0.0 384.2674506080238 313.6581707525199 14.892671065592072 # Ar
573 573 1 0.0 222.0550998734889 504.8268978923657 335.6228321137351 # Ar
574 574 1 0.0 194.31006401961142 207.6492248301991 294.6026982651918 # Ar
575 575 1 0.0 16.941943356844863 219.46154755045654 218.04536415605787 # Ar
576 576 1 0.0 316.6480629541258 111.88598203814307 125.27817611328724 # Ar
577 577 1 0.0 288.6058186604799 359.58642768858255 458.6541821804803 # Ar
578 578 1 0.0 48.70017074182932 355.49386176021596 237.21962045497207 # Ar
579 579 1 0.0 414.21805583366483 73.81974192380412 109.86903199481654 # Ar
580 580 1 0.0 488.2179992351868 19.544793031146124 458.11328936352413 # Ar
581 581 1 0.0 274.7551467953306 382.178491247613 249.91688523932308 # Ar
582 582 1 0.0 312.13038782778074 359.64157912922343 81.04161988221024 # Ar
583 583 1 0.0 297.3481787261363 433.8171187634968 370.15688275771197 # Ar
584 584 1 0.0 375.94806182398264 366.4005887960148 429.91830768505423 # Ar
585 585 1 0.0 158.7437975311978 484.66732453142373 303.14090795151117 # Ar
586 586 1 0.0 465.13388907244564 16.11205305444633 273.0479182532146 # Ar
587 587 1 0.0 116.37281550344878 232.14998131924966 74.66195255378993 # Ar
588 588 1 0.0 379.9065081306654 284.7789047846638 196.72730152993853 # Ar
589 589 1 0.0 130.75382982542712 241.38217427396103 434.2157071588739 # Ar
590 590 1 0.0 373.8798322849817 356.67903811026156 223.28092514554007 # Ar
591 591 1 0.0 303.9430402795958 204.03814851037544 218.15136052085148 # Ar
592 592 1 0.0 317.2123580750672 460.68638138312303 35.47896033133607 # Ar
593 593 1 0.0 74.59015646032138 256.0924057657548 260.59860734874934 # Ar
594 594 1 0.0 191.70060546566842 22.88074715519351 153.67944178226014 # Ar
595 595 1 0.0 73.52367248841865 486.5226448661292 513.2803411086477 # Ar
596 596 1 0.0 32.82081517168979 157.44926208272187 363.4499957694939 # Ar
597 597 1 0.0 429.60815339916593 112.92201601178576 458.2834915592229 # Ar
598 598 1 0.0 241.51028392914918 325.70604085222453 311.0083600107138 # Ar
599 599 1 0.0 269.04388383911856 39.95842800815795 499.8256867046393 # Ar
600 600 1 0.0 411.37457462518717 293.0841050433229 65.33447801310426 # Ar
601 601 1 0.0 464.219783827982 209.2713313767316 335.8144031112779 # Ar
602 602 1 0.0 85.06681446296919 77.31965902713847 15.159286422410766 # Ar
603 603 1 0.0 206.80012248938874 456.8661755435965 240.95062209851568 # Ar
604 604 1 0.0 35.07500181331777 177.09903372008432 154.24658155768122 # Ar
605 605 1 0.0 284.1533275933815 194.02909648273743 76.01457043356152 # Ar
606 606 1 0.0 502.2473154939118 383.40129015513867 98.13289609949997 # Ar
607 607 1 0.0 109.28050268715124 89.9178250887715 363.55807760653033 # Ar
608 608 1 0.0 282.5277178679246 411.51465486404845 400.9762179434746 # Ar
609 609 1 0.0 463.9674682285906 22.379097803632664 297.29714124913033 # Ar
610 610 1 0.0 359.6526096941723 73.49647619190446 89.85620197601594 # Ar
611 611 1 0.0 457.7442632020632 344.82395107012104 360.8951574619757 # Ar
612 612 1 0.0 264.85003211181237 200.7833031994027 319.5361000995529 # Ar
613 613 1 0.0 259.3654525828934 275.1754515214908 392.91840665439247 # Ar
614 614 1 0.0 179.19080905569527 0.15800355537895774 12.832594020895877 # Ar
615 615 1 0.0 361.1706380719925 486.51995493553113 64.69992887033875 # Ar
616 616 1 0.0 397.82965143091303 76.15081082812887 108.6282348094334 # Ar
617 617 1 0.0 65.00360050507781 407.82501760344786 64.79012097345866 # Ar
618 618 1 0.0 352.606256781148 51.59388983131654 193.52289425666186 # Ar
619 619 1 0.0 160.23969706876926 326.49781730441543 28.595190207233404 # Ar
620 620 1 0.0 335.22202849271423 11.97970733369456 290.09985202367767 # Ar
621 621 1 0.0 177.22060426629707 146.07843982090597 290.5627111079609 # Ar
622 622 1 0.0 246.25164213666292 144.78068246981306 404.7588962439529 # Ar
623 623 1 0.0 504.4882207726274 312.3365275369159 264.7302455040191 # Ar
624 624 1 0.0 205.95317237613682 473.38001602075025 172.41012989587728 # Ar
625 625 1 0.0 16.187393392263555 488.581030559499 429.6777609801437 # Ar
626 626 1 0.0 142.0787802380221 170.62241982417706 27.89253253335887 # Ar
627 627 1 0.0 27.391483463719116 468.5227011588983 77.3648717679709 # Ar
628 628 1 0.0 356.02513310280267 405.5778534750123 11.610110732798137 # Ar
629 629 1 0.0 357.17979024448596 201.25595399823706 159.84465852654375 # Ar
630 630 1 0.0 318.78289973331385 232.7150179051485 215.23719437843863 # Ar
631 631 1 0.0 289.4400012344662 381.85907445196256 345.8154279711904 # Ar
632 632 1 0.0 277.40208511602964 323.44178826519067 297.5212104410332 # Ar
633 633 1 0.0 288.0430016129066 459.38734696575057 352.61250693777214 # Ar
634 634 1 0.0 325.2184149408633 143.76935594943973 435.16794273007486 # Ar
635 635 1 0.0 275.21147175339013 226.15589856185665 169.5368220401254 # Ar
636 636 1 0.0 259.9675364019472 373.46258515038636 51.06488273270237 # Ar
637 637 1 0.0 145.07666622716147 362.38695989284975 506.9282647637309 # Ar
638 638 1 0.0 290.96694451025485 23.269543077521277 455.4824089690415 # Ar
639 639 1 0.0 135.08799950598075 56.93182639988346 122.34228117751735 # Ar
640 640 1 0.0 71.43630639562167 141.251586886379 293.36525303389726 # Ar
641 641 1 0.0 326.1424422231741 486.54647416884836 99.13714485927322 # Ar
642 642 1 0.0 204.54820543166917 237.6697063118368 416.1620200700032 # Ar
643 643 1 0.0 380.3029802774363 213.93637990228126 472.69709820307077 # Ar
644 644 1 0.0 245.5634124975038 283.3096000563869 347.45789607267255 # Ar
645 645 1 0.0 101.23159484822474 162.14824991886934 52.45308282253656 # Ar
646 646 1 0.0 263.9288661877075 443.735950980993 127.65613008656764 # Ar
647 647 1 0.0 1.5118136522898498 331.0417221561844 365.34403342165757 # Ar
648 648 1 0.0 241.86109522989915 496.8026343966452 270.9897176179565 # Ar
649 649 1 0.0 443.4403752315784 170.68306828027346 267.39893139644283 # Ar
650 650 1 0.0 344.68841467084235 35.16427478747185 284.298861521521 # Ar
651 651 1 0.0 145.30729994813197 208.3414648628154 80.98216860331507 # Ar
652 652 1 0.0 327.16216121888976 239.03357243914454 319.1154679785134 # Ar
653 653 1 0.0 203.26571307284152 128.11904365712755 416.84486632407925 # Ar
654 654 1 0.0 376.2717508204727 337.09135440443595 60.98599277625442 # Ar
655 655 1 0.0 152.6448727286495 361.5692457885791 152.99721134521533 # Ar
656 656 1 0.0 306.69657025526294 466.1922593431802 219.64944083942646 # Ar
657 657 1 0.0 154.78814927910565 147.0662562218846 301.9463332427601 # Ar
658 658 1 0.0 281.0556603951463 276.1879668099279 498.057182161938 # Ar
659 659 1 0.0 206.55386721021722 259.6000584401029 421.0037002791028 # Ar
660 660 1 0.0 83.25249101671257 125.0926915264445 272.9095904591499 # Ar
661 661 1 0.0 356.5855975410817 322.92737374464105 348.7243409214734 # Ar
662 662 1 0.0 214.19861726049476 96.48163304798041 462.18374026680624 # Ar
663 663 1 0.0 338.8874797848288 372.3532651860022 197.4968480909051 # Ar
664 664 1 0.0 284.7191020491692 364.65497344531155 256.8804630773084 # Ar
665 665 1 0.0 241.9847478236745 369.9835256266433 228.07584173827837 # Ar
666 666 1 0.0 261.3304895632908 493.9440951390721 259.10255205176975 # Ar
667 667 1 0.0 21.254987316699893 304.5942045803653 30.840769785664715 # Ar
668 668 1 0.0 17.10648076481606 217.45867253572146 45.89396339443614 # Ar
669 669 1 0.0 177.3452755074296 147.5398142365439 233.59745715344772 # Ar
670 670 1 0.0 323.96950261898945 240.88752194639196 464.1308395650595 # Ar
671 671 1 0.0 196.30207138389565 64.18621895707415 292.173729032063 # Ar
672 672 1 0.0 378.11468309507467 70.32300298091108 19.467397813203203 # Ar
673 673 1 0.0 219.2979738232055 316.98110826042705 184.0521283467157 # Ar
674 674 1 0.0 200.07774935549543 40.10776677286622 262.63555904448515 # Ar
675 675 1 0.0 305.7254745010557 24.399634281264415 117.73832311136061 # Ar
676 676 1 0.0 510.04545162918146 22.027802982204022 458.6466279509488 # Ar
677 677 1 0.0 328.5547061858742 357.28019928440295 155.15335517391637 # Ar
678 678 1 0.0 104.89511186101959 72.82814574506017 417.0282489492612 # Ar
679 679 1 0.0 55.02726546632233 363.8035846183111 7.915881430146364 # Ar
680 680 1 0.0 506.8911883379582 29.654979544457305 419.29389113471433 # Ar
681 681 1 0.0 314.69496914213096 70.02415641195881 11.323825109660778 # Ar
682 682 1 0.0 94.21644818011929 419.4688084346465 399.20515325734584 # Ar
683 683 1 0.0 167.43040919999547 78.19231209178497 488.48274859571694 # Ar
684 684 1 0.0 180.47275132809534 148.33634493684596 198.0306314523202 # Ar
685 685 1 0.0 205.87209926593067 449.97529287666345 476.776740192894 # Ar
686 686 1 0.0 391.3949812995916 481.5524333041553 283.0647180524567 # Ar
687 687 1 0.0 118.83313747298719 504.3311711758892 59.534658316352655 # Ar
688 688 1 0.0 429.2070951168558 475.39412123980526 286.1596449742385 # Ar
689 689 1 0.0 155.37783020432656 280.18806133605665 354.4560239159562 # Ar
690 690 1 0.0 151.6601123460595 15.697334510649766 499.37668698763406 # Ar
691 691 1 0.0 133.7279604664757 494.243892411283 401.3808571066968 # Ar
692 692 1 0.0 503.1594917807535 200.88836452024495 137.58411083456352 # Ar
693 693 1 0.0 203.835990853222 106.10496877219319 97.95263230368133 # Ar
694 694 1 0.0 445.6118520254407 488.8302130245559 134.6682883669829 # Ar
695 695 1 0.0 102.82283422953212 203.3904553225568 451.64096156696246 # Ar
696 696 1 0.0 300.64648351843675 78.95980260988932 239.8411690483073 # Ar
697 697 1 0.0 419.83271128687795 80.8933528735922 468.56294765518567 # Ar
698 698 1 0.0 374.81476394005944 473.5788471306048 409.7603272200149 # Ar
699 699 1 0.0 478.99857277651256 324.9983268915839 311.75912620941585 # Ar
700 700 1 0.0 191.81004742629497 510.29773790232116 62.19830258466767 # Ar
701 701 1 0.0 330.2736868806416 361.34434592325425 393.3300544755299 # Ar
702 702 1 0.0 59.864246990074314 367.3336048168937 368.18555816145994 # Ar
703 703 1 0.0 231.17121396176614 445.0380179632134 205.9281174853918 # Ar
704 704 1 0.0 430.5133002566599 134.29320323426342 281.90715908075566 # Ar
705 705 1 0.0 0.19603809974999553 163.20895489357972 359.91778037351605 # Ar
706 706 1 0.0 384.4763786608949 405.37580288967666 439.4759647727374 # Ar
707 707 1 0.0 393.7527027044772 308.00777425726045 105.40947265568758 # Ar
708 708 1 0.0 157.7504845679843 172.4993417859457 331.15603064238564 # Ar
709 709 1 0.0 247.54196595832755 222.65418429067014 487.5344220531956 # Ar
710 710 1 0.0 80.43768412314407 507.28803055752127 278.6736322761531 # Ar
711 711 1 0.0 86.51392427579182 49.62178817667757 383.9434720963602 # Ar
712 712 1 0.0 509.5205859217124 287.7451807695461 340.62213553871817 # Ar
713 713 1 0.0 103.33282613455141 289.0934744179899 100.71547719398008 # Ar
714 714 1 0.0 224.19072623197576 461.27970185308345 119.08879163494218 # Ar
715 715 1 0.0 409.64297340737124 360.8615548214599 189.50165861846838 # Ar
716 716 1 0.0 120.59995661068768 269.6980945866197 74.72445815457804 # Ar
717 717 1 0.0 43.90540407706879 94.45283875580822 164.20050377399045 # Ar
718 718 1 0.0 36.70631171281182 257.60005173434257 202.5172393710821 # Ar
719 719 1 0.0 52.93323448699245 292.9712771560371 179.18882910030214 # Ar
720 720 1 0.0 29.70110222700887 447.6626568760854 395.33766380017164 # Ar
721 721 1 0.0 90.91031155823184 339.15398032243013 98.10145831187994 # Ar
722 722 1 0.0 422.1587799339968 6.9217096307855925 400.1938265547706 # Ar
723 723 1 0.0 404.60000556565603 444.7945716411478 67.43885008460805 # Ar
724 724 1 0.0 9.88777818248496 457.14601516493354 252.6252228809266 # Ar
725 725 1 0.0 344.94072086967424 104.69754813077894 19.070575657268243 # Ar
726 726 1 0.0 243.8715704885509 258.2692136218382 18.817610154590753 # Ar
727 727 1 0.0 449.53420176681357 34.452984482382334 382.7498801988551 # Ar
728 728 1 0.0 400.8673368875018 311.09230043488407 387.44740502178973 # Ar
729 729 1 0.0 64.37040515229505 4.6063112650878155 357.1667632126974 # Ar
730 730 1 0.0 514.2787183759665 435.0783030592787 319.94439977763074 # Ar
731 731 1 0.0 14.732329951721404 95.47925064888716 0.07401300651961364 # Ar
732 732 1 0.0 279.9345780995349 466.5562126442386 5.875742699225066 # Ar
733 733 1 0.0 483.9390163890694 365.3173234566248 347.0738635559563 # Ar
734 734 1 0.0 372.1244713598575 59.23088876003756 186.31957963991906 # Ar
735 735 1 0.0 420.3797864674631 146.55943180560826 291.0563748657039 # Ar
736 736 1 0.0 404.2673385894087 218.1076292549257 103.59675626304121 # Ar
737 737 1 0.0 194.05770297634035 255.09112439937095 430.9233665183419 # Ar
738 738 1 0.0 117.09689516995165 41.67778220523204 274.2522470873004 # Ar
739 739 1 0.0 132.18585577036788 140.1943662627594 77.15553367556015 # Ar
740 740 1 0.0 393.4927959271713 131.90555499168929 459.50554452595225 # Ar
741 741 1 0.0 386.13294243783963 445.2689159835336 135.3881664508003 # Ar
742 742 1 0.0 338.3489165567917 329.9324159402288 28.098416718138658 # Ar
743 743 1 0.0 365.0743539749085 318.10750346404024 104.16481159054156 # Ar
744 744 1 0.0 225.78163745769422 218.02373297079504 279.69978628354875 # Ar
745 745 1 0.0 281.540105860102 258.8578454603044 269.758012249171 # Ar
746 746 1 0.0 364.9002787270956 190.2967279861733 494.43201146390726 # Ar
747 747 1 0.0 159.37972466879387 361.9895131454704 69.52996125929754 # Ar
748 748 1 0.0 391.2184740370154 321.6624601234044 73.22303306759376 # Ar
749 749 1 0.0 168.18547483029812 401.62195156740563 50.896357176857045 # Ar
750 750 1 0.0 455.8977736840213 63.673705437496004 43.174426975283694 # Ar
751 751 1 0.0 372.15002804281005 321.0836326027433 212.86937239298496 # Ar
752 752 1 0.0 211.52081007156264 15.87468659418142 321.3621121392492 # Ar
753 753 1 0.0 347.0679602764479 354.48268471044406 243.9080738356464 # Ar
754 754 1 0.0 288.21097240845893 300.45060019614453 118.28905770693079 # Ar
755 755 1 0.0 67.36003879305918 76.64041517073913 486.9813406288842 # Ar
756 756 1 0.0 453.9216978972457 157.8628508054407 113.35966991647652 # Ar
757 757 1 0.0 332.9263188674698 432.2446074976222 269.44231340813354 # Ar
758 758 1 0.0 334.0329116979906 292.29775016488765 481.8734000062 # Ar
759 759 1 0.0 449.46877547351454 508.40700596545037 347.1145570573976 # Ar
760 760 1 0.0 114.56858184687997 395.2725545422637 281.0494044878976 # Ar
761 761 1 0.0 306.1055975640907 182.94752016555836 394.7577970341461 # Ar
762 762 1 0.0 178.0059274429514 361.7795790748727 184.78193605318165 # Ar
763 763 1 0.0 268.06161297187174 485.40264727182887 87.65157789788294 # Ar
764 764 1 0.0 385.076127004556 188.99112488208996 450.6241128493337 # Ar
765 765 1 0.0 138.12434842685497 352.1423318947156 187.08338862399307 # Ar
766 766 1 0.0 251.58978163260693 159.46849185044056 353.1953276339091 # Ar
767 767 1 0.0 32.41324700026498 46.4899559637662 489.11084954343966 # Ar
768 768 1 0.0 154.17816008760144 96.02318541593657 335.26666790224584 # Ar
769 769 1 0.0 4.436788890893371 42.54435989769482 349.4305445028017 # Ar
770 770 1 0.0 187.50480514929257 153.89218192748427 509.44525793044284 # Ar
771 771 1 0.0 168.6211007240803 458.11316981774866 465.27571049493724 # Ar
772 772 1 0.0 293.905839619304 416.3496867507557 209.79392001397105 # Ar
773 773 1 0.0 508.6961591786579 122.01144260389343 2.412576016846693 # Ar
774 774 1 0.0 315.5053325336749 159.805174865613 154.3200347689508 # Ar
775 775 1 0.0 156.01485703745126 297.15679150424916 354.77098549372494 # Ar
776 776 1 0.0 119.51046330168705 455.65094164686735 3.3309481406779127 # Ar
777 777 1 0.0 32.9658326922454 27.48808801237806 357.66001814257424 # Ar
778 778 1 0.0 8.599461727702046 106.5908097103861 449.5496983145671 # Ar
779 779 1 0.0 303.26936774472387 167.3553055477558 483.90255933227843 # Ar
780 780 1 0.0 475.1226105574192 464.8432239846113 327.9687173790008 # Ar
781 781 1 0.0 14.396374017021689 324.5746361644173 376.29536971617983 # Ar
782 782 1 0.0 138.28739022053904 350.10863800719085 162.85538742559947 # Ar
783 783 1 0.0 230.30401989859357 70.13575015521427 148.8913213415239 # Ar
784 784 1 0.0 328.4319635110067 206.1346975367776 111.69221585186658 # Ar
785 785 1 0.0 465.1993177054 15.003765577963732 303.7021490987346 # Ar
786 786 1 0.0 169.49286524427254 326.64213556420674 417.94933633923034 # Ar
787 787 1 0.0 459.155248433198 431.99379793568244 413.4421640073767 # Ar
788 788 1 0.0 296.2305410890665 412.3709067583145 139.06879149423057 # Ar
789 789 1 0.0 126.15523930280352 366.2020950452076 420.85028085907857 # Ar
790 790 1 0.0 403.5094980280374 226.7993561015078 45.471021960612056 # Ar
791 791 1 0.0 163.08358903035315 506.17232650291965 221.17811324019948 # Ar
792 792 1 0.0 463.0485537277465 424.89078453464236 347.7854574185312 # Ar
793 793 1 0.0 291.94483039408925 449.05904002526853 153.28377401429802 # Ar
794 794 1 0.0 5.618475769089675 359.89467183943583 69.77670350705458 # Ar
795 795 1 0.0 466.7089557038745 18.561334438372164 35.71870291882266 # Ar
796 796 1 0.0 243.36131522716866 283.99292701298737 385.39880886367973 # Ar
797 797 1 0.0 186.75803653775057 42.53207789780448 278.66920860374256 # Ar
798 798 1 0.0 351.8998989534199 2.10301464099697 289.2514228251761 # Ar
799 799 1 0.0 27.045918182865474 499.57221501394054 16.803923946396544 # Ar
800 800 1 0.0 376.231173001207 87.75930103312349 276.21232538861136 # Ar
801 801 1 0.0 358.62393198407227 414.4899623480331 304.1089924769151 # Ar
802 802 1 0.0 94.0910529746374 84.57120478044534 49.71470938029803 # Ar
803 803 1 0.0 481.72457373012054 489.7499088541082 324.1275282618946 # Ar
804 804 1 0.0 120.13079640260763 174.09173865030579 301.7787304942839 # Ar
805 805 1 0.0 169.79740788587617 490.1691609974992 466.7093613382813 # Ar
806 806 1 0.0 396.6642205458376 385.55073466237405 234.0785936407689 # Ar
807 807 1 0.0 27.81132027533845 421.09997564434923 466.8723018145288 # Ar
808 808 1 0.0 421.12892638758456 74.832439721902 143.41843326369545 # Ar
809 809 1 0.0 171.69256730490224 442.60599529396194 83.35851949193635 # Ar
810 810 1 0.0 208.67419066132882 249.70499407198656 448.87312710306117 # Ar
811 811 1 0.0 164.62059935206776 205.7645050931402 69.20900261869244 # Ar
812 812 1 0.0 162.51143249304508 374.61057317084885 412.7872388478803 # Ar
813 813 1 0.0 205.84269532003833 284.942112356807 143.23362439835807 # Ar
814 814 1 0.0 258.86235537844817 309.1369574585655 174.31420972624315 # Ar
815 815 1 0.0 172.73613390241843 79.1237337126958 82.35943497640869 # Ar
816 816 1 0.0 44.60425013571533 319.1916323765228 72.69685900341321 # Ar
817 817 1 0.0 208.21659128243002 22.63078202207333 71.85589936743531 # Ar
818 818 1 0.0 500.8172561243838 318.43687237341516 437.8395069318296 # Ar
819 819 1 0.0 31.396794036761328 81.34087058498916 94.73609969117176 # Ar
820 820 1 0.0 52.59349339402528 102.72624993147647 420.42008596907874 # Ar
821 821 1 0.0 248.72233447787633 76.82990952726468 36.948221676344964 # Ar
822 822 1 0.0 89.05788031588808 328.58147677154074 417.4898362540828 # Ar
823 823 1 0.0 412.55657535977156 452.11731636809714 221.84655008457293 # Ar
824 824 1 0.0 205.74152170990706 51.100929154752635 278.4849605265206 # Ar
825 825 1 0.0 289.0870648845231 497.16066949480523 475.4092945452407 # Ar
826 826 1 0.0 256.0797300180438 458.3636970912018 234.6374734436387 # Ar
827 827 1 0.0 69.31578750857604 142.95144562754453 383.7286148067974 # Ar
828 828 1 0.0 112.8134387758184 261.1511134304332 345.00513153086416 # Ar
829 829 1 0.0 473.98362860502306 34.20383051628705 458.5845611217724 # Ar
830 830 1 0.0 46.64829758235449 249.9317470032078 16.40755563165587 # Ar
831 831 1 0.0 81.37657319322518 183.61578963271762 189.9325847671528 # Ar
832 832 1 0.0 501.9485852512374 504.38540005766373 172.73955614317458 # Ar
833 833 1 0.0 392.8791345263796 401.54139777025864 272.662997113673 # Ar
834 834 1 0.0 278.52390476368777 195.3546574685791 424.4303626662194 # Ar
835 835 1 0.0 90.83988814175746 436.8871109955699 366.0250512757773 # Ar
836 836 1 0.0 125.34639557916286 146.10970752765624 276.87784481433897 # Ar
837 837 1 0.0 417.2985096274266 91.89833647830503 257.72630076469125 # Ar
838 838 1 0.0 226.9305643240818 47.496911864072416 122.20965653261875 # Ar
839 839 1 0.0 393.0831887855455 108.44920767133901 125.11223284395993 # Ar
840 840 1 0.0 301.0143514424541 169.39586452482843 277.1473027974629 # Ar
841 841 1 0.0 50.24849610821092 202.22667549253313 81.09404687330304 # Ar
842 842 1 0.0 400.3133397424491 182.61683513862823 422.9956796625973 # Ar
843 843 1 0.0 361.5044555748314 263.96615757218 161.62420073622965 # Ar
844 844 1 0.0 107.15139286674734 341.7029316261211 8.73096375352972 # Ar
845 845 1 0.0 491.85452151128976 196.8707368056935 319.8960396233667 # Ar
846 846 1 0.0 487.6748867772419 46.17580045116148 194.49121831130017 # Ar
847 847 1 0.0 127.55612211417268 385.1646598130233 36.55674659970286 # Ar
848 848 1 0.0 203.90641809445677 438.5816425354137 263.75828958923137 # Ar
849 849 1 0.0 430.8592814334269 196.53917633685992 402.5386323218219 # Ar
850 850 1 0.0 26.307479967365378 329.57792707267924 194.9131389389027 # Ar
851 851 1 0.0 66.34725145701816 201.26851992012007 452.15778192345243 # Ar
852 852 1 0.0 477.85508332954106 176.81333056073916 384.449312311786 # Ar
853 853 1 0.0 461.5337823202301 86.65237359824549 222.30250619680288 # Ar
854 854 1 0.0 434.3178053832872 472.76889289746623 452.20918756510133 # Ar
855 855 1 0.0 416.15719261663116 8.809796586684623 101.67032297574599 # Ar
856 856 1 0.0 201.18656425977142 19.014185690966944 101.85873496684418 # Ar
857 857 1 0.0 116.6085704367446 128.99279380401433 136.86544579565353 # Ar
858 858 1 0.0 338.774400637988 138.44685131369866 324.8700881253544 # Ar
859 859 1 0.0 151.61263277642493 226.8385380713556 96.28068301136958 # Ar
860 860 1 0.0 75.35988995190652 244.01574591794332 197.38472552138794 # Ar
861 861 1 0.0 365.9197195135582 204.91547218081084 323.90731464710666 # Ar
862 862 1 0.0 110.2401744799045 172.08674459235854 10.424511608270121 # Ar
863 863 1 0.0 312.8871117058936 415.37756170064625 56.4005826142102 # Ar
864 864 1 0.0 460.5798416075347 110.21978877810425 291.8764302103018 # Ar
865 865 1 0.0 338.3524507123934 153.02868027297782 190.8600391378199 # Ar
866 866 1 0.0 392.8553372995629 404.7715535119852 322.8217571348211 # Ar
867 867 1 0.0 91.1193107873951 244.0257894757155 320.56089293606124 # Ar
868 868 1 0.0 290.84557415330903 89.78661545070631 456.6453108775582 # Ar
869 869 1 0.0 166.13655399935047 49.40920538502855 418.3367749018402 # Ar
870 870 1 0.0 403.79253517961604 506.43158189478993 155.01115030772505 # Ar
871 871 1 0.0 509.842532769401 455.18202221523165 454.33566567434013 # Ar
872 872 1 0.0 31.645202605911255 28.651628389703422 114.7826477258532 # Ar
873 873 1 0.0 282.94679532742913 470.4914986875114 351.16393450971987 # Ar
874 874 1 0.0 103.71648023891511 79.36914437371688 40.26944499405113 # Ar
875 875 1 0.0 368.545302072091 198.78221160479325 80.96156502905221 # Ar
876 876 1 0.0 338.41796527747476 129.7838374267733 133.71421841822183 # Ar
877 877 1 0.0 111.836973824675 416.1714921754669 413.02978913733807 # Ar
878 878 1 0.0 309.5838143535936 425.51373326137 281.7916697111991 # Ar
879 879 1 0.0 462.878047629757 240.27902358313537 142.71976265701085 # Ar
880 880 1 0.0 0.7556265634044794 32.413993247152234 294.2329130525183 # Ar
881 881 1 0.0 456.2376999013895 172.29728933138588 282.6486598217485 # Ar
882 882 1 0.0 278.47680329132766 421.09807955729167 79.7045256887622 # Ar
883 883 1 0.0 119.20283069822504 84.13885075467937 443.23451016066184 # Ar
884 884 1 0.0 109.19029987817355 254.77075981738614 288.9942231658822 # Ar
885 885 1 0.0 177.21850273343472 379.15021028640547 303.85810710600964 # Ar
886 886 1 0.0 301.72547912286444 286.22381292437973 493.0835473549016 # Ar
887 887 1 0.0 149.9084539538948 173.4571818742451 420.73630796392484 # Ar
888 888 1 0.0 412.95790998744184 423.9608944382203 417.0809342223091 # Ar
889 889 1 0.0 372.27908375984697 262.1616391994198 382.4630506684416 # Ar
890 890 1 0.0 427.53802214510563 344.24668357600444 337.0113895645798 # Ar
891 891 1 0.0 367.6251765719455 29.153373724432484 130.83740139821404 # Ar
892 892 1 0.0 105.46641789535464 1.455328804801324 185.34828705568887 # Ar
893 893 1 0.0 130.84111840718631 179.5554040448831 229.1319141955755 # Ar
894 894 1 0.0 199.85249735806107 245.10547664918533 511.33006081800386 # Ar
895 895 1 0.0 330.8574500573242 144.13597150195505 419.85501930425517 # Ar
896 896 1 0.0 185.34275119388082 341.8647565488534 189.39422565581063 # Ar
897 897 1 0.0 455.5265294210032 318.61413546924007 313.3644163852719 # Ar
898 898 1 0.0 434.2309903953013 77.01176981767085 91.43392630817048 # Ar
899 899 1 0.0 343.99351357503616 241.44957661148865 274.32486555484763 # Ar
900 900 1 0.0 460.89396201738754 285.03170085097645 417.92369773580725 # Ar
901 901 1 0.0 367.66682650288465 497.8471200713408 0.9502278308619693 # Ar
902 902 1 0.0 468.97801712536375 1.4160469430690275 410.7692116713735 # Ar
903 903 1 0.0 151.9618746407288 191.8981947709111 409.24307242932554 # Ar
904 904 1 0.0 151.3214935530643 494.81617769031186 333.5683627291335 # Ar
905 905 1 0.0 46.93107571923228 37.06846172284529 255.65906161809244 # Ar
906 906 1 0.0 16.624783834801747 305.17552322184775 245.04639608770782 # Ar
907 907 1 0.0 409.0810254956583 176.2476233263698 91.43575267607422 # Ar
908 908 1 0.0 508.72319822941995 498.7074223878699 151.23433216630096 # Ar
909 909 1 0.0 190.56417241851815 271.6615368651841 514.5027700949909 # Ar
910 910 1 0.0 337.734503139841 469.4524837396384 172.24734534440003 # Ar
911 911 1 0.0 86.62638719698856 283.14648559308256 490.28093602691354 # Ar
912 912 1 0.0 30.1474090315426 337.8289846715077 461.87314660755834 # Ar
913 913 1 0.0 262.3748564114675 61.04815369318352 423.0991973448367 # Ar
914 914 1 0.0 291.75192256564617 124.2069512697383 324.3824567996683 # Ar
915 915 1 0.0 95.77250402846707 99.46055870357029 95.94563028680334 # Ar
916 916 1 0.0 411.7143196710861 291.98972189512875 380.2479662519543 # Ar
917 917 1 0.0 478.34680063076445 119.90375851374172 2.47156784575862 # Ar
918 918 1 0.0 433.88543148129224 44.76453656601202 60.74028414444433 # Ar
919 919 1 0.0 191.53574058591107 244.5205575918651 114.88039607721237 # Ar
920 920 1 0.0 238.56727167597452 70.39487815985217 293.23185964199826 # Ar
921 921 1 0.0 242.51181320951582 342.20865440081985 191.1737360040106 # Ar
922 922 1 0.0 15.172128982934042 491.93528521312896 187.39509427674878 # Ar
923 923 1 0.0 57.63286989493181 455.8249664528623 196.0962397506666 # Ar
924 924 1 0.0 188.11121862302167 295.525672822308 293.67587822010955 # Ar
925 925 1 0.0 164.5733974123399 392.4172819274387 353.69851934031357 # Ar
926 926 1 0.0 396.15648988210046 49.421019794201406 481.59071861386496 # Ar
927 927 1 0.0 325.4654743317065 504.33795233848105 446.92195063657533 # Ar
928 928 1 0.0 513.873076285604 437.76722573829915 217.97684715308708 # Ar
929 929 1 0.0 75.86709029280038 294.9798287216521 221.75324386923762 # Ar
930 930 1 0.0 379.79349901173583 358.78955655064345 457.9317983207998 # Ar
931 931 1 0.0 391.4904065933839 106.7959251334655 220.22129908763176 # Ar
932 932 1 0.0 373.89278065472166 409.36849039386374 178.81432428393336 # Ar
933 933 1 0.0 364.4879757841274 504.9085206468187 245.97412068119428 # Ar
934 934 1 0.0 173.93394715880984 263.95079292901676 310.1561051100449 # Ar
935 935 1 0.0 117.6392424998494 440.2093312643251 400.9934973791302 # Ar
936 936 1 0.0 496.36995517681044 457.28603594521593 345.5166629760937 # Ar
937 937 1 0.0 24.96650248386297 352.88205888889684 4.082992955155186 # Ar
938 938 1 0.0 399.93650393955323 121.59071154094364 148.793111227278 # Ar
939 939 1 0.0 277.6347326709743 302.4733507468715 124.55384341765225 # Ar
940 940 1 0.0 210.71280692713216 458.220105457811 85.71741728822636 # Ar
941 941 1 0.0 389.7282359985795 167.2864044871781 165.846267117153 # Ar
942 942 1 0.0 252.2193670561393 472.2440506688949 202.3024820228977 # Ar
943 943 1 0.0 357.4837595432842 296.32022867063904 242.474278850089 # Ar
944 944 1 0.0 65.61862343155974 512.1519137100238 16.130131270842668 # Ar
945 945 1 0.0 235.11394157990264 210.3468271233081 324.74444445280085 # Ar
946 946 1 0.0 492.53055607688094 142.48510115198488 81.27034207491798 # Ar
947 947 1 0.0 329.81921952136184 22.7206384742405 19.333837033001565 # Ar
948 948 1 0.0 216.93850642734722 84.49751345017101 314.1984846419099 # Ar
949 949 1 0.0 362.4431373362948 373.51731180835463 417.0774449645476 # Ar
950 950 1 0.0 395.78322839316127 136.98012346376595 375.04959296855117 # Ar
951 951 1 0.0 499.154320771127 82.85984404576165 102.20869492711894 # Ar
952 952 1 0.0 249.48578085494916 500.66401787387446 27.612100360206863 # Ar
953 953 1 0.0 291.6674594484587 66.1209405461972 238.78918586964974 # Ar
954 954 1 0.0 405.15432337818 163.55981444766545 194.2609214296978 # Ar
955 955 1 0.0 293.9359866697857 466.2389217213337 341.9620394101364 # Ar
956 956 1 0.0 291.202893218898 320.21583518444606 88.45053680114725 # Ar
957 957 1 0.0 336.3278990120284 466.19887047183823 265.95418433737734 # Ar
958 958 1 0.0 66.75002679500146 494.236056615099 263.4154044382393 # Ar
959 959 1 0.0 91.64680606077924 494.03945036546753 101.0680571299933 # Ar
960 960 1 0.0 357.54860525340933 329.9014293514909 486.45215445905257 # Ar
961 961 1 0.0 429.04136498488793 126.68542881576384 308.0759068288599 # Ar
962 962 1 0.0 188.77697965493562 456.4841386005896 131.3807502951249 # Ar
963 963 1 0.0 294.6183101041598 262.2726182662806 469.6742761838831 # Ar
964 964 1 0.0 192.46416824595664 60.41413623636732 331.8021864376181 # Ar
965 965 1 0.0 152.9840731960615 426.5928034150915 58.4507439694054 # Ar
966 966 1 0.0 242.7662667460296 94.28455155324811 383.8963070481102 # Ar
967 967 1 0.0 270.2062509710713 1.8096686796061798 140.7587918220308 # Ar
968 968 1 0.0 459.7558444877103 365.11909338322437 446.8294230820764 # Ar
969 969 1 0.0 197.99880267516062 348.0371331203683 399.3687779055364 # Ar
970 970 1 0.0 65.24171264344382 209.165395917943 201.15399925102477 # Ar
971 971 1 0.0 156.99613319401936 430.73231985457153 227.5804833580847 # Ar
972 972 1 0.0 271.88337523689097 347.7786813187934 352.6137025843305 # Ar
973 973 1 0.0 126.5114096948599 231.04803910731627 11.07722895102628 # Ar
974 974 1 0.0 231.3661812148469 266.05581551781756 44.711345662519456 # Ar
975 975 1 0.0 275.0697188737007 331.84458356717124 283.37737884049136 # Ar
976 976 1 0.0 365.1073015836044 222.08862270230026 108.29672577893403 # Ar
977 977 1 0.0 341.1706306561671 229.50929527261883 407.37984492656983 # Ar
978 978 1 0.0 252.294633563571 350.0184268366822 296.7455388966912 # Ar
979 979 1 0.0 318.45035550450115 231.29642170608517 372.18278518489905 # Ar
980 980 1 0.0 414.81685738061293 51.46707284055768 392.56200391573907 # Ar
981 981 1 0.0 298.28843644422034 434.3418777114162 4.210210374524657 # Ar
982 982 1 0.0 60.14462434737397 62.06384298563449 367.23750666084885 # Ar
983 983 1 0.0 319.32807294217906 155.53809801243943 439.75482437744404 # Ar
984 984 1 0.0 462.5476926827589 404.1688697117153 226.51617661441506 # Ar
985 985 1 0.0 354.78876755371846 492.1791508354731 141.66796244681368 # Ar
986 986 1 0.0 234.2298417740629 470.63774110914136 487.2256275784743 # Ar
987 987 1 0.0 282.6351502208266 141.88132971578386 344.7345195992687 # Ar
988 988 1 0.0 260.5157047733741 218.6316599285479 319.5839572260127 # Ar
989 989 1 0.0 235.0656919753073 398.6052205506083 114.55960953466392 # Ar
990 990 1 0.0 58.03368808889024 163.13779612935045 339.69379667480285 # Ar
991 991 1 0.0 95.90554180627905 59.01606369154577 382.99632666222345 # Ar
992 992 1 0.0 280.9942165301546 41.27337590371768 488.6789407748287 # Ar
993 993 1 0.0 348.7833753828986 293.6566896306032 464.23168159687395 # Ar
994 994 1 0.0 125.70558160190221 352.68799383042835 362.60415979492524 # Ar
995 995 1 0.0 333.3947006092245 416.90167112136345 319.31113591676296 # Ar
996 996 1 0.0 479.8078201611941 392.0893837539389 487.03271731492765 # Ar
997 997 1 0.0 510.9372768244583 305.73676519653685 328.481465410388 # Ar
998 998 1 0.0 417.77730957778283 321.0414974172036 17.449033923909628 # Ar
999 999 1 0.0 309.16744245234713 446.60382981850904 52.61127494292438 # Ar
1000 1000 1 0.0 392.30322245056755 153.97934310549002 157.38568987165456 # Ar
1001 1001 1 0.0 510.6045239229512 200.81225364987762 193.9397288189693 # Ar
1002 1002 1 0.0 274.1674606140332 401.43540973446454 74.08855192524412 # Ar
1003 1003 1 0.0 306.63711035020265 412.985458995409 2.7883439484359376 # Ar
1004 1004 1 0.0 216.86363328449946 121.6174778895841 106.175097392612 # Ar
1005 1005 1 0.0 67.47669930502802 179.60318161177995 207.46717432453946 # Ar
1006 1006 1 0.0 447.540822855083 162.70514663385836 186.3539251771844 # Ar
1007 1007 1 0.0 169.26815084899133 302.1573160381696 108.86888518173741 # Ar
1008 1008 1 0.0 244.1198741191254 34.691461721140286 250.18863237463265 # Ar
1009 1009 1 0.0 315.8435393785471 128.69513959009146 435.22186817550283 # Ar
1010 1010 1 0.0 432.00566431556837 123.20798422681142 328.45019681293877 # Ar
1011 1011 1 0.0 214.37178079703864 421.39745749267604 497.2482332308278 # Ar
1012 1012 1 0.0 235.36348580597453 497.37307688935556 197.99227203313123 # Ar
1013 1013 1 0.0 485.7890735622868 439.7360011609103 80.1196512228733 # Ar
1014 1014 1 0.0 473.4345885633863 20.07998775715657 204.28754012150804 # Ar
1015 1015 1 0.0 66.71233882829044 171.0750416458611 428.1611430384522 # Ar
1016 1016 1 0.0 509.0455235934932 44.93744525360315 413.28246869007666 # Ar
1017 1017 1 0.0 295.97106842979673 475.70805545353966 482.8199849823374 # Ar
1018 1018 1 0.0 53.22440976995177 214.5487570986351 185.0320561246 # Ar
1019 1019 1 0.0 191.2401583978085 162.89515974129563 333.9351762532225 # Ar
1020 1020 1 0.0 177.55512321778374 426.2790622344851 284.67331998049264 # Ar
1021 1021 1 0.0 324.2915790004832 391.98030951404945 144.51534636304578 # Ar
1022 1022 1 0.0 12.11668578728878 389.17521450750417 462.4835562041833 # Ar
1023 1023 1 0.0 408.24656420299334 353.29854593042654 170.04310442982566 # Ar
1024 1024 1 0.0 509.1458677999497 27.327763618159533 178.6830006274601 # Ar
1025 1025 1 0.0 281.6531805835003 51.05518650958439 220.1397943698441 # Ar
1026 1026 1 0.0 457.1060092398001 218.32353046766843 4.8527377599264785 # Ar
1027 1027 1 0.0 280.5028287965653 298.3724626021325 424.75127083208486 # Ar
1028 1028 1 0.0 160.12024931111108 364.9023768251154 347.2324832089916 # Ar
1029 1029 1 0.0 172.60878274915044 513.2315213525152 408.73855256620084 # Ar
1030 1030 1 0.0 363.69976148151983 27.776933368104224 85.96870862960799 # Ar
1031 1031 1 0.0 258.307464004581 226.7978718989783 260.40800137820173 # Ar
1032 1032 1 0.0 109.21225092322169 181.98214672103285 293.1556360510308 # Ar
1033 1033 1 0.0 361.0268353065359 441.7332166522561 72.19381984352351 # Ar
1034 1034 1 0.0 356.18749921055326 384.27350425519427 292.6028466118494 # Ar
1035 1035 1 0.0 327.1770665349663 4.46556535745722 228.27657390337552 # Ar
1036 1036 1 0.0 248.33358419625904 276.51033860195594 222.856314890308 # Ar
1037 1037 1 0.0 303.9859517236247 165.8472050022841 262.2368638426135 # Ar
1038 1038 1 0.0 169.42851905979956 418.8193444441087 73.62785789333822 # Ar
1039 1039 1 0.0 419.5803426161867 126.46850987917014 230.0651066922943 # Ar
1040 1040 1 0.0 358.1636136349333 28.93982235834847 201.05613642352125 # Ar
1041 1041 1 0.0 451.9923283159048 318.28273640587236 434.13763654538747 # Ar
1042 1042 1 0.0 111.92619589911926 289.9894650652313 168.9844887291694 # Ar
1043 1043 1 0.0 194.5273138419459 241.77769799976883 466.5411280600119 # Ar
1044 1044 1 0.0 331.43853838716853 201.48580366750568 178.31548370835586 # Ar
1045 1045 1 0.0 87.12162170599575 186.64173226292434 430.20745663228143 # Ar
1046 1046 1 0.0 250.77862165698397 320.81357603742975 422.94220548809335 # Ar
1047 1047 1 0.0 89.7705255732478 346.17723109177786 288.1932059758363 # Ar
1048 1048 1 0.0 404.55836954675476 396.20644830101446 327.2476064965922 # Ar
1049 1049 1 0.0 499.39618080976476 354.2064135449737 9.718966590260855 # Ar
1050 1050 1 0.0 26.183542312898947 249.51012824461236 278.4855186164754 # Ar
1051 1051 1 0.0 150.0288258851256 483.73989269446963 61.61591711809602 # Ar
1052 1052 1 0.0 513.6159807793571 245.41025895176216 398.4582131652833 # Ar
1053 1053 1 0.0 281.43219101859177 1.7032937055812585 194.78733527488606 # Ar
1054 1054 1 0.0 175.10299148972237 510.4270977782808 295.09690265417186 # Ar
1055 1055 1 0.0 490.25224284629775 504.55594141707115 374.9331687406481 # Ar
1056 1056 1 0.0 493.2608190190558 505.20417674441626 104.03364317650409 # Ar
1057 1057 1 0.0 512.1804791175039 184.28976220555293 19.44621351094505 # Ar
1058 1058 1 0.0 25.354129359616767 333.47499572966024 475.9178943121642 # Ar
1059 1059 1 0.0 269.4055351031238 410.23063788312265 196.2477138987738 # Ar
1060 1060 1 0.0 172.8684865177819 236.77669360810657 110.23879812933431 # Ar
1061 1061 1 0.0 227.9186571591438 513.7091799058311 428.4391492089139 # Ar
1062 1062 1 0.0 373.2966552966168 151.5435284779236 448.441501790364 # Ar
1063 1063 1 0.0 362.31219434554635 27.08272377126166 506.7505116736328 # Ar
1064 1064 1 0.0 439.8191708692531 32.30513387145547 35.982809896913324 # Ar
1065 1065 1 0.0 409.73680229170606 478.3668347559801 48.61213799448026 # Ar
1066 1066 1 0.0 48.709852637247 409.8889087173084 281.3172036348968 # Ar
1067 1067 1 0.0 491.2132887195912 33.249867205164044 255.23973147931795 # Ar
1068 1068 1 0.0 273.405767381962 174.23653770242134 194.344431399566 # Ar
1069 1069 1 0.0 8.297716616085149 251.95617837022132 72.48051358411871 # Ar
1070 1070 1 0.0 158.19752757740568 467.34367749211407 284.78614892731156 # Ar
1071 1071 1 0.0 477.2597112404983 451.6137560999104 343.05458912977986 # Ar
1072 1072 1 0.0 414.13577306038127 144.0798470410471 383.62315323367204 # Ar
1073 1073 1 0.0 134.46012776689713 460.8706415685219 464.92978410487086 # Ar
1074 1074 1 0.0 394.3399207477334 193.3352488651306 275.0638809173372 # Ar
1075 1075 1 0.0 351.6852529784008 399.7447261705577 357.5487387083853 # Ar
1076 1076 1 0.0 0.9680618204610552 22.60136913138553 34.41365468870055 # Ar
1077 1077 1 0.0 341.19515280968903 269.29209208134637 144.37532291171559 # Ar
1078 1078 1 0.0 449.22940825454106 319.86499179284704 82.81208782238582 # Ar
1079 1079 1 0.0 170.3221691707931 200.65463688675416 426.8478629854379 # Ar
1080 1080 1 0.0 142.93447851123105 175.48632885013586 87.48506556717537 # Ar
1081 1081 1 0.0 441.54124499474824 185.66034092674676 316.33002173863713 # Ar
1082 1082 1 0.0 333.719032901656 303.7851674179573 444.3935664772931 # Ar
1083 1083 1 0.0 263.9099313826352 118.21100361027675 145.0691112671071 # Ar
1084 1084 1 0.0 381.64754059669787 466.5744129536279 394.739445281776 # Ar
1085 1085 1 0.0 24.360414533207663 21.15168782191269 131.95638876301058 # Ar
1086 1086 1 0.0 140.425500488221 400.3384544387815 281.5875991352794 # Ar
1087 1087 1 0.0 29.21266214216844 227.47530151514894 7.720781077350681 # Ar
1088 1088 1 0.0 157.6455336417191 307.62904954455814 509.654758681482 # Ar
1089 1089 1 0.0 147.28647402434905 252.32814539374064 14.77794144536508 # Ar
1090 1090 1 0.0 481.0916924625842 376.1994189539161 251.75106384276586 # Ar
1091 1091 1 0.0 303.1114022703687 78.72916269929023 300.4056211762403 # Ar
1092 1092 1 0.0 191.37222713162498 249.4675692619378 486.59533415302184 # Ar
1093 1093 1 0.0 255.42633617106736 306.879089469064 8.89585830476047 # Ar
1094 1094 1 0.0 384.0599115107107 20.82978475616744 514.1850823934378 # Ar
1095 1095 1 0.0 68.70795912637404 302.845312021317 4.13142143620778 # Ar
1096 1096 1 0.0 430.5709867159214 104.88518829685891 456.084643014042 # Ar
1097 1097 1 0.0 358.63052386176224 187.75048762443797 467.0438034054881 # Ar
1098 1098 1 0.0 349.4482859322069 300.76376867957515 203.94940845959331 # Ar
1099 1099 1 0.0 278.26825798029546 132.8357352749144 470.8497152334083 # Ar
1100 1100 1 0.0 219.82418248412287 177.71648721403608 360.8430300434818 # Ar
1101 1101 1 0.0 85.53048965531316 329.7037074312014 177.71072747876883 # Ar
1102 1102 1 0.0 191.99814738778304 197.64049608884304 207.12997749342026 # Ar
1103 1103 1 0.0 65.8452257422175 331.0121384413551 244.3297761148442 # Ar
1104 1104 1 0.0 188.23575099670472 22.585728469271032 489.49460457106954 # Ar
1105 1105 1 0.0 153.98465813847253 219.01612935137305 278.8164004825446 # Ar
1106 1106 1 0.0 93.01828652095631 264.6712598419358 496.4236074668533 # Ar
1107 1107 1 0.0 140.7650067921943 6.812221241226938 39.21207732958012 # Ar
1108 1108 1 0.0 71.75623036366065 451.17027737877646 92.37021611563708 # Ar
1109 1109 1 0.0 369.1512108962303 183.1312584688943 448.66511265308407 # Ar
1110 1110 1 0.0 166.98576694163566 408.05458590507715 356.5820219498584 # Ar
1111 1111 1 0.0 176.86057281193746 198.7041918496942 439.5225933113565 # Ar
1112 1112 1 0.0 60.93651508855809 504.3291486268975 308.1533444161403 # Ar
1113 1113 1 0.0 6.830172980683392 123.03512996069345 61.497316351184345 # Ar
1114 1114 1 0.0 75.27547927777518 244.83523902734603 435.544461633656 # Ar
1115 1115 1 0.0 481.207368123242 142.22435769668124 118.88065222486549 # Ar
1116 1116 1 0.0 354.83395995771866 105.6397427976279 484.68239900558115 # Ar
1117 1117 1 0.0 28.139646467213563 454.86348694745897 64.5581892128016 # Ar
1118 1118 1 0.0 386.34999781503797 40.34544340249464 351.01487052454985 # Ar
1119 1119 1 0.0 284.4960628899482 501.60855060851134 97.32507755748915 # Ar
1120 1120 1 0.0 365.93119771583764 426.1082500565474 453.37456106177115 # Ar
1121 1121 1 0.0 69.18921864354552 474.1085161817976 477.4954651404587 # Ar
1122 1122 1 0.0 47.156795337649925 249.60661918622546 45.744813791151685 # Ar
1123 1123 1 0.0 461.1961827032632 28.998812779753578 363.8179011886326 # Ar
1124 1124 1 0.0 444.85675849210503 137.60307515225776 487.19405569585973 # Ar
1125 1125 1 0.0 261.93932304975607 407.3223772580699 10.757378372925862 # Ar
1126 1126 1 0.0 194.15340230406605 178.7282618857119 277.2042673042797 # Ar
1127 1127 1 0.0 285.76340842956347 501.9958267783142 289.9778251364661 # Ar
1128 1128 1 0.0 375.91192945219484 408.14476860181554 292.31901685410645 # Ar
1129 1129 1 0.0 7.301213333716722 449.14311493265313 498.2242825183221 # Ar
1130 1130 1 0.0 367.4502675596444 226.9808086122317 399.34946058093874 # Ar
1131 1131 1 0.0 360.6177670884759 309.4939886606854 206.59210803637131 # Ar
1132 1132 1 0.0 29.791504387503764 164.90099886525832 458.539472583347 # Ar
1133 1133 1 0.0 312.08290665883953 239.70368521626474 240.5652106206473 # Ar
1134 1134 1 0.0 464.6494934076801 209.75852259941436 346.27824479027544 # Ar
1135 1135 1 0.0 415.86457705724916 174.38827065762177 204.01953122752076 # Ar
1136 1136 1 0.0 297.311375398 250.2427009228973 170.00730879167645 # Ar
1137 1137 1 0.0 324.2453020930524 471.4294300888997 383.53567693283134 # Ar
1138 1138 1 0.0 34.49983710899647 203.15187048621107 434.222009096744 # Ar
1139 1139 1 0.0 432.5838072032764 70.26833441328678 77.22343740008596 # Ar
1140 1140 1 0.0 85.25113637694747 113.97220086981565 350.7747115236549 # Ar
1141 1141 1 0.0 182.7848419054161 64.68530191161547 270.3990742403196 # Ar
1142 1142 1 0.0 29.697934603728356 412.1972209937558 121.99148244032202 # Ar
1143 1143 1 0.0 361.32014517509594 120.59383544944885 27.284535783697102 # Ar
1144 1144 1 0.0 217.41738174928182 59.387318714949544 338.8734901087578 # Ar
1145 1145 1 0.0 277.4247101149125 387.8075899402234 264.65202579178253 # Ar
1146 1146 1 0.0 62.08796735183453 211.8422379946088 409.85597600549625 # Ar
1147 1147 1 0.0 397.1104710103536 63.24398397906881 413.5189896513791 # Ar
1148 1148 1 0.0 486.857282636094 478.75651269597773 371.31451175387906 # Ar
1149 1149 1 0.0 122.27297951523182 254.43813015628893 319.1246162809695 # Ar
1150 1150 1 0.0 470.14053333568705 338.9874607785667 483.10035925565705 # Ar
1151 1151 1 0.0 370.9227585201757 482.6024703706651 361.38401730821204 # Ar
1152 1152 1 0.0 247.7701456039933 55.621916655036266 190.73202653905042 # Ar
1153 1153 1 0.0 457.3569984569325 427.4884274922969 295.2255955119307 # Ar
1154 1154 1 0.0 514.1479836180662 221.94388413348227 5.032695173660339 # Ar
1155 1155 1 0.0 48.36539926628237 366.48251438206586 334.21761725146627 # Ar
1156 1156 1 0.0 257.54144281668 41.201159817424475 15.34077471503952 # Ar
1157 1157 1 0.0 513.1549497132959 44.294521448219626 167.88840530633075 # Ar
1158 1158 1 0.0 66.38561636096634 201.17309251184557 232.37202345719885 # Ar
1159 1159 1 0.0 54.707760776633364 358.09925507495063 328.54795559890465 # Ar
1160 1160 1 0.0 489.12303734510493 454.0504414908607 392.4879309512138 # Ar
1161 1161 1 0.0 5.7980448076970275 14.066945045509712 337.6700044159781 # Ar
1162 1162 1 0.0 225.69642325392957 413.93483446045843 408.6304198902806 # Ar
1163 1163 1 0.0 244.27085009017983 316.74012912642627 397.6841458819887 # Ar
1164 1164 1 0.0 13.444555973233209 419.9313726593516 460.6367629152358 # Ar
1165 1165 1 0.0 132.99533802769835 70.51615167194956 164.7051911424016 # Ar
1166 1166 1 0.0 465.66101448305903 66.1239844107015 504.38954249690255 # Ar
1167 1167 1 0.0 173.11372581580633 306.45902157330204 389.60668291508404 # Ar
1168 1168 1 0.0 327.8069757989673 91.8453158847131 464.86239947348383 # Ar
1169 1169 1 0.0 458.324693362194 354.37798824171927 133.24781492629003 # Ar
1170 1170 1 0.0 384.5380623814742 355.920184905157 9.819240365444115 # Ar
1171 1171 1 0.0 39.27093847845969 81.72934115899929 21.894697133829318 # Ar
1172 1172 1 0.0 498.98413129722644 430.7936786857582 75.17042412750722 # Ar
1173 1173 1 0.0 430.0701878138511 148.1969034877363 160.98514206754558 # Ar
1174 1174 1 0.0 0.7291802701464342 330.02004493695915 103.7102960945683 # Ar
1175 1175 1 0.0 442.2449963612838 111.15078111332025 299.16239568716026 # Ar
1176 1176 1 0.0 244.93412420742342 370.03724235113714 244.1379174410601 # Ar
1177 1177 1 0.0 179.90331607997152 389.1961111754197 343.92641636490123 # Ar
1178 1178 1 0.0 226.95029350208227 229.54507768546412 414.2806129588841 # Ar
1179 1179 1 0.0 262.5712912946287 263.13392871714694 31.925080890518725 # Ar
1180 1180 1 0.0 330.82873280246645 259.7424461803263 337.6499963430989 # Ar
1181 1181 1 0.0 247.547181180164 44.289353627244274 36.95708535536085 # Ar
1182 1182 1 0.0 411.46234991508385 383.7522579367805 380.85163618787163 # Ar
1183 1183 1 0.0 285.9945767016456 230.7692053975782 64.06891965829863 # Ar
1184 1184 1 0.0 243.36566683575396 241.24248047400346 186.50608220055003 # Ar
1185 1185 1 0.0 452.7391043201777 117.46921788658317 76.71940132626133 # Ar
1186 1186 1 0.0 85.30836665963957 333.18636888477596 434.1185536433365 # Ar
1187 1187 1 0.0 134.25312725485404 327.0100589104143 359.5675881144405 # Ar
1188 1188 1 0.0 480.0259792500928 235.56515517307912 133.0119177257364 # Ar
1189 1189 1 0.0 173.9109674564235 346.6347241856614 59.12131979423331 # Ar
1190 1190 1 0.0 40.42810768071035 280.85152206197785 58.35768735624954 # Ar
1191 1191 1 0.0 60.5356749782757 69.55841519844213 201.13529316715582 # Ar
1192 1192 1 0.0 386.4577961901702 428.46582258365896 304.7450372320411 # Ar
1193 1193 1 0.0 33.04367269836439 160.94267006077635 450.1709985778756 # Ar
1194 1194 1 0.0 447.9751442463564 281.32594216642866 332.89660288087714 # Ar
1195 1195 1 0.0 243.7925893836869 448.82930088946915 151.15791365196085 # Ar
1196 1196 1 0.0 299.29371492258934 259.4249299854386 278.4362535694716 # Ar
1197 1197 1 0.0 251.1568349575443 81.07431762874545 443.75279955882627 # Ar
1198 1198 1 0.0 473.2153608802926 470.48015261463564 344.95872720645053 # Ar
1199 1199 1 0.0 119.35436002110671 91.70083554535643 350.3380320126512 # Ar
1200 1200 1 0.0 277.2583202616791 286.3568187627167 235.3437635837105 # Ar
1201 1201 1 0.0 62.3694606614605 373.86656425068264 49.67967532524058 # Ar
1202 1202 1 0.0 329.73588522492474 65.87887978666254 330.7114235810033 # Ar
1203 1203 1 0.0 374.8253948918508 485.30874920938345 107.56767639115108 # Ar
1204 1204 1 0.0 131.90720755079144 12.695880191398397 303.95018837881247 # Ar
1205 1205 1 0.0 63.73569268406574 482.778587328771 252.50358987457034 # Ar
1206 1206 1 0.0 37.01945817591141 349.674544894707 148.38165124780966 # Ar
1207 1207 1 0.0 213.47763948892387 367.14915164144946 81.13423676952262 # Ar
1208 1208 1 0.0 486.29579640818116 247.3591107847072 430.9332111662735 # Ar
1209 1209 1 0.0 88.027637827623 486.6305364444624 13.083158063445774 # Ar
1210 1210 1 0.0 406.9930885236083 24.28667458313977 225.61651914569978 # Ar
1211 1211 1 0.0 244.6207737489551 428.52822789401716 18.934062288409947 # Ar
1212 1212 1 0.0 242.54697866420526 394.0802513946149 255.097521029867 # Ar
1213 1213 1 0.0 258.2391256463195 139.78195064825962 420.36062770737334 # Ar
1214 1214 1 0.0 152.79887492757743 256.55871627204783 176.97238236428356 # Ar
1215 1215 1 0.0 337.78147132645523 221.71434820212815 332.22371605438514 # Ar
1216 1216 1 0.0 332.7944913329442 55.184893136657514 107.02185939278814 # Ar
1217 1217 1 0.0 0.09795414996298688 368.6333944689498 502.84243283617144 # Ar
1218 1218 1 0.0 211.0674115140048 165.2427901169116 268.75897731863034 # Ar
1219 1219 1 0.0 456.0410256594995 30.94791844145075 36.29307225799421 # Ar
1220 1220 1 0.0 206.9012079431254 227.03247373147343 103.35521625702194 # Ar
1221 1221 1 0.0 317.8129712151048 323.3188085672788 415.8330550071883 # Ar
1222 1222 1 0.0 150.7754313504012 93.86531524147159 414.6355398822659 # Ar
1223 1223 1 0.0 140.23881212521496 388.98652249423833 353.25794318302064 # Ar
1224 1224 1 0.0 49.102394406321146 85.87601058697979 380.03864173319556 # Ar
1225 1225 1 0.0 425.1074608908482 478.2806021973572 171.84438462842996 # Ar
1226 1226 1 0.0 358.366100697967 432.63831057376933 69.74887329831881 # Ar
1227 1227 1 0.0 488.1668241922019 200.38379440693006 429.3054307177682 # Ar
1228 1228 1 0.0 185.23397810694058 162.0238130368478 395.2278316833417 # Ar
1229 1229 1 0.0 433.2526191530793 165.51735682037565 500.0416847836998 # Ar
1230 1230 1 0.0 241.52626575814625 507.91440909189055 63.43356806606159 # Ar
1231 1231 1 0.0 197.2784698732208 27.59862492801008 287.56973180206944 # Ar
1232 1232 1 0.0 77.11650090368063 473.00381536795794 445.044502396349 # Ar
1233 1233 1 0.0 391.0670386045543 31.514059743193094 41.95878211026312 # Ar
1234 1234 1 0.0 154.75717549823057 486.87738311102436 376.6077261112542 # Ar
1235 1235 1 0.0 213.2235577941115 491.1712186363215 447.1041996450241 # Ar
1236 1236 1 0.0 31.455316113168905 162.45442930677717 310.2311968183802 # Ar
1237 1237 1 0.0 65.94603747796715 298.91057746987497 137.3337699780276 # Ar
1238 1238 1 0.0 323.01658929031544 135.4925720526334 161.99848772017373 # Ar
1239 1239 1 0.0 254.7930105024853 233.13325940822182 129.7150528789738 # Ar
1240 1240 1 0.0 491.0180409492033 481.38471247429896 476.2233050190078 # Ar
1241 1241 1 0.0 423.3340298820303 225.68676333995907 340.01684787467974 # Ar
1242 1242 1 0.0 245.81969651567013 243.74038914183035 472.2744432367034 # Ar
1243 1243 1 0.0 91.09017069025096 28.612890822897164 67.09360648021176 # Ar
1244 1244 1 0.0 512.7613615228369 186.23637560631522 185.14819480828933 # Ar
1245 1245 1 0.0 62.51634986698715 303.8700546147869 79.38917360856118 # Ar
1246 1246 1 0.0 76.27432213722389 285.2677001448403 33.77766326278724 # Ar
1247 1247 1 0.0 71.61449574486552 509.01572454623016 404.05342737491344 # Ar
1248 1248 1 0.0 239.69224885814256 109.97351458786468 257.65119425261986 # Ar
1249 1249 1 0.0 298.3352277742141 469.4323449713256 435.81278940854236 # Ar
1250 1250 1 0.0 17.96680714026858 267.2297970933029 259.6727221575424 # Ar
1251 1251 1 0.0 490.951590770661 40.970514304533395 36.412302358903105 # Ar
1252 1252 1 0.0 456.43502229948103 38.78973725237639 27.122154199292332 # Ar
1253 1253 1 0.0 368.0574986249556 158.53367707961294 254.80208085022156 # Ar
1254 1254 1 0.0 446.334260979631 404.92991336821 309.0810959349106 # Ar
1255 1255 1 0.0 116.65316681518577 413.32631706415316 285.5132636904186 # Ar
1256 1256 1 0.0 156.08225189743595 254.76800742996318 269.63271752358304 # Ar
1257 1257 1 0.0 40.35059564664026 498.0105971568492 333.42695077393273 # Ar
1258 1258 1 0.0 270.16941866058306 304.36663166630393 376.97463106333754 # Ar
1259 1259 1 0.0 423.61829250620724 333.46196027511877 363.72191591418164 # Ar
1260 1260 1 0.0 19.317293812057816 383.77591550389747 459.0127372263925 # Ar
1261 1261 1 0.0 312.700857823594 375.44793275656264 153.25262391707918 # Ar
1262 1262 1 0.0 463.7179129728596 146.10399490515653 325.5802866366591 # Ar
1263 1263 1 0.0 264.7773745544294 13.234809379986615 319.04467796388536 # Ar
1264 1264 1 0.0 286.63408024793455 334.3378022890749 389.6528098778808 # Ar
1265 1265 1 0.0 193.30695870173236 209.3575765001065 83.16964105718442 # Ar
1266 1266 1 0.0 411.14981491830594 41.23031521426447 42.81477258410474 # Ar
1267 1267 1 0.0 39.65936846913463 13.35713546658706 264.88278445724137 # Ar
1268 1268 1 0.0 237.43589948685724 416.7394619859498 399.08677961137494 # Ar
1269 1269 1 0.0 44.324156250217236 203.8822391233028 171.3131049055335 # Ar
1270 1270 1 0.0 287.8289479175149 92.06174479453622 105.63018549851851 # Ar
1271 1271 1 0.0 374.6488701575424 99.93588797683057 24.832876812598162 # Ar
1272 1272 1 0.0 169.6061048083646 332.8788083094421 422.4672610577968 # Ar
1273 1273 1 0.0 307.0879183292333 266.05942396019975 9.287105806449565 # Ar
1274 1274 1 0.0 373.9978368141052 229.97554817396562 128.60140399373697 # Ar
1275 1275 1 0.0 276.5885916616832 278.6374426361854 11.723063742923397 # Ar
1276 1276 1 0.0 338.6325754734081 434.4203184425951 16.67006859455411 # Ar
1277 1277 1 0.0 302.4692652964646 375.6362867784801 91.19031191227192 # Ar
1278 1278 1 0.0 57.32511853013797 226.74036872188282 437.5714513794552 # Ar
1279 1279 1 0.0 292.8939131535811 142.90481388230234 131.64787748275134 # Ar
1280 1280 1 0.0 133.6422265372302 402.1793760377183 113.98388210811781 # Ar
1281 1281 1 0.0 430.8263202763672 473.16118653808576 444.1206911253594 # Ar
1282 1282 1 0.0 221.9518991982186 284.3856225183889 393.4513906063789 # Ar
1283 1283 1 0.0 467.80462993505733 366.3228490348422 269.1530941092294 # Ar
1284 1284 1 0.0 482.55686530744885 328.50575305843006 48.09554756302912 # Ar
1285 1285 1 0.0 338.3004363420019 414.53640583210205 44.75048518721001 # Ar
1286 1286 1 0.0 186.68349373674192 118.50185701269415 139.7143090286029 # Ar
1287 1287 1 0.0 385.0633984103398 117.41132808863715 396.43136512155274 # Ar
1288 1288 1 0.0 460.89264996557483 335.03571497647334 502.1186107205597 # Ar
1289 1289 1 0.0 385.5930250070126 408.428698762936 379.1010420489457 # Ar
1290 1290 1 0.0 15.51874783851707 186.23283870056238 117.35073360366879 # Ar
1291 1291 1 0.0 62.03924181713655 59.73926754489855 59.34699268911095 # Ar
1292 1292 1 0.0 382.2933255814661 99.63587370510463 13.12573366480118 # Ar
1293 1293 1 0.0 239.29814138262913 311.3802054257981 173.53539136757647 # Ar
1294 1294 1 0.0 396.65620129391414 47.89103105846234 180.15270541850336 # Ar
1295 1295 1 0.0 290.32603016070556 283.60943575116966 77.73514522965763 # Ar
1296 1296 1 0.0 456.66839372339655 48.36285789429694 243.13960373303397 # Ar
1297 1297 1 0.0 116.30515226631627 344.1963546402561 132.98652209798936 # Ar
1298 1298 1 0.0 368.50327361499933 61.7225456981516 30.07864951798787 # Ar
1299 1299 1 0.0 294.202502439616 406.4893940962191 375.0025486064617 # Ar
1300 1300 1 0.0 219.883685632776 87.29028708894609 317.75782242803893 # Ar
1301 1301 1 0.0 285.6634288166022 398.4139865308703 2.9902057823288333 # Ar
1302 1302 1 0.0 442.27727915941836 131.95771826004682 203.85416854027898 # Ar
1303 1303 1 0.0 334.06171617439634 36.06078816802136 511.1052484624654 # Ar
1304 1304 1 0.0 27.604346580144334 201.88753388680755 287.94662353645896 # Ar
1305 1305 1 0.0 28.511068689015264 408.1908234983159 367.8635080889144 # Ar
1306 1306 1 0.0 220.88132826246118 79.42916743608279 468.9885617581465 # Ar
1307 1307 1 0.0 104.29728337778754 469.4339958994115 258.309722199794 # Ar
1308 1308 1 0.0 33.72860757731532 331.1812945463513 65.4698857643833 # Ar
1309 1309 1 0.0 418.1887222417773 473.42390203335884 315.2153120819733 # Ar
1310 1310 1 0.0 10.840813065465007 300.4981315680178 312.8976482781626 # Ar
1311 1311 1 0.0 79.2065855686053 103.59559646486197 128.41612847818072 # Ar
1312 1312 1 0.0 310.88440596642823 39.61308005142179 428.9091359627143 # Ar
1313 1313 1 0.0 194.22719679512286 170.2685922100141 335.3020408161515 # Ar
1314 1314 1 0.0 430.266499113786 330.41269350692846 337.38695896276346 # Ar
1315 1315 1 0.0 244.31187318116326 438.19349225696755 386.07971484680115 # Ar
1316 1316 1 0.0 341.31913980265045 207.3570837204373 1.8080839153040904 # Ar
1317 1317 1 0.0 163.82739790931998 437.2656964241181 37.82127905877115 # Ar
1318 1318 1 0.0 506.8799096512601 53.57965166686708 246.93424371424106 # Ar
1319 1319 1 0.0 369.92137275444077 308.75277137264953 53.75954396493242 # Ar
1320 1320 1 0.0 300.02666297371053 124.60150726525059 468.9807913993351 # Ar
1321 1321 1 0.0 78.27720031740597 159.15331142178914 482.9733548803162 # Ar
1322 1322 1 0.0 136.51536705497082 313.21756283249215 116.71040697407636 # Ar
1323 1323 1 0.0 142.7243847196481 85.0684683054836 383.9217426257473 # Ar
1324 1324 1 0.0 194.83701673191035 68.72021508448624 510.1902313189729 # Ar
1325 1325 1 0.0 83.58766298860844 240.09038029191865 319.54474488327656 # Ar
1326 1326 1 0.0 49.81303621993013 370.64204447911527 196.19620801107257 # Ar
1327 1327 1 0.0 114.36961916170732 393.05954996451493 125.85071824276565 # Ar
1328 1328 1 0.0 479.5758794570074 374.71036318499756 138.52240694806613 # Ar
1329 1329 1 0.0 229.62448520453145 365.855269560974 364.5297627103023 # Ar
1330 1330 1 0.0 317.6754128892741 509.40063311635 228.746254565944 # Ar
1331 1331 1 0.0 479.1703993061487 252.5054539817315 70.34746362741613 # Ar
1332 1332 1 0.0 301.05263892158945 406.297593069242 167.0210007231998 # Ar
1333 1333 1 0.0 312.7063641210521 64.85774608280533 79.86424632648658 # Ar
1334 1334 1 0.0 325.94097744364007 69.76350719571467 484.4020853623469 # Ar
1335 1335 1 0.0 305.48420618906096 458.71955876230305 477.70485160687156 # Ar
1336 1336 1 0.0 418.817246554341 152.2703728422253 329.2379613858245 # Ar
1337 1337 1 0.0 381.9284191518714 375.64990217330234 373.2488755504466 # Ar
1338 1338 1 0.0 482.48021070137577 8.283733454185741 482.11821359496497 # Ar
1339 1339 1 0.0 462.5184059323624 192.5317888054301 432.20063415697297 # Ar
1340 1340 1 0.0 494.37136151933987 496.5387850453618 202.11654659723035 # Ar
1341 1341 1 0.0 416.0554768345255 172.44931683687145 453.0380678439454 # Ar
1342 1342 1 0.0 377.95868914934476 512.3606116060586 183.77331354940085 # Ar
1343 1343 1 0.0 38.78705123790165 475.97562868778135 23.721478232789387 # Ar
1344 1344 1 0.0 288.201769453805 239.25880290724717 323.2627395199815 # Ar
1345 1345 1 0.0 110.24036426112227 358.3899740958963 135.7571867528664 # Ar
1346 1346 1 0.0 87.8912184157262 295.59296170730994 197.66483563924243 # Ar
1347 1347 1 0.0 288.6436973475724 215.4393614179991 453.4870210064449 # Ar
1348 1348 1 0.0 384.41421039348086 310.65239260311535 107.44634337259787 # Ar
1349 1349 1 0.0 41.57811687511669 248.04098391073498 418.81826127954776 # Ar
1350 1350 1 0.0 287.6111120631852 15.575946952798732 193.41114658441697 # Ar
1351 1351 1 0.0 188.27172515684256 231.14041597131853 114.6809889229083 # Ar
1352 1352 1 0.0 19.49289571405765 457.13793499237846 482.8644088377952 # Ar
1353 1353 1 0.0 230.38817261928205 464.9252341362426 336.5735406304393 # Ar
1354 1354 1 0.0 82.47559926559104 432.64177562368366 186.50168701997467 # Ar
1355 1355 1 0.0 312.900514266558 141.35906783031498 186.60973903730826 # Ar
1356 1356 1 0.0 151.84749975251117 238.11363977663012 104.09732586268 # Ar
1357 1357 1 0.0 338.61498626361947 343.14227543344884 406.6853460991556 # Ar
1358 1358 1 0.0 92.78209007747348 113.72341658298053 229.3502096291372 # Ar
1359 1359 1 0.0 280.3753877809066 184.5274548960267 362.36556787707275 # Ar
1360 1360 1 0.0 345.66149126652897 32.10496451060337 92.59455482522483 # Ar
1361 1361 1 0.0 124.58848903671992 267.7086799126995 175.07320724049268 # Ar
1362 1362 1 0.0 0.3915966660502215 300.5782470816788 363.1159197805445 # Ar
1363 1363 1 0.0 252.15051527463424 473.7663245880191 460.42984669218214 # Ar
1364 1364 1 0.0 442.4191129563708 100.41877017740414 340.3072727806597 # Ar
1365 1365 1 0.0 513.5383763711383 158.52897353470917 324.14007516156965 # Ar
1366 1366 1 0.0 162.14647838397946 341.4157164164117 513.2549082825394 # Ar
1367 1367 1 0.0 466.460443965304 412.03427593032205 355.39092541517726 # Ar
1368 1368 1 0.0 470.77939854938023 483.52700921210266 409.48584114841384 # Ar
1369 1369 1 0.0 226.2791683635441 332.6877101194998 395.08305015349833 # Ar
1370 1370 1 0.0 461.28847763170666 321.88065124271856 455.2666320323758 # Ar
1371 1371 1 0.0 159.70396591427064 327.18755061879017 33.862966593391654 # Ar
1372 1372 1 0.0 343.50888372109694 348.3671208572228 205.37805670178614 # Ar
1373 1373 1 0.0 266.74020363218665 135.24931390809246 418.20189357849335 # Ar
1374 1374 1 0.0 497.92850680822164 456.03302326173787 277.5073501987013 # Ar
1375 1375 1 0.0 434.40334250960814 506.64161492559776 379.89555838449394 # Ar
1376 1376 1 0.0 323.1551227578987 412.4056876999916 469.9136373522786 # Ar
1377 1377 1 0.0 408.1886103320735 483.6580696663253 212.49119622528 # Ar
1378 1378 1 0.0 328.79291567681327 120.5319062376536 52.61334103776296 # Ar
1379 1379 1 0.0 345.45177920046444 22.421138456074342 182.92701243903574 # Ar
1380 1380 1 0.0 499.7486168895453 84.37062097456008 227.28851964378404 # Ar
1381 1381 1 0.0 356.64645186760407 159.772427381519 225.56679455514467 # Ar
1382 1382 1 0.0 137.91901106134162 271.00676988389455 308.7822703896505 # Ar
1383 1383 1 0.0 491.4774050347878 307.0182939538869 44.87217857529352 # Ar
1384 1384 1 0.0 303.48424794057604 211.72270870483018 271.69179631543045 # Ar
1385 1385 1 0.0 503.5693560013641 227.7728842710196 91.71278345904095 # Ar
1386 1386 1 0.0 350.98992157029664 396.4462787798984 221.6070606956454 # Ar
1387 1387 1 0.0 468.76809767082665 490.60789809805055 293.0139655016095 # Ar
1388 1388 1 0.0 318.93823264992847 38.61528746706014 233.61904333049108 # Ar
1389 1389 1 0.0 208.70208822438687 453.36966641252485 24.25047939882476 # Ar
1390 1390 1 0.0 60.588051347349825 492.03756570336816 359.9547162279914 # Ar
1391 1391 1 0.0 340.0558254875253 16.36835204883558 141.7994643589463 # Ar
1392 1392 1 0.0 487.8539334630894 390.2387265915541 301.20844896942225 # Ar
1393 1393 1 0.0 487.22830027777417 98.03502212285437 325.13247698198114 # Ar
1394 1394 1 0.0 308.9322330250565 174.22166031596848 225.26633266771978 # Ar
1395 1395 1 0.0 371.14226875368144 446.3394803261848 84.54454762326434 # Ar
1396 1396 1 0.0 171.84516038714239 248.1638868597262 304.7539979247092 # Ar
1397 1397 1 0.0 421.20446486733664 63.033995821002954 451.56352201981537 # Ar
1398 1398 1 0.0 308.2812227471322 437.99369833225325 3.3110375414554567 # Ar
1399 1399 1 0.0 209.06421162355372 352.2809069041572 401.56297784416915 # Ar
1400 1400 1 0.0 220.6981591382208 210.97129379592462 75.42827029906779 # Ar
1401 1401 1 0.0 177.9702650957315 323.7482499123828 337.73284238771924 # Ar
1402 1402 1 0.0 350.62127293785 427.91985877734817 186.68455174001 # Ar
1403 1403 1 0.0 424.8985530933132 112.9582120709821 369.4570790568306 # Ar
1404 1404 1 0.0 7.523874007547588 455.58673593222164 209.2967887103684 # Ar
1405 1405 1 0.0 272.3332234872728 227.52254800267303 195.01628429832815 # Ar
1406 1406 1 0.0 341.7090498955886 209.553907549248 49.65529152404839 # Ar
1407 1407 1 0.0 431.8533358768562 431.98629104656527 396.79064270932497 # Ar
1408 1408 1 0.0 195.40678727340764 359.5983175900743 292.23603369874843 # Ar
1409 1409 1 0.0 314.6976600941366 426.56297242070127 489.9227695602494 # Ar
1410 1410 1 0.0 313.28370346153457 332.7707326325538 79.94023269168092 # Ar
1411 1411 1 0.0 57.9420162899208 112.12237389964046 42.679450697646125 # Ar
1412 1412 1 0.0 432.1403817647915 41.027012153737125 49.326637361775894 # Ar
1413 1413 1 0.0 129.46363590390152 273.93052234588026 513.5178233660217 # Ar
1414 1414 1 0.0 65.66009604805578 424.68617313717436 502.00057024795757 # Ar
1415 1415 1 0.0 337.89478095324176 384.43357497191545 128.10430158772212 # Ar
1416 1416 1 0.0 36.674415603823874 80.27135682476072 113.42107679539014 # Ar
1417 1417 1 0.0 408.0571181222318 511.3089781583923 409.8286146199181 # Ar
1418 1418 1 0.0 250.8460040968918 42.05155601196955 399.6424444256052 # Ar
1419 1419 1 0.0 219.18337967206392 16.90128583783993 89.39096025155004 # Ar
1420 1420 1 0.0 312.25162500074845 406.95330654660364 151.3327956943083 # Ar
1421 1421 1 0.0 49.37513563694484 135.23865403680742 443.62267968650866 # Ar
1422 1422 1 0.0 149.8751828370538 229.27750041123562 65.25875648465751 # Ar
1423 1423 1 0.0 360.1621853592669 251.42081905899198 12.232028589151051 # Ar
1424 1424 1 0.0 87.22323205562343 409.03728936017245 489.2067781047709 # Ar
1425 1425 1 0.0 264.33979027461766 428.7464432680641 364.70688275835096 # Ar
1426 1426 1 0.0 1.955397908701746 309.56718652961905 17.278177016694922 # Ar
1427 1427 1 0.0 209.88895331626895 321.8130727327854 184.2714235887648 # Ar
1428 1428 1 0.0 106.66306314480443 148.89669254908858 132.89019264595606 # Ar
1429 1429 1 0.0 368.5463951361202 504.095984683028 173.04155181712164 # Ar
1430 1430 1 0.0 246.62335752234088 311.1195317654812 424.8062598073021 # Ar
1431 1431 1 0.0 154.56860659575563 271.8301182500909 419.0679870826396 # Ar
1432 1432 1 0.0 393.5754586160409 362.5532831075601 393.80178357143683 # Ar
1433 1433 1 0.0 48.192240238065104 17.046162183780606 475.0344107490138 # Ar
1434 1434 1 0.0 298.2727467093232 465.0868711726236 10.018845696394582 # Ar
1435 1435 1 0.0 350.1819665235195 168.4024481768148 182.06132936233757 # Ar
1436 1436 1 0.0 236.28309722669573 314.75719660739145 346.4248588051934 # Ar
1437 1437 1 0.0 490.8022085411582 447.3891527671156 188.14815632221286 # Ar
1438 1438 1 0.0 316.1400185441176 437.1270897682496 455.21239743322974 # Ar
1439 1439 1 0.0 61.75853447920566 270.633005973709 95.05504262893714 # Ar
1440 1440 1 0.0 256.25044077129144 89.53729508199413 41.02711139785211 # Ar
1441 1441 1 0.0 390.48826602698125 143.99988253892374 513.8153070260407 # Ar
1442 1442 1 0.0 489.1727392665847 154.85032596181904 165.08399202726554 # Ar
1443 1443 1 0.0 505.82205689271956 427.66586603831337 208.1422460787459 # Ar
1444 1444 1 0.0 492.7410154075843 347.1458765169442 223.32969168076735 # Ar
1445 1445 1 0.0 319.4991809671282 444.9412406990205 407.9303698967576 # Ar
1446 1446 1 0.0 483.95724309721396 384.7942164989463 203.2135066453183 # Ar
1447 1447 1 0.0 283.53734593723823 403.55346754879497 275.33383747353014 # Ar
1448 1448 1 0.0 314.99746848699453 274.9163942348315 24.922701342763435 # Ar
1449 1449 1 0.0 401.15915792100975 291.7016038062169 149.63324704408038 # Ar
1450 1450 1 0.0 467.58260648602624 41.98194748936926 508.610399855837 # Ar
1451 1451 1 0.0 220.16523808933744 201.6947126265023 503.5482518647434 # Ar
1452 1452 1 0.0 54.801707687020915 195.1828096735988 463.4057525997534 # Ar
1453 1453 1 0.0 40.902685856107944 202.221440663531 91.8401162532711 # Ar
1454 1454 1 0.0 141.06180708573953 496.2264963948193 469.663653175995 # Ar
1455 1455 1 0.0 331.19337431174813 334.6147837825096 279.0144283117881 # Ar
1456 1456 1 0.0 73.49453280772536 424.82780711639856 122.51082273212572 # Ar
1457 1457 1 0.0 359.27739492201783 56.62663591882744 343.5478644599871 # Ar
1458 1458 1 0.0 96.91767829420557 447.4857866064262 459.46751456287615 # Ar
1459 1459 1 0.0 398.25632602385747 236.36683898470608 297.6184015768277 # Ar
1460 1460 1 0.0 287.8321086275681 157.53003675239563 453.77950527283775 # Ar
1461 1461 1 0.0 513.1403417900435 130.93761705908076 133.2014276130816 # Ar
1462 1462 1 0.0 354.96758252456874 514.5185828618309 495.1863240177468 # Ar
1463 1463 1 0.0 197.36907371105863 278.04109018413646 121.98397355826404 # Ar
1464 1464 1 0.0 397.7992560826202 161.52632036699995 39.119836426260456 # Ar
1465 1465 1 0.0 428.281247410004 337.7462810466899 336.3757495509785 # Ar
1466 1466 1 0.0 387.80754102653395 301.549839845577 505.88205352748344 # Ar
1467 1467 1 0.0 384.59777921684736 508.4010676642969 245.30474233214017 # Ar
1468 1468 1 0.0 103.75724209853509 65.69030927402342 24.0401002213474 # Ar
1469 1469 1 0.0 173.81158548404 60.79746320367071 240.3775610599072 # Ar
1470 1470 1 0.0 400.7873365163565 260.9183280123152 430.6471997084626 # Ar
1471 1471 1 0.0 157.04912880405996 494.2093406645729 258.96281671742315 # Ar
1472 1472 1 0.0 226.03771459048676 227.05052462673459 454.47966576165265 # Ar
1473 1473 1 0.0 50.01311552752945 4.250103579522028 275.03137385863283 # Ar
1474 1474 1 0.0 195.8704530933894 20.238853702933646 164.70182478453918 # Ar
1475 1475 1 0.0 347.1065959320689 334.75230102814356 318.8458015340411 # Ar
1476 1476 1 0.0 420.39570906166796 508.18052046089986 224.16703183321553 # Ar
1477 1477 1 0.0 300.13710647236974 149.5531214823301 408.15930213551354 # Ar
1478 1478 1 0.0 193.4576547994417 36.35333690759381 64.56922289834169 # Ar
1479 1479 1 0.0 386.91781711485606 430.9164779772172 311.1850738126413 # Ar
1480 1480 1 0.0 90.74928720284919 329.49507114524863 493.39565607552845 # Ar
1481 1481 1 0.0 219.89756695745723 410.94435221152486 38.3710645088269 # Ar
1482 1482 1 0.0 367.0965616794561 316.4620204661819 382.27493701805986 # Ar
1483 1483 1 0.0 136.80365394012452 514.0056514839218 259.91732805143045 # Ar
1484 1484 1 0.0 190.1204957327532 232.47030174734476 84.43377101039336 # Ar
1485 1485 1 0.0 188.3682811331166 46.02288963995241 342.94377135738046 # Ar
1486 1486 1 0.0 499.094109636955 121.54037327658087 386.4574282570769 # Ar
1487 1487 1 0.0 431.4181686901929 244.76819147427213 485.64561690673526 # Ar
1488 1488 1 0.0 435.4249550799811 484.99378215723897 491.99892818142723 # Ar
1489 1489 1 0.0 164.15638106543793 23.816755080894264 390.4011509838335 # Ar
1490 1490 1 0.0 24.11712939407681 268.87614525336863 385.7051556799453 # Ar
1491 1491 1 0.0 198.278245600858 154.2153449653783 129.9064004338152 # Ar
1492 1492 1 0.0 3.685343426386997 325.3730507853053 250.3837550919317 # Ar
1493 1493 1 0.0 305.9992762235129 80.91685520802397 244.8160015124521 # Ar
1494 1494 1 0.0 368.0266270493899 22.89563292967181 375.0211386824761 # Ar
1495 1495 1 0.0 17.025735236923584 56.000751171662806 345.5808834140813 # Ar
1496 1496 1 0.0 361.48522127734765 142.31981333980627 90.24225651997313 # Ar
1497 1497 1 0.0 212.23068371573612 345.03017520040976 249.80837854212893 # Ar
1498 1498 1 0.0 315.8925117171428 232.27253904583188 309.76072458221694 # Ar
1499 1499 1 0.0 9.14431686592682 331.1189209663051 236.51715827854485 # Ar
1500 1500 1 0.0 257.448328365361 56.78101670695524 366.31881667610025 # Ar
1501 1501 1 0.0 272.4062218381944 261.2959410758388 167.26394470365432 # Ar
1502 1502 1 0.0 446.3413672314956 501.1841400763951 420.5506516530534 # Ar
1503 1503 1 0.0 82.6868525466998 503.5194720976841 323.42767324939246 # Ar
1504 1504 1 0.0 460.32238126243334 341.6826244031919 444.4331520822197 # Ar
1505 1505 1 0.0 69.86424593863272 288.02390800600193 44.427986008956175 # Ar
1506 1506 1 0.0 119.63086210094338 320.9608004611874 141.1999236669116 # Ar
1507 1507 1 0.0 451.41674234323557 485.97828954370704 433.83196701982826 # Ar
1508 1508 1 0.0 307.18082633133207 110.09806872940896 407.1401362151899 # Ar
1509 1509 1 0.0 100.09831840398108 206.3914009089261 457.86289394942605 # Ar
1510 1510 1 0.0 247.8736350677351 415.8361234584083 370.1713308255246 # Ar
1511 1511 1 0.0 185.42618802836716 158.5899955145733 432.7576148385094 # Ar
1512 1512 1 0.0 341.7551745338119 385.3233226080129 243.88427958859583 # Ar
1513 1513 1 0.0 487.555320524711 80.37033878905453 66.35895699927708 # Ar
1514 1514 1 0.0 484.3735589369005 448.98427204928515 18.9222545056332 # Ar
1515 1515 1 0.0 166.7741169743469 375.90585647745087 61.19861315757011 # Ar
1516 1516 1 0.0 219.81232106151398 176.0838429005202 148.94410338138712 # Ar
1517 1517 1 0.0 440.0593286334651 334.27107994870386 284.30142750657194 # Ar
1518 1518 1 0.0 18.194443300302005 410.4681509808847 374.3618177124174 # Ar
1519 1519 1 0.0 88.98483632933616 455.9818522095406 40.29499568473419 # Ar
1520 1520 1 0.0 134.77138903383084 75.46928136905574 294.90287890145146 # Ar
1521 1521 1 0.0 334.9426427378091 228.89331250908467 290.02399407726654 # Ar
1522 1522 1 0.0 279.04209185354694 359.5924830584631 166.622285325928 # Ar
1523 1523 1 0.0 472.9644458345502 470.56766128305674 434.55016098926717 # Ar
1524 1524 1 0.0 304.55385015627087 47.887316416094656 406.1261583204939 # Ar
1525 1525 1 0.0 344.5979483998589 467.8027836909494 35.308086498917255 # Ar
1526 1526 1 0.0 358.3905752781939 296.7523974887962 417.79465774318703 # Ar
1527 1527 1 0.0 14.50965029039713 163.24182600367598 227.31130395089193 # Ar
1528 1528 1 0.0 235.25919156754424 185.43516824206472 227.50236829593848 # Ar
1529 1529 1 0.0 362.2873939764133 119.37710528768785 125.37180781624389 # Ar
1530 1530 1 0.0 356.02594674164 110.67578428169818 409.4634161600699 # Ar
1531 1531 1 0.0 134.50193426770912 192.6760775089297 225.95963327900432 # Ar
1532 1532 1 0.0 356.09607230111175 389.1702607071531 92.61444674513865 # Ar
1533 1533 1 0.0 192.91836279906354 36.39847022128261 231.6011091641743 # Ar
1534 1534 1 0.0 148.3389717726425 313.7749224365126 109.00393823594399 # Ar
1535 1535 1 0.0 506.9169120266065 434.76248614088433 420.8212912129701 # Ar
1536 1536 1 0.0 431.59593892885323 111.39235850630965 492.00279292772973 # Ar
1537 1537 1 0.0 126.21862399103684 236.88281263490953 8.730451735675745 # Ar
1538 1538 1 0.0 170.49747299150405 443.94363407119243 443.9074925886914 # Ar
1539 1539 1 0.0 28.974646646076522 399.50854744812034 39.22850547743121 # Ar
1540 1540 1 0.0 67.24611582113079 182.2036000555582 196.64303238254067 # Ar
1541 1541 1 0.0 338.1161749896644 304.56917903608274 287.7914121027479 # Ar
1542 1542 1 0.0 193.71539940752018 332.46819096697567 196.5779864526073 # Ar
1543 1543 1 0.0 142.81352153310107 313.21907321904484 172.58343406186148 # Ar
1544 1544 1 0.0 410.80229997418957 480.5364583665238 468.3063607369894 # Ar
1545 1545 1 0.0 180.2186093948179 57.417149886810044 7.450569903677296 # Ar
1546 1546 1 0.0 223.35934756620657 330.5338369020868 75.16441450246332 # Ar
1547 1547 1 0.0 385.2403816109274 367.3141329420834 395.24391518939365 # Ar
1548 1548 1 0.0 25.755377110921764 487.55108849146677 308.84965466235855 # Ar
1549 1549 1 0.0 136.15738910250676 202.9607109000949 129.26170461062824 # Ar
1550 1550 1 0.0 50.774356344070256 127.92463352987997 397.6831213649872 # Ar
1551 1551 1 0.0 165.50334733879308 306.68591324052454 191.0922654079162 # Ar
1552 1552 1 0.0 508.5572263489895 342.87628740555766 207.05832855819472 # Ar
1553 1553 1 0.0 10.40019056638466 389.39239802968393 118.7953774884001 # Ar
1554 1554 1 0.0 494.9164049593557 279.89298019745434 301.98635919560473 # Ar
1555 1555 1 0.0 323.7688152045461 449.461835256369 306.9718526449445 # Ar
1556 1556 1 0.0 22.611063845814417 0.515642623229538 176.12296587381428 # Ar
1557 1557 1 0.0 308.08271881672454 419.304818660652 202.3699920006834 # Ar
1558 1558 1 0.0 228.87194937066948 398.84455631838796 474.01187546938985 # Ar
1559 1559 1 0.0 143.13121632042254 179.44222978519798 422.15714920212076 # Ar
1560 1560 1 0.0 89.28015084891443 477.37001943606384 244.02309694997922 # Ar
1561 1561 1 0.0 430.83889374737066 221.62493890207315 62.28533653370344 # Ar
1562 1562 1 0.0 164.61029698255754 406.93636305087375 183.56898115557152 # Ar
1563 1563 1 0.0 316.9518890494067 218.8890005590494 81.36995531094868 # Ar
1564 1564 1 0.0 418.5989433107655 501.79842556937535 15.50024744560407 # Ar
1565 1565 1 0.0 421.31398379576655 316.6650647946163 452.20830160284027 # Ar
1566 1566 1 0.0 44.374617469621896 365.58681063190016 435.0647523130773 # Ar
1567 1567 1 0.0 505.7001339123065 494.71267616905953 51.16240874028579 # Ar
1568 1568 1 0.0 87.78590052278429 490.37935987842985 128.48789563969072 # Ar
1569 1569 1 0.0 495.97095496431587 214.43667904263205 354.69663286483546 # Ar
1570 1570 1 0.0 492.212740559206 275.6363059101594 14.952895584896373 # Ar
1571 1571 1 0.0 164.52311178865773 507.0180902102128 444.01218815156017 # Ar
1572 1572 1 0.0 100.14249146086168 150.2102751399726 198.20852829801802 # Ar
1573 1573 1 0.0 372.2324438744471 31.88558663735717 494.9509159365694 # Ar
1574 1574 1 0.0 275.24442209905015 419.28006065383124 43.391947372384166 # Ar
1575 1575 1 0.0 199.1554938082356 259.0339193459478 24.088629023692153 # Ar
1576 1576 1 0.0 106.77880495415019 34.16180709984722 3.169118483409924 # Ar
1577 1577 1 0.0 502.7381924794018 43.21045349420268 458.63253582488807 # Ar
1578 1578 1 0.0 25.938946153230777 371.2691990237257 288.19833914955717 # Ar
1579 1579 1 0.0 47.428955907994016 109.61462372473078 44.958431281820296 # Ar
1580 1580 1 0.0 395.2124919946724 147.74833819558984 349.47795094306684 # Ar
1581 1581 1 0.0 258.2567991242061 19.14817970035287 445.6842980793386 # Ar
1582 1582 1 0.0 51.16414193276439 494.6237436564714 224.67692784425816 # Ar
1583 1583 1 0.0 227.1101336874214 199.01059201151145 388.3426932636152 # Ar
1584 1584 1 0.0 318.9841904336811 398.5285661164904 170.45712569053956 # Ar
1585 1585 1 0.0 229.29853817278703 241.5554221493088 201.9615296729515 # Ar
1586 1586 1 0.0 402.5493757012557 386.89860102499165 473.89229704353363 # Ar
1587 1587 1 0.0 272.8257335463831 497.1120838344182 304.7995758177099 # Ar
1588 1588 1 0.0 160.3667197783037 316.89278700721945 0.19266730384361333 # Ar
1589 1589 1 0.0 60.91605433165249 510.36901704211755 193.88252005492848 # Ar
1590 1590 1 0.0 214.5330212733493 334.06270465701294 490.0184380685173 # Ar
1591 1591 1 0.0 90.26828077994969 114.2228277736605 416.5785075997182 # Ar
1592 1592 1 0.0 240.26167220287175 461.6174897277421 189.1663643284005 # Ar
1593 1593 1 0.0 479.7780176717166 216.29359727097656 203.02852268967618 # Ar
1594 1594 1 0.0 37.948732492040115 261.48341474195934 507.94721319078815 # Ar
1595 1595 1 0.0 106.31236781635239 423.715221555973 77.96494149372745 # Ar
1596 1596 1 0.0 68.45440945923586 197.5240569492984 239.65813248805665 # Ar
1597 1597 1 0.0 62.19598105267143 296.6053115913576 451.8157506576821 # Ar
1598 1598 1 0.0 465.52030493831387 168.7509662096736 440.4565839009935 # Ar
1599 1599 1 0.0 453.11751340466066 330.64209320622086 242.2585716513928 # Ar
1600 1600 1 0.0 379.26976896836663 383.2243895758362 467.9782372647903 # Ar
1601 1601 1 0.0 181.1814915724786 4.30079495056034 131.26809245598457 # Ar
1602 1602 1 0.0 65.5958595898846 507.8294057521162 39.498000444285424 # Ar
1603 1603 1 0.0 382.48119560085206 258.59089713290155 139.70484277803172 # Ar
1604 1604 1 0.0 60.79909459319863 413.71556596051437 279.7180122422673 # Ar
1605 1605 1 0.0 484.5653399925824 81.41998637585708 480.4331725982784 # Ar
1606 1606 1 0.0 122.28008214644294 246.3851919896815 332.8610801487155 # Ar
1607 1607 1 0.0 467.42372975846683 11.630118979133698 40.12458559721932 # Ar
1608 1608 1 0.0 157.45155226996323 205.44337803540282 243.18725735598994 # Ar
1609 1609 1 0.0 114.80981280679134 42.80671442592428 288.39487334300287 # Ar
1610 1610 1 0.0 314.98520239710865 471.40706031576144 204.2296332049404 # Ar
1611 1611 1 0.0 213.5021850767955 281.795227365316 383.7480623782115 # Ar
1612 1612 1 0.0 38.12836602478608 261.2811186540085 42.63443167831729 # Ar
1613 1613 1 0.0 355.8359380181688 69.15603679694524 197.84673949301038 # Ar
1614 1614 1 0.0 457.4217916984002 24.067354441634762 150.05030035050163 # Ar
1615 1615 1 0.0 29.777991839771662 345.6765608583 143.0183650913134 # Ar
1616 1616 1 0.0 449.8945770930506 285.252340159343 218.48322858107042 # Ar
1617 1617 1 0.0 456.06569953054543 7.045554902010365 469.4457162708697 # Ar
1618 1618 1 0.0 358.24349796688927 133.61470248408787 73.48435677553773 # Ar
1619 1619 1 0.0 406.41295644920723 279.96028685326877 88.94516833231792 # Ar
1620 1620 1 0.0 462.0043911829046 288.65048503057255 275.7285412014979 # Ar
1621 1621 1 0.0 174.9683533073919 391.0727792082603 407.62242676741084 # Ar
1622 1622 1 0.0 490.7412907928677 388.08024966575283 133.01390958331606 # Ar
1623 1623 1 0.0 122.99848857650545 314.36787821183776 511.2003963685347 # Ar
1624 1624 1 0.0 13.463344250231579 227.23425875116538 65.01289122843346 # Ar
1625 1625 1 0.0 54.23541610413058 53.17920288930223 432.4273036554003 # Ar
1626 1626 1 0.0 336.60964341922056 291.3698977491752 315.25868715366 # Ar
1627 1627 1 0.0 100.59623753748963 209.6570203878732 193.441895730854 # Ar
1628 1628 1 0.0 347.1205519489761 148.8741087037136 59.18008097544098 # Ar
1629 1629 1 0.0 156.64621094240331 434.3653786133328 265.57060880474705 # Ar
1630 1630 1 0.0 87.49865562099355 235.5131752886367 240.04585764526536 # Ar
1631 1631 1 0.0 447.51807553159495 381.5957064665785 324.25837900822285 # Ar
1632 1632 1 0.0 211.01243619075066 385.6779754749895 445.33568019564285 # Ar
1633 1633 1 0.0 379.4327319157164 362.75811052804056 5.17491421648906 # Ar
1634 1634 1 0.0 443.3756178151034 130.23524720405987 129.01426346470643 # Ar
1635 1635 1 0.0 200.11862064172922 352.95626824822443 102.58672176954356 # Ar
1636 1636 1 0.0 6.613688955657586 439.9930257600084 149.1881407139781 # Ar
1637 1637 1 0.0 437.8615467597607 44.765738122255456 500.7942066543876 # Ar
1638 1638 1 0.0 113.50766264958565 61.02424030960656 429.3089654948327 # Ar
1639 1639 1 0.0 257.0468433379317 120.07034834436362 297.4624643435921 # Ar
1640 1640 1 0.0 213.50749141759152 157.32233056936366 509.8410232394584 # Ar
1641 1641 1 0.0 146.24495912102677 147.45253886318324 160.67103192077556 # Ar
1642 1642 1 0.0 332.5888982086238 460.8525368056143 325.8071995517612 # Ar
1643 1643 1 0.0 504.1483388182968 451.8513788090503 33.94916843937606 # Ar
1644 1644 1 0.0 99.37932346386063 77.65553900938237 387.7499683747257 # Ar
1645 1645 1 0.0 498.13118726892117 137.3429215839782 207.539439019556 # Ar
1646 1646 1 0.0 434.6905244029516 243.85792964779503 86.79647528366962 # Ar
1647 1647 1 0.0 237.53214681560115 31.360857338018732 219.5155049693193 # Ar
1648 1648 1 0.0 393.6657383843324 68.79265328128119 60.36052866872514 # Ar
1649 1649 1 0.0 49.71286071678108 506.54206012449737 256.7041143058881 # Ar
1650 1650 1 0.0 158.1436406585802 488.70187749732156 271.6358152240287 # Ar
1651 1651 1 0.0 65.75274204575476 68.99711568242255 460.1555989868468 # Ar
1652 1652 1 0.0 40.96876259576373 173.2028968990498 43.473535536589395 # Ar
1653 1653 1 0.0 22.936090681619966 513.0512412156633 114.05995410545337 # Ar
1654 1654 1 0.0 397.1471025777633 453.3873479741136 356.7864486459865 # Ar
1655 1655 1 0.0 181.53718501136194 151.03267522932174 433.63606343006205 # Ar
1656 1656 1 0.0 303.9836094225969 162.60852869307408 227.63045954277462 # Ar
1657 1657 1 0.0 83.27282767746134 97.02544404038329 46.641964771931455 # Ar
1658 1658 1 0.0 112.68125767576132 113.80661808380052 42.9973988069687 # Ar
1659 1659 1 0.0 298.7206164631265 98.33801067168403 333.20633760575424 # Ar
1660 1660 1 0.0 468.3961089844495 420.51989818242254 14.782264050474861 # Ar
1661 1661 1 0.0 444.61677945291694 59.19324003044694 381.71997137712395 # Ar
1662 1662 1 0.0 17.781156367608016 277.0973874095191 104.28632745890198 # Ar
1663 1663 1 0.0 382.033526640217 55.489394132192416 178.3358604869297 # Ar
1664 1664 1 0.0 345.52206652051717 198.82396719028608 140.5665517964056 # Ar
1665 1665 1 0.0 414.13126695499756 71.73496484582482 388.0988433893942 # Ar
1666 1666 1 0.0 463.5638501379505 368.0818226164068 296.61408152268183 # Ar
1667 1667 1 0.0 401.9384968810978 227.14765604791916 487.0312709169816 # Ar
1668 1668 1 0.0 424.68106948483825 204.66203264514388 122.28674120013987 # Ar
1669 1669 1 0.0 281.6602643886481 104.08801370172655 479.9681395758264 # Ar
1670 1670 1 0.0 254.17065078701725 514.1687489815719 15.249623918053134 # Ar
1671 1671 1 0.0 24.26532080894775 505.86334248227 505.93800899183367 # Ar
1672 1672 1 0.0 131.7363514177429 16.900974672045713 372.868135614618 # Ar
1673 1673 1 0.0 418.4903228067562 497.45739035773516 335.6511935849831 # Ar
1674 1674 1 0.0 238.41627893173344 106.49694942962527 274.65773990687984 # Ar
1675 1675 1 0.0 34.99108705898946 10.089504155667457 350.1354442253702 # Ar
1676 1676 1 0.0 106.34729865063818 236.51379307168597 502.5638089172628 # Ar
1677 1677 1 0.0 209.2783455418613 63.93119477535647 171.95594880529563 # Ar
1678 1678 1 0.0 199.13845016485394 386.2292471193867 264.20358626541775 # Ar
1679 1679 1 0.0 203.23378004204872 158.52094723091153 95.24442845710932 # Ar
1680 1680 1 0.0 188.0656651709115 459.92367043181304 107.19526939045 # Ar
1681 1681 1 0.0 502.13276187109483 227.6375404906724 202.69322284128899 # Ar
1682 1682 1 0.0 313.23752005607423 331.06908270580425 461.426637467126 # Ar
1683 1683 1 0.0 401.416124786905 197.70727663431563 330.1866342907213 # Ar
1684 1684 1 0.0 396.35834398511685 220.94477832850018 192.1679115929189 # Ar
1685 1685 1 0.0 404.27780714375604 320.0416567723653 208.77472174716505 # Ar
1686 1686 1 0.0 224.20891475703664 439.1010353930765 247.21322988199705 # Ar
1687 1687 1 0.0 205.1085756491608 167.0055446585744 405.02843851184815 # Ar
1688 1688 1 0.0 458.1450158371534 389.55986091683735 50.76658292370105 # Ar
1689 1689 1 0.0 121.27459351069132 83.79748718266337 182.8213535582732 # Ar
1690 1690 1 0.0 74.19745127704188 17.805319607783957 279.2862685906894 # Ar
1691 1691 1 0.0 392.2048971823691 391.05379542633943 219.49525819817512 # Ar
1692 1692 1 0.0 231.78275021324055 510.86331511307657 73.16588179214256 # Ar
1693 1693 1 0.0 452.3936637095034 510.2087233309929 168.86733994313929 # Ar
1694 1694 1 0.0 194.03327105257162 326.4898265292957 279.95563888417183 # Ar
1695 1695 1 0.0 33.016556457395225 262.46834751410756 140.3900074056516 # Ar
1696 1696 1 0.0 273.1208759985721 390.2771028299078 322.99303302058775 # Ar
1697 1697 1 0.0 293.3222004228655 66.74454275751627 280.7982682706816 # Ar
1698 1698 1 0.0 342.8143388208039 454.6820459703854 249.5635535332957 # Ar
1699 1699 1 0.0 49.07618067355325 42.511411098422826 110.54120278753888 # Ar
1700 1700 1 0.0 180.4136056163117 105.8769319778039 377.8194709936039 # Ar
1701 1701 1 0.0 498.41793248021366 4.9269174391368855 479.5797979434399 # Ar
1702 1702 1 0.0 461.95988005815786 293.1566545127955 92.10029965768088 # Ar
1703 1703 1 0.0 299.2012337379943 473.87874040372014 290.6082008774644 # Ar
1704 1704 1 0.0 420.637512043611 385.7977233464376 111.9356296781122 # Ar
1705 1705 1 0.0 28.68716154129207 287.6813658380666 122.89317160372714 # Ar
1706 1706 1 0.0 134.90710390794547 439.6058254453902 499.27178482294386 # Ar
1707 1707 1 0.0 449.3397236331634 273.83542077221114 413.26433521263476 # Ar
1708 1708 1 0.0 481.7947138650338 271.45513539985956 360.4732355216867 # Ar
1709 1709 1 0.0 325.5921377922948 425.1018736411753 29.626844148382347 # Ar
1710 1710 1 0.0 22.662786874497414 321.59498437890346 318.3736438480109 # Ar
1711 1711 1 0.0 361.0541992155455 376.1419782011784 70.55799609449247 # Ar
1712 1712 1 0.0 119.02033501261815 3.892916209349734 274.24251473147956 # Ar
1713 1713 1 0.0 301.60659488702476 265.0056785836098 79.28014831171713 # Ar
1714 1714 1 0.0 389.3054514664796 51.37104996031708 423.9910688435219 # Ar
1715 1715 1 0.0 67.58646771664917 470.7194493456471 222.07760119056937 # Ar
1716 1716 1 0.0 502.2547469447509 138.33844529039877 206.36156651171353 # Ar
1717 1717 1 0.0 384.2984425873001 364.1643110050025 147.6509537718841 # Ar
1718 1718 1 0.0 275.52352266635944 46.848834577018245 183.7202244781549 # Ar
1719 1719 1 0.0 79.24910800778295 165.08083372696666 217.04789665755305 # Ar
1720 1720 1 0.0 175.07341803796155 245.3113881054907 5.848801412158979 # Ar
1721 1721 1 0.0 223.61880682027825 179.35058741368823 148.63348057840716 # Ar
1722 1722 1 0.0 235.2154921929727 367.8123758278155 41.00869964015917 # Ar
1723 1723 1 0.0 225.57590059884348 310.4392482979555 323.95146232425736 # Ar
1724 1724 1 0.0 379.52324039465475 436.8035328593842 234.44158038637548 # Ar
1725 1725 1 0.0 302.1562577370379 281.1608605707197 117.88746575158837 # Ar
1726 1726 1 0.0 484.89588751850204 512.4034935348642 128.91029440251606 # Ar
1727 1727 1 0.0 57.747945503385345 52.40542643833012 210.69948834729354 # Ar
1728 1728 1 0.0 62.66696083864471 142.3254800314445 60.5058393967837 # Ar
1729 1729 1 0.0 231.0925863515642 15.37816390273885 204.00333277729933 # Ar
1730 1730 1 0.0 54.1179466593508 484.38543058420413 409.60387235954494 # Ar
1731 1731 1 0.0 366.37514538588323 271.5217207137692 382.2234916166485 # Ar
1732 1732 1 0.0 34.45906615784657 486.6407976621504 500.65011130384136 # Ar
1733 1733 1 0.0 142.41403781788355 91.21827596270475 53.007754809567885 # Ar
1734 1734 1 0.0 137.73810719745313 399.30691997653946 57.32765181308307 # Ar
1735 1735 1 0.0 50.912368794436695 163.76207619192127 293.3161568434456 # Ar
1736 1736 1 0.0 132.3387644656236 478.6037342992999 261.44816889645955 # Ar
1737 1737 1 0.0 141.88215895223632 103.11969075182046 242.7334241190227 # Ar
1738 1738 1 0.0 414.39799323843243 72.95966695128391 328.3918209001302 # Ar
1739 1739 1 0.0 377.88635084200973 41.68784835278682 229.40888635875405 # Ar
1740 1740 1 0.0 432.0179393715682 305.2577971891524 174.25294857549426 # Ar
1741 1741 1 0.0 191.59113616236294 385.57885121770516 255.79109412551395 # Ar
1742 1742 1 0.0 13.52660005167262 468.2942275996408 9.57575268163885 # Ar
1743 1743 1 0.0 409.9958417044386 363.65149816456744 247.47938889728727 # Ar
1744 1744 1 0.0 216.78558231838298 113.36705538086981 148.8082794236842 # Ar
1745 1745 1 0.0 123.71545877865054 223.13234096847202 271.11257571886955 # Ar
1746 1746 1 0.0 295.36004252871044 468.94304490059045 42.81666947563602 # Ar
1747 1747 1 0.0 494.4230561300118 222.02687626527384 405.8674186240913 # Ar
1748 1748 1 0.0 130.8838482537501 177.23627492456245 31.03716730069661 # Ar
1749 1749 1 0.0 498.55270948296726 203.89900441411737 4.136953147428607 # Ar
1750 1750 1 0.0 180.58588841384355 122.2851211396166 118.01961805840666 # Ar
1751 1751 1 0.0 231.66548644317854 94.65487905792456 145.3635248143942 # Ar
1752 1752 1 0.0 161.27740239106686 204.0618158750671 391.47553765409856 # Ar
1753 1753 1 0.0 264.0704949424444 304.3920063171151 13.066471560426534 # Ar
1754 1754 1 0.0 276.24241716402236 54.18414402341566 79.96666693258724 # Ar
1755 1755 1 0.0 490.934910464832 447.7885915855014 173.59673941901005 # Ar
1756 1756 1 0.0 386.09545031953525 57.3014154277738 94.03334408776661 # Ar
1757 1757 1 0.0 12.386125376520198 17.352651268293275 221.24803018953924 # Ar
1758 1758 1 0.0 394.2309486403855 191.94293594266634 348.8688918648347 # Ar
1759 1759 1 0.0 355.4866633143147 102.84708422719014 243.5616833307911 # Ar
1760 1760 1 0.0 286.40835810803696 66.45890089895457 446.66191451341433 # Ar
1761 1761 1 0.0 133.97344912332474 463.6593677731262 308.0448675866183 # Ar
1762 1762 1 0.0 58.76670947943714 433.7616716552602 434.74832398177534 # Ar
1763 1763 1 0.0 435.8091000632802 26.27709510082172 504.52382730242635 # Ar
1764 1764 1 0.0 0.5281620520851518 8.271609485106012 196.5884521576127 # Ar
1765 1765 1 0.0 256.483664927774 446.2715031542615 1.3837009121704111 # Ar
1766 1766 1 0.0 196.60098327772033 426.02576724835643 461.5163587169729 # Ar
1767 1767 1 0.0 68.92802466173171 181.592326197555 2.7587476260318042 # Ar
1768 1768 1 0.0 466.7980378694624 136.0616348990447 31.310575410919313 # Ar
1769 1769 1 0.0 42.460635618797504 422.1353321806052 12.096209404306292 # Ar
1770 1770 1 0.0 71.16607009697054 7.445282424367271 408.5099817961577 # Ar
1771 1771 1 0.0 388.2304474178233 68.1127261374125 203.75706530008304 # Ar
1772 1772 1 0.0 146.5223411233363 482.37079076818554 361.3237502688334 # Ar
1773 1773 1 0.0 80.69433444783941 76.5438262653756 156.9049666825867 # Ar
1774 1774 1 0.0 152.18420804459564 267.77192231750234 376.83275523375676 # Ar
1775 1775 1 0.0 197.21168786742564 95.51856437043871 363.3415052748667 # Ar
1776 1776 1 0.0 242.5572726906674 3.50339311859844 11.39839905619754 # Ar
1777 1777 1 0.0 313.2171920972285 255.3256927576975 6.325496319550932 # Ar
1778 1778 1 0.0 313.37908863631884 277.388609702366 232.29657342500417 # Ar
1779 1779 1 0.0 73.7937159313119 130.2826738922063 450.08516907963264 # Ar
1780 1780 1 0.0 369.33794024234845 246.59213736441484 209.4886496823576 # Ar
1781 1781 1 0.0 306.7616497939538 161.60376989250054 139.44801962771209 # Ar
1782 1782 1 0.0 403.7207320487884 499.05004996712114 454.138395548349 # Ar
1783 1783 1 0.0 30.82220957372316 162.90769423343116 112.4617677683179 # Ar
1784 1784 1 0.0 375.0969780985743 215.90929418763022 336.1960036803112 # Ar
1785 1785 1 0.0 486.64146122139897 441.723278078207 508.0995041402459 # Ar
1786 1786 1 0.0 54.057177843026636 437.4544397927508 393.1189189260351 # Ar
1787 1787 1 0.0 280.8171316132558 349.11474293696614 357.61246794888797 # Ar
1788 1788 1 0.0 474.87838411701813 422.2385372220942 87.31782387930801 # Ar
1789 1789 1 0.0 71.257996971016 85.75593951093643 510.9782019584032 # Ar
1790 1790 1 0.0 352.44004108025365 295.13897352866985 423.88005655867914 # Ar
1791 1791 1 0.0 381.33401521575837 455.3839566672339 218.3328107580126 # Ar
1792 1792 1 0.0 166.83423253092815 300.3101628132837 429.01202289689564 # Ar
1793 1793 1 0.0 376.4755220291032 491.66356312387404 272.9582595316448 # Ar
1794 1794 1 0.0 236.1864436593928 455.64572320189575 109.89908045461279 # Ar
1795 1795 1 0.0 216.1611804896343 130.44369341023446 38.62178171519418 # Ar
1796 1796 1 0.0 397.89923787054926 91.63997881445763 27.307009676917282 # Ar
1797 1797 1 0.0 7.4235867320665125 245.24956531023668 196.43285434480262 # Ar
1798 1798 1 0.0 395.2745164863025 487.8552717232135 267.4000015096365 # Ar
1799 1799 1 0.0 372.6938042170774 61.437717001671146 32.272969260969504 # Ar
1800 1800 1 0.0 123.80977782342771 13.926174792869455 369.18809649059415 # Ar
1801 1801 1 0.0 453.95729432665905 240.47278865928706 442.24594034662323 # Ar
1802 1802 1 0.0 37.33754064797725 56.57979154700355 304.9695883948498 # Ar
1803 1803 1 0.0 494.56362317687245 219.88698197433806 251.5095653273732 # Ar
1804 1804 1 0.0 301.2034166594469 131.63421176164778 307.1487576820774 # Ar
1805 1805 1 0.0 296.2985221967149 48.114605112237584 501.26345214447963 # Ar
1806 1806 1 0.0 60.36584255126754 231.87279630174385 440.27202127412346 # Ar
1807 1807 1 0.0 460.9069350725632 329.65753055928093 191.2326876775971 # Ar
1808 1808 1 0.0 346.37588549923515 239.6728079950859 18.150598806776266 # Ar
1809 1809 1 0.0 74.52960042247763 176.45700285197768 145.2466502094056 # Ar
1810 1810 1 0.0 101.74626156363306 415.6857281283262 248.52038194768693 # Ar
1811 1811 1 0.0 282.2484482689121 318.78313953400993 10.687037134394437 # Ar
1812 1812 1 0.0 232.02221440691434 439.2527985293134 188.84480714662152 # Ar
1813 1813 1 0.0 272.2801449674152 63.510729471513734 338.58200413524304 # Ar
1814 1814 1 0.0 25.971132981534275 208.5549022922792 315.83552845717213 # Ar
1815 1815 1 0.0 287.5487594971143 247.15016846983394 369.62700899506774 # Ar
1816 1816 1 0.0 39.034007949456516 394.00086585438584 354.18500873218125 # Ar
1817 1817 1 0.0 264.37554930681074 392.88106636687576 389.9020412334035 # Ar
1818 1818 1 0.0 93.00327900807409 39.61965974622309 319.1828309238989 # Ar
1819 1819 1 0.0 120.03162127762165 389.6489970513321 60.993289266693466 # Ar
1820 1820 1 0.0 402.0856823894333 212.32553504849471 490.56203097995393 # Ar
1821 1821 1 0.0 307.7742857105767 208.24660245521548 66.91158368618251 # Ar
1822 1822 1 0.0 51.32264258781824 125.5308283135979 60.88783127390507 # Ar
1823 1823 1 0.0 503.28568741132165 377.1821863922489 303.9272045260341 # Ar
1824 1824 1 0.0 141.33669407427905 227.29614196157726 38.56527886440744 # Ar
1825 1825 1 0.0 193.66454933869787 335.16465081961724 7.928909522372296 # Ar
1826 1826 1 0.0 140.00401004243207 322.11079788759076 49.725506018486634 # Ar
1827 1827 1 0.0 88.40094321748923 167.74723001364595 431.41936760616574 # Ar
1828 1828 1 0.0 35.47836773837613 122.55976434345126 385.05160341620405 # Ar
1829 1829 1 0.0 232.27636424524505 323.876177904594 24.34896878832586 # Ar
1830 1830 1 0.0 8.622934753293698 64.19821812063557 393.80925839275824 # Ar
1831 1831 1 0.0 328.350703671885 295.85414658957154 137.11725702193138 # Ar
1832 1832 1 0.0 290.8298547705131 122.8077909080279 505.44231538925334 # Ar
1833 1833 1 0.0 162.23318162231854 143.28880577671933 377.68609080486004 # Ar
1834 1834 1 0.0 240.48143903830706 246.32927456870888 258.91581919264917 # Ar
1835 1835 1 0.0 383.1863729169122 342.38957193860045 247.81486782666022 # Ar
1836 1836 1 0.0 52.11772022888952 133.29035235524492 206.40806759160762 # Ar
1837 1837 1 0.0 368.8992800217664 101.85276821793677 364.71271582179446 # Ar
1838 1838 1 0.0 113.44197977184126 421.13761941933524 80.37840451607833 # Ar
1839 1839 1 0.0 459.7013958182842 394.8980011541874 370.6747967959684 # Ar
1840 1840 1 0.0 40.012038115110656 62.73203643541375 237.34561438191363 # Ar
1841 1841 1 0.0 111.90232445089963 324.83066414394875 77.69364989544692 # Ar
1842 1842 1 0.0 61.59220004634432 176.89207381630018 501.26946705937775 # Ar
1843 1843 1 0.0 114.88538618879166 301.30882644960263 317.22898453587646 # Ar
1844 1844 1 0.0 195.63767669083296 460.420841155346 180.92212135479332 # Ar
1845 1845 1 0.0 134.29633553706083 240.1525409978347 400.2388830697331 # Ar
1846 1846 1 0.0 273.0736001486515 440.68781232057387 498.8666581772896 # Ar
1847 1847 1 0.0 144.73330271187135 155.87971493971008 379.5587901171888 # Ar
1848 1848 1 0.0 171.91175831430283 466.9661123974368 171.81032102980268 # Ar
1849 1849 1 0.0 311.31509770040725 434.94361318334444 51.58823005087135 # Ar
1850 1850 1 0.0 445.2096269788624 364.9853733345416 181.33750262402268 # Ar
1851 1851 1 0.0 505.7422413863114 316.5423078309035 206.37049441055868 # Ar
1852 1852 1 0.0 157.22437189828364 45.02884125628704 345.26202366083743 # Ar
1853 1853 1 0.0 493.4726803714411 302.15948812824155 503.61547250693826 # Ar
1854 1854 1 0.0 370.2323270217653 230.22566147702813 352.1474181075028 # Ar
1855 1855 1 0.0 286.4911260574643 462.1055562113406 215.09387093648306 # Ar
1856 1856 1 0.0 68.10651384556107 463.6074706316205 24.050492399264897 # Ar
1857 1857 1 0.0 89.27512621383993 457.0741254588963 331.4323529859124 # Ar
1858 1858 1 0.0 244.70822032121575 322.94830622564865 343.83588306351015 # Ar
1859 1859 1 0.0 267.7852625535667 486.9653173495446 458.0560315277085 # Ar
1860 1860 1 0.0 89.9850347385173 88.36433396963253 447.272156122404 # Ar
1861 1861 1 0.0 124.26054671715653 431.71889536101963 350.53955059678384 # Ar
1862 1862 1 0.0 494.0032786979645 125.04057647288529 157.45907816771185 # Ar
1863 1863 1 0.0 398.68938925219396 356.8869077119355 465.87881118970427 # Ar
1864 1864 1 0.0 217.9771786383995 46.93546785097336 447.91488183043606 # Ar
1865 1865 1 0.0 69.68410194951277 465.8945280072564 88.01289058344203 # Ar
1866 1866 1 0.0 201.35512172938246 215.97272085379032 452.28779508082886 # Ar
1867 1867 1 0.0 90.31797927041767 288.29865622634406 157.7763769132594 # Ar
1868 1868 1 0.0 15.153082304186066 43.28928923835506 470.8648581478669 # Ar
1869 1869 1 0.0 469.4478582651759 474.21948960177923 70.6181233192927 # Ar
1870 1870 1 0.0 429.2559270071511 312.6528552500531 144.33879348872824 # Ar
1871 1871 1 0.0 266.4387080762546 388.59895414417207 431.71231792660444 # Ar
1872 1872 1 0.0 49.3663760651202 392.2637199360986 249.34779027049635 # Ar
1873 1873 1 0.0 498.70891972596985 482.6103707625297 158.41890292111322 # Ar
1874 1874 1 0.0 334.8011726698785 136.50763778846422 224.9247816830479 # Ar
1875 1875 1 0.0 76.3635563943965 212.64345220837504 386.45933477518633 # Ar
1876 1876 1 0.0 85.45282848433162 75.75633598999669 296.37154590505094 # Ar
1877 1877 1 0.0 23.964934426898623 370.5490929981085 64.92191273678046 # Ar
1878 1878 1 0.0 91.87925688910245 148.07542316976318 416.56781929747217 # Ar
1879 1879 1 0.0 283.6622369543356 410.12401373523807 357.45999588088563 # Ar
1880 1880 1 0.0 382.9808861871631 5.13675011236575 456.5808247546502 # Ar
1881 1881 1 0.0 156.13515483073934 41.84642476104783 77.22609654581181 # Ar
1882 1882 1 0.0 287.0916053448815 460.20291099928636 496.8495654549989 # Ar
1883 1883 1 0.0 105.65148890775075 16.72206122770539 380.2137342650648 # Ar
1884 1884 1 0.0 480.8733977626974 33.70672099951729 462.58814236404726 # Ar
1885 1885 1 0.0 3.616441033568886 261.751025373177 148.91162675597909 # Ar
1886 1886 1 0.0 361.5389571559159 258.2010304465493 434.4129027053211 # Ar
1887 1887 1 0.0 290.00329023736214 19.803300113525445 197.82834910920877 # Ar
1888 1888 1 0.0 213.23482760256852 232.5562868945894 56.6895165667927 # Ar
1889 1889 1 0.0 147.79116254630833 394.1797887039707 80.37032641964558 # Ar
1890 1890 1 0.0 343.00454433628835 160.71846328722393 235.8737513134458 # Ar
1891 1891 1 0.0 361.73431441013713 319.14080790022354 377.05847278926746 # Ar
1892 1892 1 0.0 408.65718982056285 474.40933826079436 353.40191587866235 # Ar
1893 1893 1 0.0 13.008681476197685 502.7475837072715 124.61187498458305 # Ar
1894 1894 1 0.0 411.3875146610887 384.60328492178877 106.45620826237402 # Ar
1895 1895 1 0.0 239.8690492214817 329.2078576793735 340.1293746066678 # Ar
1896 1896 1 0.0 441.5220263474955 199.60271246620175 135.3527075748303 # Ar
1897 1897 1 0.0 73.8792629658173 230.47621057860832 465.37420345308215 # Ar
1898 1898 1 0.0 21.98698644320542 277.5133304118668 509.43000599426256 # Ar
1899 1899 1 0.0 267.55421693462455 50.49840360945991 230.42288874254967 # Ar
1900 1900 1 0.0 53.20554918515119 435.4466744407551 192.95016174704986 # Ar
1901 1901 1 0.0 33.70345083690917 421.0356740976754 38.32858831335009 # Ar
1902 1902 1 0.0 374.1110710673748 66.89429455968713 225.11211761290548 # Ar
1903 1903 1 0.0 457.44473346568105 418.633297372486 362.11849463832215 # Ar
1904 1904 1 0.0 76.96490560316602 422.6570739582348 476.78533188887116 # Ar
1905 1905 1 0.0 40.84522302889467 496.2846980024808 4.433375555575713 # Ar
1906 1906 1 0.0 474.45710718671234 367.0668954810645 288.7049703434304 # Ar
1907 1907 1 0.0 153.69783479268688 397.3012552359008 27.063011722516766 # Ar
1908 1908 1 0.0 441.48072120287765 380.66499570458103 182.33017208364123 # Ar
1909 1909 1 0.0 174.91674975907313 216.0307212628479 218.20307584794458 # Ar
1910 1910 1 0.0 154.6018262880351 463.26284398281473 460.94162312568824 # Ar
1911 1911 1 0.0 305.84356459253485 441.00263189969155 17.4593079481213 # Ar
1912 1912 1 0.0 501.3776017374418 153.81068886549298 297.52071838148106 # Ar
1913 1913 1 0.0 357.820194920675 49.66560005746901 164.27300449303166 # Ar
1914 1914 1 0.0 508.4497279523797 134.7540480882245 156.37790539269176 # Ar
1915 1915 1 0.0 402.2759929607877 144.3498149276289 7.5208077955824715 # Ar
1916 1916 1 0.0 363.09804066028363 303.0633865402492 162.98562728515796 # Ar
1917 1917 1 0.0 277.51216705072386 128.52281845705588 136.34805942070807 # Ar
1918 1918 1 0.0 67.78904675255633 210.85998217089102 328.7698501858592 # Ar
1919 1919 1 0.0 39.64115959281697 451.7044984557386 239.77351367487208 # Ar
1920 1920 1 0.0 376.82074160526435 385.74540801277556 395.3413253797833 # Ar
1921 1921 1 0.0 422.86583179428214 119.0524426812064 215.45577964083296 # Ar
1922 1922 1 0.0 16.28513504734831 134.2996444483098 193.25655805399253 # Ar
1923 1923 1 0.0 18.505370094096172 510.3324734419006 433.5524913114384 # Ar
1924 1924 1 0.0 324.5833987861434 140.02888590294103 299.01537463695416 # Ar
1925 1925 1 0.0 318.0634915662994 162.52819426833747 161.3199871613226 # Ar
1926 1926 1 0.0 172.81092910737402 486.26577968560844 505.66283241582414 # Ar
1927 1927 1 0.0 139.31848913165524 167.5025056304813 274.36937021623055 # Ar
1928 1928 1 0.0 380.7078433459834 255.63792386585786 314.20864419792815 # Ar
1929 1929 1 0.0 284.4407373992492 342.99925013449433 491.00832480718424 # Ar
1930 1930 1 0.0 95.08539128880022 488.2831111762237 391.7317915132957 # Ar
1931 1931 1 0.0 143.22124019125835 81.56331168475339 156.28475926688168 # Ar
1932 1932 1 0.0 321.9133617253956 177.1816045179263 32.39418541431247 # Ar
1933 1933 1 0.0 93.70155898786086 237.87675896536663 89.22037990107535 # Ar
1934 1934 1 0.0 437.2516801173315 424.3421154894669 91.470513618962 # Ar
1935 1935 1 0.0 486.9809428511698 288.73910821251184 0.4122258986082618 # Ar
1936 1936 1 0.0 54.760135878524046 267.73942402912184 271.520434805476 # Ar
1937 1937 1 0.0 417.2878563085309 20.00213657711013 301.3710078479103 # Ar
1938 1938 1 0.0 33.072359688391344 309.233338898885 2.879691989539984 # Ar
1939 1939 1 0.0 243.9714327562965 120.97862382593866 400.6128112796403 # Ar
1940 1940 1 0.0 215.0511622401221 24.96134711641702 184.11183752810342 # Ar
1941 1941 1 0.0 424.11666358101326 103.26364824332738 335.7858244700579 # Ar
1942 1942 1 0.0 20.566281649607163 35.45597026814838 113.67941823505731 # Ar
1943 1943 1 0.0 473.95732330699036 68.18495514894035 174.14397270034436 # Ar
1944 1944 1 0.0 219.38490481012644 6.696350023364667 437.20526430912275 # Ar
1945 1945 1 0.0 333.18220235794803 258.4745300031261 328.7661471602011 # Ar
1946 1946 1 0.0 227.45818478168837 420.03931323189346 394.72070265039497 # Ar
1947 1947 1 0.0 79.87024550512557 514.4331073816102 223.93949023213582 # Ar
1948 1948 1 0.0 321.27718268100875 395.46699450285746 14.119707457336567 # Ar
1949 1949 1 0.0 274.5804034709558 204.39886116048896 298.0866772464207 # Ar
1950 1950 1 0.0 131.83689135499756 444.0907031961366 296.9504910503202 # Ar
1951 1951 1 0.0 479.0940272308327 416.42556713016745 418.1808476951058 # Ar
1952 1952 1 0.0 377.5244771514362 123.94937487690822 253.90971215806076 # Ar
1953 1953 1 0.0 319.1450471257866 31.56717719392346 113.26249071868479 # Ar
1954 1954 1 0.0 212.95426636718108 217.05221352950693 258.2601868444004 # Ar
1955 1955 1 0.0 255.52953149178177 314.1958148764879 511.65741853032364 # Ar
1956 1956 1 0.0 286.6308047599759 170.94966615003162 105.86144049852463 # Ar
1957 1957 1 0.0 325.22099249240904 485.00119994228527 106.86338039018823 # Ar
1958 1958 1 0.0 481.15492596708754 228.79095807418489 408.3073233803946 # Ar
1959 1959 1 0.0 219.21514720961665 410.16147423721117 391.50998832786587 # Ar
1960 1960 1 0.0 276.6671408914909 442.8723126637031 171.64716389984056 # Ar
1961 1961 1 0.0 109.97547341912185 345.6464607351646 167.0038860679726 # Ar
1962 1962 1 0.0 236.628185827064 304.23190924510664 229.80565888165896 # Ar
1963 1963 1 0.0 105.2930774910155 455.39285316930875 314.7946975625175 # Ar
1964 1964 1 0.0 221.19030605966364 104.97340482815184 54.37282466055302 # Ar
1965 1965 1 0.0 347.7777242759338 90.37132794689016 151.79358747971926 # Ar
1966 1966 1 0.0 325.1757848546912 263.93386138920323 171.88127343528205 # Ar
1967 1967 1 0.0 336.4638045070014 482.90765597554696 342.98185923132957 # Ar
1968 1968 1 0.0 413.068140527818 223.00460400285095 38.64891236234678 # Ar
1969 1969 1 0.0 350.8599309148464 187.597810990591 407.2971354206228 # Ar
1970 1970 1 0.0 511.4968316048808 179.9813818972754 363.23356606691567 # Ar
1971 1971 1 0.0 412.21754774438 507.8556628298629 479.2377981736308 # Ar
1972 1972 1 0.0 374.5777091166379 405.2826783869612 66.73375667823385 # Ar
1973 1973 1 0.0 224.82006229502443 275.3770384004727 186.97619495774512 # Ar
1974 1974 1 0.0 492.2078062893248 257.18467124721883 13.673762509304638 # Ar
1975 1975 1 0.0 319.59172808465416 151.72662381819853 265.7517164563215 # Ar
1976 1976 1 0.0 502.53782372688204 415.9802767878071 480.89419511830505 # Ar
1977 1977 1 0.0 510.82492151267047 489.38609028658243 452.74875691541314 # Ar
1978 1978 1 0.0 195.33960139625702 299.7557158442171 332.05692613531096 # Ar
1979 1979 1 0.0 303.4384780020001 27.140112793724224 59.744526795211605 # Ar
1980 1980 1 0.0 268.02468459527375 100.2012045842951 245.89012801929417 # Ar
1981 1981 1 0.0 216.95939184661367 403.81748561522113 130.8787238882342 # Ar
1982 1982 1 0.0 34.06085527065772 462.16750258398423 112.30434417233073 # Ar
1983 1983 1 0.0 12.230980868116779 483.8119239465445 24.01035440926526 # Ar
1984 1984 1 0.0 200.72230433943312 237.78054480020418 333.7253027093618 # Ar
1985 1985 1 0.0 212.18386512043472 201.6660723219708 4.92684250617997 # Ar
1986 1986 1 0.0 275.9212014217455 501.39567620795634 284.8649461066541 # Ar
1987 1987 1 0.0 483.6479131185972 45.1639162790087 14.871491199113779 # Ar
1988 1988 1 0.0 199.32632898422827 85.48094691677453 336.73232881463053 # Ar
1989 1989 1 0.0 392.7778530751646 178.0127522322049 183.90759917330354 # Ar
1990 1990 1 0.0 233.13587657495432 173.96781955446045 58.29586414065322 # Ar
1991 1991 1 0.0 316.8758690198458 50.45041817310126 115.83996936665504 # Ar
1992 1992 1 0.0 426.55819371453515 178.10288513761068 81.0534248503688 # Ar
1993 1993 1 0.0 248.66792766688803 506.74106138786277 323.2749922927759 # Ar
1994 1994 1 0.0 175.78116786255956 509.20755244074854 44.672331659528666 # Ar
1995 1995 1 0.0 466.7943821069207 401.4029748131267 391.62744289124464 # Ar
1996 1996 1 0.0 440.47161025472224 301.72203548322636 365.6306798844015 # Ar
1997 1997 1 0.0 351.8420788667393 510.71182628645823 307.84859707872715 # Ar
1998 1998 1 0.0 221.68931536347839 408.20596888253095 401.4278240999162 # Ar
1999 1999 1 0.0 323.9172625907546 283.1357822505507 390.64967475337863 # Ar
2000 2000 1 0.0 73.97899854218555 71.61226023327383 274.202248299986 # Ar
