LAMMPS data file -- atom_style full -- generated by chemfiles
150 atoms
0 bonds
0 angles
0 dihedrals
0 impropers
2 atom types
0 bond types
0 angle types
0 dihedral types
0 improper types
0.00000000 1393.14072 xlo xhi
0.00000000 1393.14072 ylo yhi
0.00000000 1393.14072 zlo zhi

# Pair Coeffs
# 1 Ar
# 2 Ar+

Masses

1 39.948 # Ar
2 39.948 # Ar+

Atoms # full

1 1 1 0.0 265.78732644560563 456.7042143829242 664.4547706571127 # Ar
2 2 1 0.0 254.3806017152123 574.5668675421027 834.5280336611523 # Ar
3 3 1 0.0 1087.4462850422365 609.916475831749 145.6019732561248 # Ar
4 4 1 0.0 1317.3456812262898 479.6979191757779 471.6955654227797 # Ar
5 5 1 0.0 806.6562698960188 804.9461478823235 681.9926318741874 # Ar
6 6 1 0.0 590.5167031057802 914.2762273119657 938.0064919917573 # Ar
7 7 1 0.0 502.55151460744435 242.3456713744151 886.539073322561 # Ar
8 8 1 0.0 20.682116624651414 1050.2380888456994 382.0243254736915 # Ar
9 9 1 0.0 886.1181106317465 445.01303862443416 546.1522379478359 # Ar
10 10 1 0.0 143.29220807332285 556.274947227081 216.15442064694884 # Ar
11 11 1 0.0 1288.4798311192264 843.3708897225558 584.0618259430306 # Ar
12 12 1 0.0 300.40390210385027 718.2578778992338 575.2838560787283 # Ar
13 13 1 0.0 308.3966601133041 948.4498507452188 306.2483651339962 # Ar
14 14 1 0.0 1300.7564894823104 995.5227024405316 876.083084191388 # Ar
15 15 1 0.0 1141.056131896719 451.16860929763607 30.145883006770276 # Ar
16 16 1 0.0 1367.4907268871136 875.1319169098499 386.6581303535448 # Ar
17 17 1 0.0 523.2637859245411 244.17571728686684 1000.1715845218159 # Ar
18 18 1 0.0 1116.3809260371256 47.17709332086111 257.36376476998424 # Ar
19 19 1 0.0 1245.320756314602 162.52761251545869 201.09300008993372 # Ar
20 20 1 0.0 653.4951436694981 1026.8227839107383 210.64091760598 # Ar
21 21 1 0.0 888.7239341218691 145.4289667418601 371.2817825055918 # Ar
22 22 1 0.0 714.9541427881132 39.70821619100955 783.8109364732218 # Ar
23 23 1 0.0 575.1831376755779 1187.4615155806694 1069.393255725607 # Ar
24 24 1 0.0 1111.1717182057298 634.1350653064994 986.7191878753696 # Ar
25 25 1 0.0 410.4078978255693 601.6857197524185 323.12752398347715 # Ar
26 26 1 0.0 237.4235745692367 470.2826852768831 803.3528536280392 # Ar
27 27 1 0.0 481.76892425129205 785.5498844150666 580.0769870186465 # Ar
28 28 1 0.0 1259.0682659577697 775.1475247415569 1260.9256606978163 # Ar
29 29 1 0.0 201.40471074646396 934.3265944856801 122.17081898180973 # Ar
30 30 1 0.0 642.5906336651211 467.37361747905356 249.17751887546666 # Ar
31 31 1 0.0 1381.646500617937 1103.2510709145472 971.609309865498 # Ar
32 32 1 0.0 228.45120145799044 1001.433377039415 812.5133541075866 # Ar
33 33 1 0.0 1022.9410475000532 757.8013074089381 454.938101437528 # Ar
34 34 1 0.0 1374.3477395388848 761.652745935565 1216.9488474235793 # Ar
35 35 1 0.0 523.7036678127065 603.7908556898709 342.2653208170092 # Ar
36 36 1 0.0 961.3504998177187 938.5786610431663 725.9031570534657 # Ar
37 37 1 0.0 546.7798957923012 1234.5437374066396 217.1597469333992 # Ar
38 38 1 0.0 42.421607428275074 1022.0348825570547 598.7092005568744 # Ar
39 39 1 0.0 670.8313274211725 1204.0810951402025 91.42863421298433 # Ar
40 40 1 0.0 530.562449629049 537.0202818474692 475.8035207332021 # Ar
41 41 1 0.0 458.9964454341223 1334.6949266770316 1041.942851401784 # Ar
42 42 1 0.0 988.4671800560271 1092.0927791290135 352.9447925544068 # Ar
43 43 1 0.0 47.6519679200693 1048.9132994898116 825.3593768680636 # Ar
44 44 1 0.0 91.78776142300245 1352.487999011051 356.75821114030987 # Ar
45 45 1 0.0 807.5650158397217 1340.7731082021355 1022.8892027550136 # Ar
46 46 1 0.0 219.0641357483631 913.6723863239009 55.4569599177041 # Ar
47 47 1 0.0 463.95163682413715 144.89786496449466 636.8454147821952 # Ar
48 48 1 0.0 923.6122810986861 397.74921681173663 352.97843074834185 # Ar
49 49 1 0.0 299.91511729250226 329.53422405344753 1271.8804426238855 # Ar
50 50 1 0.0 1208.4338187057294 1141.3246275802442 1260.3576454283775 # Ar
51 51 1 0.0 272.21341583329365 655.9256090820635 984.5959177360016 # Ar
52 52 1 0.0 823.7736822714947 168.57761305967176 769.0677160972216 # Ar
53 53 1 0.0 724.9995721975378 180.30835884483247 1046.982325231744 # Ar
54 54 1 0.0 876.7478196931393 375.68031492870387 474.53004460526176 # Ar
55 55 1 0.0 64.83319487294293 634.2129066067346 643.3262703526452 # Ar
56 56 1 0.0 694.6222653894191 1314.1392934128576 1372.5154178298144 # Ar
57 57 1 0.0 168.22340017318984 921.8853479869077 51.66957864684961 # Ar
58 58 1 0.0 1133.525146411797 1118.7372189850255 1005.9648480430989 # Ar
59 59 1 0.0 305.7217495610811 360.13498398945944 80.68565884710851 # Ar
60 60 1 0.0 734.9040445171634 282.6542223993382 389.94866523990413 # Ar
61 61 1 0.0 323.5155628818112 235.58419002210704 411.41234480585223 # Ar
62 62 1 0.0 906.7817707269676 291.803110974275 1256.0739946652068 # Ar
63 63 1 0.0 238.31131780320842 858.2297536925219 1374.0620161791694 # Ar
64 64 1 0.0 318.1324381195154 155.81706440265162 1091.028346685971 # Ar
65 65 1 0.0 117.03582456945992 346.64128982441883 509.1705139393148 # Ar
66 66 1 0.0 1352.0423921389395 677.3727866146988 174.3594463219286 # Ar
67 67 1 0.0 935.1204228792816 1090.3518062985086 1132.1107657836121 # Ar
68 68 1 0.0 990.5184790830816 457.662526868147 304.86301014268804 # Ar
69 69 1 0.0 309.004522920649 798.9556944210169 646.2298124630211 # Ar
70 70 1 0.0 1185.4739287526925 641.8760022452577 73.38216756531982 # Ar
71 71 1 0.0 38.49759661350618 1217.6800733932569 424.04676334548583 # Ar
72 72 1 0.0 27.328619440847856 524.548408432937 1343.063126236966 # Ar
73 73 1 0.0 1338.3788675118597 264.68270229813385 247.05783860622097 # Ar
74 74 2 0.0 953.9382386776292 1032.6684487617335 71.39114063991981 # Ar+
75 75 2 0.0 109.12722648233164 893.6408898784264 1293.8126648554835 # Ar+
76 76 2 0.0 1259.9722672378791 391.3656782563413 540.9004220157418 # Ar+
77 77 2 0.0 834.3987224267643 16.506256548664915 1178.9057066251225 # Ar+
78 78 2 0.0 895.6380125321217 690.5253065023155 1060.856533039159 # Ar+
79 79 2 0.0 736.5139684781287 277.7474426116635 711.0676707591394 # Ar+
80 80 2 0.0 567.339145289212 244.2548756562047 1009.189476068637 # Ar+
81 81 2 0.0 720.6667504725592 700.4364965546946 78.26505047475058 # Ar+
82 82 2 0.0 320.65772850564593 632.4158166241679 51.29251923639705 # Ar+
83 83 2 0.0 1115.5998292035679 466.37873054832255 1134.6166429466953 # Ar+
84 84 2 0.0 1312.193299536282 1122.83119357028 779.6728044950796 # Ar+
85 85 2 0.0 1304.9390970188037 675.5830233353839 1130.8028065969468 # Ar+
86 86 2 0.0 603.3270536810252 853.953641375188 1036.8821125800907 # Ar+
87 87 2 0.0 1106.3476893985107 576.1641434829013 1291.6704443907763 # Ar+
88 88 2 0.0 123.68176602394935 200.31080473854897 1029.4681062551385 # Ar+
89 89 2 0.0 436.11019079755454 123.72718771387024 1068.195305101413 # Ar+
90 90 2 0.0 1093.8113719830185 1051.0249927258662 582.7535025534585 # Ar+
91 91 2 0.0 377.51792669596983 964.7063754316822 284.2007748498145 # Ar+
92 92 2 0.0 902.7593209010765 1100.0973752640982 246.18832246642506 # Ar+
93 93 2 0.0 128.54859577372514 350.18448198793556 1125.7003719661736 # Ar+
94 94 2 0.0 297.53083750396536 820.9350436468126 586.1380654788693 # Ar+
95 95 2 0.0 357.306347495513 894.0794288101838 230.3132699107458 # Ar+
96 96 2 0.0 1094.8109332841598 1198.1986981984592 1143.2724035773247 # Ar+
97 97 2 0.0 628.3103940254138 1273.8556042107646 180.01683575224067 # Ar+
98 98 2 0.0 943.0050200089169 1256.6566564962814 704.2038306306474 # Ar+
99 99 2 0.0 986.3652174556074 448.4809975591717 698.311809886626 # Ar+
100 100 2 0.0 771.1118022201176 80.4643701501544 1310.4749298198515 # Ar+
101 101 2 0.0 1362.785589995921 206.59480932167304 344.84878529699375 # Ar+
102 102 2 0.0 168.58376104125597 4.696205232874253 430.4597508231433 # Ar+
103 103 2 0.0 355.39929155044024 832.5604508500759 1349.2198753330917 # Ar+
104 104 2 0.0 882.7509004619423 850.9621546493223 578.4467065696043 # Ar+
105 105 2 0.0 1018.6808569719007 628.949424907832 788.7074985888289 # Ar+
106 106 2 0.0 1078.2091291030124 157.4670650011824 454.9373777558034 # Ar+
107 107 2 0.0 715.495136832154 300.4676328322917 30.35559895929572 # Ar+
108 108 2 0.0 8.298996244512324 1271.7961104214849 987.0663467342869 # Ar+
109 109 2 0.0 1350.692325568226 621.2873136126923 656.828691577747 # Ar+
110 110 2 0.0 1206.091280814793 475.55658571624303 990.9533036159179 # Ar+
111 111 2 0.0 869.9810108792641 604.988236689701 430.42397618513684 # Ar+
112 112 2 0.0 240.00132702616966 1206.125353058417 1232.4924610709368 # Ar+
113 113 2 0.0 393.25328190603017 241.37604280667006 512.8027132948506 # Ar+
114 114 2 0.0 908.3255380208402 938.798313661967 1121.225632664605 # Ar+
115 115 2 0.0 1182.1555541189475 807.9860373672229 754.1316544203033 # Ar+
116 116 2 0.0 567.7714621200481 1283.8344907110768 365.79118580308943 # Ar+
117 117 2 0.0 920.5191422611096 924.5861181408121 884.0280924453037 # Ar+
118 118 2 0.0 157.57106574551017 1257.4904686153216 389.91799529096244 # Ar+
119 119 2 0.0 987.8163787803145 114.78742481990308 1182.8907143919544 # Ar+
120 120 2 0.0 906.5611496873522 1366.7848168803212 1330.3626146637052 # Ar+
121 121 2 0.0 515.7471657284427 552.3044397290914 89.35442148278648 # Ar+
122 122 2 0.0 304.2286188659197 549.2694436660319 103.89988564383748 # Ar+
123 123 2 0.0 211.34108111589921 1213.231037677225 301.55801847373175 # Ar+
124 124 2 0.0 395.7436822119772 491.08659537678636 740.0675146398008 # Ar+
125 125 2 0.0 424.65976660233946 545.1839045631633 211.8352081708224 # Ar+
126 126 2 0.0 15.57020699484018 117.30769559133519 361.9890662827521 # Ar+
127 127 2 0.0 661.4407214608138 1282.8362468098246 468.51481530546016 # Ar+
128 128 2 0.0 497.4294215268807 188.21548736600343 818.480262502791 # Ar+
129 129 2 0.0 1368.3168532246864 1099.1352729000707 1129.2268201804645 # Ar+
130 130 2 0.0 1019.6311709868226 992.2341045577816 1168.4417113694292 # Ar+
131 131 2 0.0 1223.60445993344 676.8122382036903 250.25081713721903 # Ar+
132 132 2 0.0 96.6975254245169 431.7456337305795 959.3196392029296 # Ar+
133 133 2 0.0 698.8630689226147 611.5729524736662 667.0390635945234 # Ar+
134 134 2 0.0 606.9972742922455 485.75974581084 429.6882499527594 # Ar+
135 135 2 0.0 794.0047628441637 852.039417156209 494.8358186044642 # Ar+
136 136 2 0.0 802.5759389401045 257.83016284215626 1295.8716627788249 # Ar+
137 137 2 0.0 1277.7140610357267 220.7059094811185 1089.4507836181504 # Ar+
138 138 2 0.0 955.7159598479138 1362.5376946945528 446.06365745154915 # Ar+
139 139 2 0.0 926.4154251949668 688.068785707667 1309.1781189752996 # Ar+
140 140 2 0.0 753.9114827933982 723.7772769247014 232.0636345560512 # Ar+
141 141 2 0.0 356.9999299842364 104.88784730928921 1290.3158953470775 # Ar+
142 142 2 0.0 1376.9467997594104 1128.8247474046393 608.5307123209594 # Ar+
143 143 2 0.0 265.549984023026 610.058399225791 820.9811179040504 # Ar+
144 144 2 0.0 1071.7957586875905 832.2907264000997 1127.2420884942019 # Ar+
145 145 2 0.0 1004.9788610586247 507.2141081389525 846.0156142755727 # Ar+
146 146 2 0.0 821.989387318966 1335.079944593181 1390.8333202508422 # Ar+
147 147 2 0.0 641.0590638963084 1180.0231917200315 757.4963255871086 # Ar+
148 148 2 0.0 790.9745958821617 471.7415631262492 251.05238081455954 # Ar+
149 149 2 0.0 1161.971086660616 1255.157449155667 1027.6274676453522 # Ar+
150 150 2 0.0 71.58961038361959 1116.910251136443 715.9890921144058 # Ar+
