LAMMPS data file -- atom_style full -- generated by chemfiles
150 atoms
0 bonds
0 angles
0 dihedrals
0 impropers
2 atom types
0 bond types
0 angle types
0 dihedral types
0 improper types
0.00000000 1393.14072 xlo xhi
0.00000000 1393.14072 ylo yhi
0.00000000 1393.14072 zlo zhi

# Pair Coeffs
# 1 Ar
# 2 Ar+

Masses

1 39.948 # Ar
2 39.948 # Ar+

Atoms # full

1 1 1 0.0 473.9537393534049 1375.5075552852777 187.2659053624318 # Ar
2 2 1 0.0 843.9725754848417 855.3980524990648 1336.8495015338056 # Ar
3 3 1 0.0 839.7376595216034 157.33619120138792 860.1295604721719 # Ar
4 4 1 0.0 553.6214100528795 171.05046421706308 1333.3302716676167 # Ar
5 5 1 0.0 355.63213532236784 1220.2521826441282 1124.1809830096315 # Ar
6 6 1 0.0 1120.3549186540959 475.3840891950961 106.46914818944417 # Ar
7 7 1 0.0 512.5397399732757 112.31955823804036 1261.1211564309795 # Ar
8 8 1 0.0 1370.5653791151867 487.09809181098956 486.1295476523817 # Ar
9 9 1 0.0 693.9210284225531 753.0733890562763 602.0946560200065 # Ar
10 10 1 0.0 210.40943295576776 119.20413340164048 1167.454242752098 # Ar
11 11 1 0.0 1387.0041289099486 753.9748721458856 57.306214305953034 # Ar
12 12 1 0.0 315.8751112166443 1356.9423584666824 485.6542632497341 # Ar
13 13 1 0.0 980.9028419364626 86.5633679117692 142.62386819417202 # Ar
14 14 1 0.0 370.77662184603633 1065.6252113704368 1371.077049494581 # Ar
15 15 1 0.0 612.2211084053353 311.8832950329696 1194.2835632942085 # Ar
16 16 1 0.0 61.29743451994514 907.8786631325619 64.8682081693608 # Ar
17 17 1 0.0 19.48414088527885 314.9159778777879 69.8380298302045 # Ar
18 18 1 0.0 949.8113592017099 1033.5620534702298 475.2571553978707 # Ar
19 19 1 0.0 1340.3346132035808 1120.7197873667787 699.5129324230302 # Ar
20 20 1 0.0 704.0978772061275 1243.2454155044043 377.7810224525652 # Ar
21 21 1 0.0 908.8268646294891 431.02509709358435 540.8913142047714 # Ar
22 22 1 0.0 1108.743951399056 1275.3318266208712 903.343041431242 # Ar
23 23 1 0.0 213.49651929997893 1046.1240889367555 233.7380053376772 # Ar
24 24 1 0.0 357.6796322799734 1209.4466385055284 462.11736666119015 # Ar
25 25 1 0.0 1240.4756152741954 399.7789586432705 186.2222771451811 # Ar
26 26 1 0.0 369.5367866656939 270.38769001881525 350.18901221029205 # Ar
27 27 1 0.0 232.23116332304147 432.7904654646219 1125.867588438776 # Ar
28 28 1 0.0 896.324014905074 888.3362491011429 1216.281445563262 # Ar
29 29 1 0.0 613.8811220577267 331.015072892991 1129.5766940930318 # Ar
30 30 1 0.0 525.869045894287 792.5637639144447 568.4638990010505 # Ar
31 31 1 0.0 356.41999736199773 798.6733361338466 1048.3045661192593 # Ar
32 32 1 0.0 605.4894986795565 1215.8461189822838 504.48109740083294 # Ar
33 33 1 0.0 470.5001467887278 682.5509777659292 432.16412137236415 # Ar
34 34 1 0.0 645.8617533018312 456.7221249894818 378.55985160101 # Ar
35 35 1 0.0 882.9924950079212 660.6373352812166 176.88877001902912 # Ar
36 36 1 0.0 281.51917429633227 246.59039679074837 200.41756554951115 # Ar
37 37 1 0.0 548.7018473305229 906.8123259201333 651.111274281629 # Ar
38 38 1 0.0 1124.1782359137073 1318.5169196628874 931.0910520628352 # Ar
39 39 1 0.0 662.5367518066972 489.34314844648077 510.4737215326028 # Ar
40 40 1 0.0 1101.7438325852172 159.10302199849733 1206.6318617029017 # Ar
41 41 1 0.0 1041.1452171639116 856.1887221665086 65.25187899353243 # Ar
42 42 1 0.0 1107.7274974869902 244.31362757690434 1371.7529087353194 # Ar
43 43 1 0.0 150.86765490376754 852.1661573297877 709.6314013224585 # Ar
44 44 1 0.0 14.00610688209866 288.6671788023569 186.21348203388226 # Ar
45 45 1 0.0 1367.9224672840942 913.1390358365555 1140.5078520110505 # Ar
46 46 1 0.0 9.785477931029487 716.5829699629649 187.99851588509247 # Ar
47 47 1 0.0 196.7675210911781 835.7882734027149 928.2420889831842 # Ar
48 48 1 0.0 138.75158234807952 1280.3993901077276 496.1661612349664 # Ar
49 49 1 0.0 914.2550095162458 803.4815306529872 1341.8277075055246 # Ar
50 50 1 0.0 953.5721776815267 648.509392631402 316.30527296953113 # Ar
51 51 1 0.0 717.0508626150806 102.0198949974017 798.8249100987416 # Ar
52 52 1 0.0 1097.995367250336 698.4976545079425 1073.872614857924 # Ar
53 53 1 0.0 1164.7991860600869 78.76706136849725 27.319913670376682 # Ar
54 54 1 0.0 873.0102427494104 538.1574941154049 587.3589952792375 # Ar
55 55 1 0.0 237.61776016576835 789.3877582956025 597.1202403333783 # Ar
56 56 1 0.0 1147.422316637935 941.3210118870219 47.51449773481084 # Ar
57 57 1 0.0 392.99076105720474 283.74888682038306 61.552688105909034 # Ar
58 58 1 0.0 133.09883783684884 287.8892922013398 476.32977295350247 # Ar
59 59 1 0.0 838.151868462923 691.1380568691764 819.6101684163191 # Ar
60 60 1 0.0 111.5262754989531 438.1487997885838 759.9443501783911 # Ar
61 61 1 0.0 675.5873265727595 80.44417568351263 1016.6503973142154 # Ar
62 62 1 0.0 981.7133213597322 737.1645143224215 590.5386861402345 # Ar
63 63 1 0.0 645.1172919514535 535.8876857972526 208.5620546298049 # Ar
64 64 1 0.0 1261.7222572666426 1038.9422445369385 1059.2297930388784 # Ar
65 65 1 0.0 346.1662926460924 221.70440628398765 125.35870963341699 # Ar
66 66 1 0.0 381.93511264782313 781.9406606573019 581.6459233644267 # Ar
67 67 1 0.0 612.1880582575996 131.61647637072957 1195.5907669609112 # Ar
68 68 1 0.0 364.803166225368 1072.4047749227857 583.0404518832577 # Ar
69 69 1 0.0 162.09567667153283 502.6371816634539 9.676250066160694 # Ar
70 70 1 0.0 1074.3927157067326 1288.1456668223811 22.312218112234643 # Ar
71 71 1 0.0 251.18725188045497 33.16314796707894 432.64065796795995 # Ar
72 72 1 0.0 1230.0894828437629 5.374774166555371 121.55090975462753 # Ar
73 73 1 0.0 276.4890251383483 110.56510256826816 650.2590743304627 # Ar
74 74 2 0.0 986.665944310636 1384.539056469005 508.57099367079707 # Ar+
75 75 2 0.0 972.5386452400404 1354.0913035180538 1006.2467220249473 # Ar+
76 76 2 0.0 1197.4734560192026 332.2435922162924 1093.4983205634085 # Ar+
77 77 2 0.0 764.6489534655209 657.9839170134006 273.8564352205551 # Ar+
78 78 2 0.0 247.97193706815742 159.41244081785675 1347.251083138362 # Ar+
79 79 2 0.0 470.1070811533158 1285.8919757164895 522.7620908106105 # Ar+
80 80 2 0.0 280.62501455684867 75.92364367126837 992.4074255606929 # Ar+
81 81 2 0.0 829.6141845101149 1023.5713320555544 1266.8558461261714 # Ar+
82 82 2 0.0 698.2259385638815 925.3558282188692 770.4447032094688 # Ar+
83 83 2 0.0 866.5824014286893 1143.7240536407116 412.48910078454173 # Ar+
84 84 2 0.0 1200.0024699900498 872.8513404991271 995.4945942212951 # Ar+
85 85 2 0.0 448.3100274785356 293.4768055462998 1078.6457357701943 # Ar+
86 86 2 0.0 335.1952664001056 674.7242340413444 216.83131469571 # Ar+
87 87 2 0.0 502.42890313206067 1081.7753756527075 1330.792931126936 # Ar+
88 88 2 0.0 261.87113012500095 1125.2908978163728 1193.3220183219987 # Ar+
89 89 2 0.0 1274.880155291903 552.1409048461185 38.357983188720056 # Ar+
90 90 2 0.0 845.3437886046892 821.7159528640968 62.49122466355123 # Ar+
91 91 2 0.0 289.92158296920303 347.9827310516338 1301.4694479129766 # Ar+
92 92 2 0.0 932.2026529790538 281.38874471369047 504.6004048044757 # Ar+
93 93 2 0.0 56.954543427206666 204.22520559995127 314.8227043140494 # Ar+
94 94 2 0.0 195.07649369154953 698.0807610171623 518.5754187720594 # Ar+
95 95 2 0.0 1262.4669155547335 35.223745369309825 678.8456197647032 # Ar+
96 96 2 0.0 1109.373320076381 937.8823720509807 1386.301988148844 # Ar+
97 97 2 0.0 427.3323965535416 1276.0697777216576 509.20559509592994 # Ar+
98 98 2 0.0 682.3692556646249 1000.5389523849958 1310.1334015868163 # Ar+
99 99 2 0.0 788.5297144868819 861.321275831447 10.72650754531686 # Ar+
100 100 2 0.0 787.2952907903323 350.9800918711604 142.18277518726367 # Ar+
101 101 2 0.0 1266.6340129018724 84.42537838228368 441.5176181360153 # Ar+
102 102 2 0.0 642.256762451464 1341.0983976541731 1034.0657651479123 # Ar+
103 103 2 0.0 678.2155826241575 379.73660577304946 76.33934630931293 # Ar+
104 104 2 0.0 318.91388670800336 1288.6995852232178 780.1601065833196 # Ar+
105 105 2 0.0 805.0866264803498 1098.543099432036 404.03882157470605 # Ar+
106 106 2 0.0 283.53628507901163 1020.3690598292783 661.0448283690612 # Ar+
107 107 2 0.0 1228.0291050907188 281.2544717717521 270.67360382341695 # Ar+
108 108 2 0.0 683.3460022793221 1130.162935543617 71.88816546046496 # Ar+
109 109 2 0.0 1155.6466687478526 234.02939824674723 1371.8825966767904 # Ar+
110 110 2 0.0 908.0748675367262 746.6613712672299 77.64204082206305 # Ar+
111 111 2 0.0 2.28229461501658 375.03504412701943 554.771685505326 # Ar+
112 112 2 0.0 289.22046683819167 892.0288188529 1389.653429390688 # Ar+
113 113 2 0.0 4.169757901612517 208.37868021699484 842.045038432696 # Ar+
114 114 2 0.0 383.0813488068209 1117.3758064154772 694.6759728593322 # Ar+
115 115 2 0.0 908.1569914255433 417.31647744602975 57.29262354892766 # Ar+
116 116 2 0.0 738.0589013018644 1161.7984084253799 190.3714464957822 # Ar+
117 117 2 0.0 143.45926306018964 674.2855735758075 908.9940843680452 # Ar+
118 118 2 0.0 696.3817923423439 371.53345115352886 844.7189672335041 # Ar+
119 119 2 0.0 6.138343671325013 632.3392256240936 745.6913449573873 # Ar+
120 120 2 0.0 503.7710801968651 694.2690923501458 933.2299690492641 # Ar+
121 121 2 0.0 1244.0928282774557 114.59664985874457 279.9751533670707 # Ar+
122 122 2 0.0 204.97691954299 33.749782273944994 258.01115503634935 # Ar+
123 123 2 0.0 1095.9925997648318 1018.8529967251711 1204.511018498269 # Ar+
124 124 2 0.0 17.217088130341722 461.16718410323006 232.0412643141238 # Ar+
125 125 2 0.0 605.304288306705 1182.1733206016252 447.3931405820917 # Ar+
126 126 2 0.0 166.30533850288538 1251.4765749309915 57.06152956944377 # Ar+
127 127 2 0.0 1097.861369666101 807.5237369000713 850.1478350681181 # Ar+
128 128 2 0.0 50.47601727354674 171.7925363061302 672.8481313419298 # Ar+
129 129 2 0.0 224.7937404987006 317.30187765813605 1128.0901468204481 # Ar+
130 130 2 0.0 956.3419668727917 570.0902561752745 986.3100956002318 # Ar+
131 131 2 0.0 650.0485542980884 582.1743662368772 1357.3550485486605 # Ar+
132 132 2 0.0 126.94515107238936 1177.1254655047092 579.9368457618822 # Ar+
133 133 2 0.0 902.8127972935549 788.0517063933365 1238.7274906408807 # Ar+
134 134 2 0.0 1325.7501058077032 862.574116465611 1290.7924694240496 # Ar+
135 135 2 0.0 732.900456164056 749.5266334314654 9.933301987597645 # Ar+
136 136 2 0.0 1185.5216658279194 1271.1424524921872 721.1311371112214 # Ar+
137 137 2 0.0 163.95164958927353 866.9945710060772 337.54090725861374 # Ar+
138 138 2 0.0 302.70812168594927 167.71923075460157 196.3411075932641 # Ar+
139 139 2 0.0 949.9069782833286 980.8761153305742 66.82418248383948 # Ar+
140 140 2 0.0 99.62105058518299 126.42130382462697 501.0859969366837 # Ar+
141 141 2 0.0 541.1948326677799 393.2736552551187 1163.1962872994186 # Ar+
142 142 2 0.0 54.9186581174137 60.5724835192441 149.2803784905467 # Ar+
143 143 2 0.0 1380.1603577747483 817.4568144839211 134.94219465935907 # Ar+
144 144 2 0.0 787.3883340730969 210.81207470282297 141.48107075897744 # Ar+
145 145 2 0.0 784.7550258599554 522.1818966091614 156.24034063093714 # Ar+
146 146 2 0.0 1064.7867774443523 1048.835231872436 771.1019989867682 # Ar+
147 147 2 0.0 340.2517043001787 1214.93145735078 944.2319614310774 # Ar+
148 148 2 0.0 973.2585130507674 318.86941009276603 590.7760224363959 # Ar+
149 149 2 0.0 943.0073379988957 1260.8652960407728 893.7232204547581 # Ar+
150 150 2 0.0 412.12157101806645 796.1015558655589 344.5645852201694 # Ar+
