LAMMPS data file -- atom_style full -- generated by chemfiles
2000 atoms
0 bonds
0 angles
0 dihedrals
0 impropers
1 atom types
0 bond types
0 angle types
0 dihedral types
0 improper types
0.00000000 816.849825 xlo xhi
0.00000000 816.849825 ylo yhi
0.00000000 816.849825 zlo zhi

# Pair Coeffs
# 1 Ar

Masses

1 39.948 # Ar

Atoms # full

1 1 1 0.0 151.38948085149823 188.53011916694322 563.5717237759079 # Ar
2 2 1 0.0 583.0806558574972 385.185168945749 451.9015492385253 # Ar
3 3 1 0.0 428.9755951339056 41.45079053966645 29.61015413358869 # Ar
4 4 1 0.0 507.56170043073433 241.12200910289928 538.6214036543888 # Ar
5 5 1 0.0 380.53666874535975 259.7150726849268 561.3543800447533 # Ar
6 6 1 0.0 328.2850695189943 263.736175716633 35.398757102863236 # Ar
7 7 1 0.0 495.65348764457696 570.53220283557 524.4843389068574 # Ar
8 8 1 0.0 507.1883509999933 121.04893382031587 186.79028830488426 # Ar
9 9 1 0.0 516.7200060129268 604.5796381872685 344.069695603898 # Ar
10 10 1 0.0 224.7403606858052 783.8179219450496 489.2227388703809 # Ar
11 11 1 0.0 496.962144484212 329.28906723133747 633.4582922384569 # Ar
12 12 1 0.0 139.4838435079411 200.16773968075285 620.4728038613307 # Ar
13 13 1 0.0 282.2282231010947 394.3866072463772 86.69897398549541 # Ar
14 14 1 0.0 192.83639639669445 208.09728579416438 795.4925311855917 # Ar
15 15 1 0.0 319.7011774145324 453.4452171869552 41.333822734312434 # Ar
16 16 1 0.0 660.5324674657138 230.67546547843858 109.71835291804459 # Ar
17 17 1 0.0 753.8530966730849 238.60591299800325 7.808193739627893 # Ar
18 18 1 0.0 69.0591893475775 739.6851397614054 588.0149170852568 # Ar
19 19 1 0.0 810.9235371482418 19.604560740460343 336.1827544856392 # Ar
20 20 1 0.0 264.00375854636604 768.9936995735926 205.5370380981498 # Ar
21 21 1 0.0 488.67564256510707 182.67711785054155 244.9782793506655 # Ar
22 22 1 0.0 388.2776068071753 179.4033641303747 238.47539092938177 # Ar
23 23 1 0.0 154.56968269776453 354.2551785790383 425.4115486061551 # Ar
24 24 1 0.0 798.1812249364303 771.2501640041006 390.2287545819442 # Ar
25 25 1 0.0 809.4391635131614 735.4943699371921 226.51233884839263 # Ar
26 26 1 0.0 41.99216565952312 710.9786557034827 240.11841175668943 # Ar
27 27 1 0.0 785.5395703968339 490.2903964232648 645.3139444194435 # Ar
28 28 1 0.0 730.7422273983556 706.3311952528725 189.54693287656576 # Ar
29 29 1 0.0 777.8063523804242 11.787401383138574 716.6369556506402 # Ar
30 30 1 0.0 106.47566405657967 301.7912259501594 6.0138053618128575 # Ar
31 31 1 0.0 349.4275062927172 144.2750704478791 72.70413064440339 # Ar
32 32 1 0.0 309.08279165467354 41.787039144981755 554.6896506568908 # Ar
33 33 1 0.0 252.83535295554432 372.74308959414543 768.5195005074648 # Ar
34 34 1 0.0 630.3721267414045 501.6722427276527 710.8069127625403 # Ar
35 35 1 0.0 482.7174004843812 456.6355414948976 519.9530615273825 # Ar
36 36 1 0.0 292.03525817379705 508.4258755086809 630.4703911316816 # Ar
37 37 1 0.0 157.44089177826402 467.40113514982414 145.1676244031802 # Ar
38 38 1 0.0 300.9964784699293 732.869505715682 451.761641204348 # Ar
39 39 1 0.0 603.8345869537769 801.4682380587407 243.05895742836623 # Ar
40 40 1 0.0 706.6348102464881 189.594531062465 418.21644974423225 # Ar
41 41 1 0.0 99.59103156810086 238.14613860145363 543.1796377339515 # Ar
42 42 1 0.0 712.2887733587542 796.558505789254 446.7450993459038 # Ar
43 43 1 0.0 703.375410364285 250.97342115214974 702.9136942712479 # Ar
44 44 1 0.0 223.87397215674426 506.5963322540722 277.78950660973135 # Ar
45 45 1 0.0 599.6871766743722 672.5362340034577 315.8730948106783 # Ar
46 46 1 0.0 254.99851550862277 628.2153899303825 3.905491443339031 # Ar
47 47 1 0.0 536.1366335344388 777.7436619011704 477.40381093322287 # Ar
48 48 1 0.0 185.40660565821244 388.15629956501914 613.8952093280141 # Ar
49 49 1 0.0 126.27370386397047 166.99501159271685 60.05674375149773 # Ar
50 50 1 0.0 778.5370320839044 342.2344807450982 282.94090644419947 # Ar
51 51 1 0.0 786.1066056315797 355.02698117618246 127.01890453766146 # Ar
52 52 1 0.0 325.56926584497097 203.42334182301545 418.5205197192248 # Ar
53 53 1 0.0 285.6035226436127 745.7414382082145 446.7980401782838 # Ar
54 54 1 0.0 197.3863714754082 805.5882133023864 509.29293592682757 # Ar
55 55 1 0.0 380.738655906446 263.81557901877113 443.90662867381104 # Ar
56 56 1 0.0 14.69789025583988 377.99959914066085 137.66276742708033 # Ar
57 57 1 0.0 241.2468711377045 272.7050197907987 118.73891923340267 # Ar
58 58 1 0.0 387.9554892040056 680.4783175870949 487.5260877532897 # Ar
59 59 1 0.0 808.7990315529562 202.05931018429968 81.08866472605816 # Ar
60 60 1 0.0 431.19229559675347 216.4804308775427 436.6075257086296 # Ar
61 61 1 0.0 77.08306057540383 763.2333945527499 729.4773832183268 # Ar
62 62 1 0.0 195.54869130726925 96.74209637091813 50.61769302916913 # Ar
63 63 1 0.0 653.405477885185 597.9700441315771 511.7269963952222 # Ar
64 64 1 0.0 211.26676295577727 256.0995682805433 121.88896625195237 # Ar
65 65 1 0.0 109.70783742819776 767.1465340939423 295.4283246398773 # Ar
66 66 1 0.0 806.8363641149933 596.7240393746501 815.1444375918849 # Ar
67 67 1 0.0 364.6066690722931 81.80635543774824 648.8336874991176 # Ar
68 68 1 0.0 107.24207078158949 691.3238968941733 653.2464435853894 # Ar
69 69 1 0.0 729.9121029512747 227.60544395855408 503.1216629015119 # Ar
70 70 1 0.0 395.13909512841707 362.99697559637303 96.35660617477858 # Ar
71 71 1 0.0 96.01299100325409 752.2071762478272 675.8988284969681 # Ar
72 72 1 0.0 626.355482552402 46.21362307350098 55.88176748697471 # Ar
73 73 1 0.0 403.4695945973771 564.557493193204 794.6748326351562 # Ar
74 74 1 0.0 336.50508679989804 338.4005628534419 639.0732906431999 # Ar
75 75 1 0.0 575.4709352453949 392.5909239986587 128.71683011395416 # Ar
76 76 1 0.0 646.7014185410823 691.6652545899044 484.3241283071795 # Ar
77 77 1 0.0 450.6127447124347 45.34293717402159 674.4459058884709 # Ar
78 78 1 0.0 172.44261511073213 11.570707889319888 504.474948826227 # Ar
79 79 1 0.0 413.4844667349269 249.01709410053212 187.08470763095073 # Ar
80 80 1 0.0 133.36025397400215 463.53367951364197 47.41492753611409 # Ar
81 81 1 0.0 790.3040600584995 136.56802472487928 316.60254561501057 # Ar
82 82 1 0.0 399.4625588013883 372.5664271878816 707.3463524153537 # Ar
83 83 1 0.0 503.9570673310109 758.5615276286904 209.85781028841265 # Ar
84 84 1 0.0 5.628587725216703 141.94108471953436 218.95057865041193 # Ar
85 85 1 0.0 778.8157151812845 648.903454282132 723.3060864159473 # Ar
86 86 1 0.0 551.7390011825861 221.1199036142388 812.3800691091158 # Ar
87 87 1 0.0 260.80088650061 570.5121323427189 539.115423907131 # Ar
88 88 1 0.0 588.0107586593531 338.55391433850485 628.0164199965841 # Ar
89 89 1 0.0 176.50382558599068 247.02932748059467 559.1996916780074 # Ar
90 90 1 0.0 17.247942593059616 270.0247404191061 196.95400339077773 # Ar
91 91 1 0.0 243.53269233746644 376.45102633551477 685.0953625864005 # Ar
92 92 1 0.0 39.94905438940185 441.3723633574722 422.3872074080481 # Ar
93 93 1 0.0 60.78814429646463 586.909199124779 667.6505824287261 # Ar
94 94 1 0.0 185.0601790850275 545.7808468016876 613.3879587446836 # Ar
95 95 1 0.0 739.9169740113281 420.2212080201309 233.79417620781476 # Ar
96 96 1 0.0 585.0310617102784 280.7513432064783 633.9326799483229 # Ar
97 97 1 0.0 491.4066772200545 142.78779279000076 398.3963802750517 # Ar
98 98 1 0.0 432.239694900945 566.6465141160443 426.48404084306344 # Ar
99 99 1 0.0 454.02031646595174 762.5281591931092 278.0777610955443 # Ar
100 100 1 0.0 5.798121144843982 68.02220855345614 722.0995533340443 # Ar
101 101 1 0.0 158.08646195652275 85.38409794727986 2.5256237056779507 # Ar
102 102 1 0.0 600.7862546825858 505.49256379780905 459.49441796375595 # Ar
103 103 1 0.0 201.61272412488157 760.5918257142996 50.507884764073246 # Ar
104 104 1 0.0 422.004114741405 618.5163101519266 567.9383270842303 # Ar
105 105 1 0.0 285.8088689772208 380.85194568720135 739.1497277437704 # Ar
106 106 1 0.0 125.59529804656292 237.8715412803536 84.3941159925474 # Ar
107 107 1 0.0 743.5449081234649 76.67506231799238 109.78248219493521 # Ar
108 108 1 0.0 598.3080467210447 566.3058942155111 681.4858557050484 # Ar
109 109 1 0.0 405.9813800811757 291.4895711502532 155.94026797281325 # Ar
110 110 1 0.0 467.16125003353545 330.18255565884346 369.08100671464047 # Ar
111 111 1 0.0 166.25617570615532 67.23709268240991 476.65090099834896 # Ar
112 112 1 0.0 269.5789953464682 29.44100638756468 538.9534383719615 # Ar
113 113 1 0.0 264.85419808371495 156.6877109550176 162.2932560929677 # Ar
114 114 1 0.0 373.0352285513712 807.2200324911566 332.92215302676686 # Ar
115 115 1 0.0 321.5920399579586 114.02112513571974 228.1701335086722 # Ar
116 116 1 0.0 231.7724668199564 792.5030805138216 730.7601380252681 # Ar
117 117 1 0.0 194.7799350187705 435.8878816937467 251.63134309419968 # Ar
118 118 1 0.0 480.76849907712085 287.6773462138596 201.73909817434733 # Ar
119 119 1 0.0 612.7167845286323 249.6245303817121 270.446981134822 # Ar
120 120 1 0.0 760.7654928588767 193.09960279664415 568.301418073499 # Ar
121 121 1 0.0 145.71899076379927 770.0699902165424 204.85174401615578 # Ar
122 122 1 0.0 156.80565853872042 1.2116268637737566 724.7857298753879 # Ar
123 123 1 0.0 173.23324343272262 661.0488093689617 63.1417404168874 # Ar
124 124 1 0.0 570.6417879214104 681.9696800200701 156.15991888593655 # Ar
125 125 1 0.0 735.915568086916 665.4158348504055 689.77313238212 # Ar
126 126 1 0.0 319.0011558492413 776.1542973101151 321.39012416111456 # Ar
127 127 1 0.0 536.7733959671152 117.04138498197493 713.6472217652364 # Ar
128 128 1 0.0 344.03796257817356 264.6309975441606 394.0385006650252 # Ar
129 129 1 0.0 589.7843423143253 595.4936889834275 369.4262531081512 # Ar
130 130 1 0.0 412.8735814204215 3.096169672299953 451.131099565447 # Ar
131 131 1 0.0 165.4816768206648 617.1272363933238 579.466066302618 # Ar
132 132 1 0.0 9.336327994458415 401.395417812164 733.0781525169389 # Ar
133 133 1 0.0 358.8573818776024 42.61070545566578 418.8471289262679 # Ar
134 134 1 0.0 548.1329597428887 775.9733165805195 630.5156349371234 # Ar
135 135 1 0.0 456.27766552173074 733.6037964054808 99.36001533345701 # Ar
136 136 1 0.0 669.6570460362859 350.92822662445025 224.41122586065697 # Ar
137 137 1 0.0 237.09106516484908 338.52789426430775 790.1874992920957 # Ar
138 138 1 0.0 808.8044499640171 39.9150850440988 399.3530021266472 # Ar
139 139 1 0.0 582.6552396496081 556.6534553450704 18.4495827634411 # Ar
140 140 1 0.0 333.21325502794 44.163804484773095 724.5513194491044 # Ar
141 141 1 0.0 641.7429757988263 705.9501920399919 137.18241025018656 # Ar
142 142 1 0.0 146.50570299830486 443.6433952227665 193.2038371576516 # Ar
143 143 1 0.0 701.232352428217 37.32397273914259 265.2395801751114 # Ar
144 144 1 0.0 93.44762472554606 172.41947126644962 229.1696493217424 # Ar
145 145 1 0.0 119.3363471543978 753.8164479788452 87.39768549541438 # Ar
146 146 1 0.0 162.4443305783562 289.96337285036435 491.4356092916975 # Ar
147 147 1 0.0 452.34878877688504 301.45280037170676 14.291061685120853 # Ar
148 148 1 0.0 219.98208778261997 173.25650508162764 84.22778802776172 # Ar
149 149 1 0.0 37.98135865480776 564.8993260768921 692.7429781645573 # Ar
150 150 1 0.0 499.5133181563147 643.817898848672 755.4373413204438 # Ar
151 151 1 0.0 652.1309713146393 557.0207770401933 204.94580512930895 # Ar
152 152 1 0.0 134.02805084159007 335.7536355531111 283.15778170287086 # Ar
153 153 1 0.0 324.89827750877805 324.38245552578877 699.4717461413809 # Ar
154 154 1 0.0 648.2211168814014 129.44096862847394 524.7954070466941 # Ar
155 155 1 0.0 393.4876978480274 498.4487491421223 426.5104824457234 # Ar
156 156 1 0.0 305.2491735290421 424.8186678958208 397.3271198779569 # Ar
157 157 1 0.0 608.5447595537582 39.87366761687633 728.8169040379636 # Ar
158 158 1 0.0 1.4493804364688243 99.4419661992786 144.7394918447863 # Ar
159 159 1 0.0 315.668758144722 35.40148207679719 161.06136925408325 # Ar
160 160 1 0.0 625.6148149622086 369.68330062530976 323.91280300844966 # Ar
161 161 1 0.0 319.3349728319431 298.1398995551045 211.80366656367045 # Ar
162 162 1 0.0 95.43049751109973 407.71070369207337 52.27747534650677 # Ar
163 163 1 0.0 450.91267477127144 517.7601553289068 702.3061441020413 # Ar
164 164 1 0.0 267.3272365155294 112.26794727837606 737.1051720881337 # Ar
165 165 1 0.0 744.7152162129737 62.994375703545195 390.15302857946136 # Ar
166 166 1 0.0 481.2743274620766 538.9094933314467 294.22406683308964 # Ar
167 167 1 0.0 501.06576997971814 239.4158676034452 103.4029525759085 # Ar
168 168 1 0.0 265.26459723992275 500.85730968449263 475.0081622297381 # Ar
169 169 1 0.0 689.2714183901988 722.235604398065 28.25150837729196 # Ar
170 170 1 0.0 779.7302567869347 687.7318620579734 274.75539645066686 # Ar
171 171 1 0.0 395.37729650729113 378.90615023691265 721.0036876787681 # Ar
172 172 1 0.0 742.6703317350543 322.00341069543794 63.942181051013634 # Ar
173 173 1 0.0 492.2020468486794 674.6900043761436 42.21860570741335 # Ar
174 174 1 0.0 694.3187467149817 106.32084679840536 770.6955663719053 # Ar
175 175 1 0.0 144.06463759087055 149.83671156633292 92.47240985530267 # Ar
176 176 1 0.0 2.8257618791068575 742.5016319461093 87.42592842374276 # Ar
177 177 1 0.0 247.2105289621485 305.8266450959087 761.1170975992981 # Ar
178 178 1 0.0 380.48496287935717 354.68811465138305 344.5675304804622 # Ar
179 179 1 0.0 133.26777853614544 175.59541463948776 6.008260835717207 # Ar
180 180 1 0.0 30.784320559585474 253.44892390592514 441.5041440855986 # Ar
181 181 1 0.0 124.23174916873944 605.1645895575189 500.3553396976312 # Ar
182 182 1 0.0 170.42793710153396 261.87780248615826 203.11029131583612 # Ar
183 183 1 0.0 434.65068976270584 251.8248718010255 541.9198038068727 # Ar
184 184 1 0.0 13.525073318481377 166.46675359546873 385.2999580272726 # Ar
185 185 1 0.0 555.4975246821346 684.0150253944013 765.0093530068215 # Ar
186 186 1 0.0 417.01327565781577 453.3826289987917 704.4499482928888 # Ar
187 187 1 0.0 643.7866283910689 515.5134410708206 347.41228264912706 # Ar
188 188 1 0.0 58.459343538308026 271.74770357599635 57.93030276983731 # Ar
189 189 1 0.0 116.55477159060378 122.89241366817961 610.2215038892998 # Ar
190 190 1 0.0 346.16250880615536 427.23727432207767 409.0618364675227 # Ar
191 191 1 0.0 615.695136397426 789.4295516200082 615.345134927777 # Ar
192 192 1 0.0 155.92750637086576 73.94482502607595 740.159090653254 # Ar
193 193 1 0.0 252.1930945397776 751.0121605276693 122.22288801612399 # Ar
194 194 1 0.0 213.1918259025644 520.0385836238501 110.07965115059 # Ar
195 195 1 0.0 383.38206772721105 241.57672288666748 466.74128603608716 # Ar
196 196 1 0.0 775.8176635821234 661.1531897013804 245.5187890827551 # Ar
197 197 1 0.0 788.3721946920929 594.102451162495 657.1036556377713 # Ar
198 198 1 0.0 173.69901171695145 295.7966097299521 806.6383618946246 # Ar
199 199 1 0.0 641.5002015274666 729.8939272604111 612.4039742961821 # Ar
200 200 1 0.0 632.0707694613035 273.99385907942815 493.0881116097262 # Ar
201 201 1 0.0 19.99488935415105 225.9439773842148 1.1460937451879158 # Ar
202 202 1 0.0 533.5701624426413 341.00188628354965 502.3261105931013 # Ar
203 203 1 0.0 585.8650717159774 709.3891197311962 104.1470066626792 # Ar
204 204 1 0.0 222.32508648552255 8.38365189518663 267.5162647626993 # Ar
205 205 1 0.0 51.64634476388885 414.3189895629202 717.5967371648302 # Ar
206 206 1 0.0 811.5247315873393 241.68186129083392 660.2158034991998 # Ar
207 207 1 0.0 438.6584430094346 495.0118390038615 600.2195782693128 # Ar
208 208 1 0.0 800.9299261949981 168.31796786009932 405.1904059511517 # Ar
209 209 1 0.0 409.2087563031181 125.62325427722828 240.79908871372365 # Ar
210 210 1 0.0 30.151325500932014 538.487746737011 409.2977866850176 # Ar
211 211 1 0.0 156.09011332304635 541.7156255337186 156.31798128547493 # Ar
212 212 1 0.0 505.21054145262025 196.4649056821054 723.9926123458354 # Ar
213 213 1 0.0 402.42661637833726 508.65043714758104 486.345457144207 # Ar
214 214 1 0.0 732.98481339456 259.137292717363 298.3656752853754 # Ar
215 215 1 0.0 582.6589129267376 544.5151439416848 147.64070039540576 # Ar
216 216 1 0.0 46.28842322199051 1.247021807011822 282.86423249554537 # Ar
217 217 1 0.0 668.7814632272729 7.083864274508666 641.4540035852682 # Ar
218 218 1 0.0 92.76469280758363 766.1475793300547 553.7125640344882 # Ar
219 219 1 0.0 250.95157364587027 319.88271051351575 291.05935699326466 # Ar
220 220 1 0.0 151.6062257799421 340.34778368705526 319.58959653714646 # Ar
221 221 1 0.0 382.9765085764288 791.7955402630957 804.5146079806167 # Ar
222 222 1 0.0 706.989063370496 398.76173195708515 547.2179040991855 # Ar
223 223 1 0.0 96.51290159208794 368.932908114636 108.80364404084126 # Ar
224 224 1 0.0 769.4923716740878 51.61282685099164 568.0035305945074 # Ar
225 225 1 0.0 116.51913041483714 535.7352683762435 181.98351106147956 # Ar
226 226 1 0.0 74.26721591478193 574.4713460352533 628.260602011167 # Ar
227 227 1 0.0 750.994764342493 314.89336426700237 366.1066971324872 # Ar
228 228 1 0.0 387.76396277708636 338.52950028077856 68.46268910138826 # Ar
229 229 1 0.0 349.0178345356714 649.1792874720135 342.1747630036761 # Ar
230 230 1 0.0 145.72024394418827 106.76083033057613 256.84344961757984 # Ar
231 231 1 0.0 43.508581922963394 219.4873716990505 489.2238265001738 # Ar
232 232 1 0.0 510.3214281969986 545.1243819011228 467.2580052184546 # Ar
233 233 1 0.0 85.76234339272749 767.803946733228 137.79227678569634 # Ar
234 234 1 0.0 323.06576948537406 572.8945318596396 193.59614741781132 # Ar
235 235 1 0.0 55.49104235422182 721.8129025447881 747.7810636482996 # Ar
236 236 1 0.0 803.0263317280802 29.702090516926837 235.30622726680596 # Ar
237 237 1 0.0 85.82097485372282 626.1206924834506 130.36697395922886 # Ar
238 238 1 0.0 289.6237447717114 691.4399169124523 563.9572090693023 # Ar
239 239 1 0.0 574.1535569107534 63.90411351212285 318.6209330922803 # Ar
240 240 1 0.0 779.926142089996 267.88364892467536 428.32011545758365 # Ar
241 241 1 0.0 110.56453707616214 347.6033010715573 721.1075010588913 # Ar
242 242 1 0.0 504.5986861001805 284.68358111918633 355.50782003726005 # Ar
243 243 1 0.0 283.24156783572386 52.22128626805249 4.181064632589515 # Ar
244 244 1 0.0 468.65820292432306 416.20377067616727 456.94666778182335 # Ar
245 245 1 0.0 747.1145493703838 220.8892629405797 592.7670666379043 # Ar
246 246 1 0.0 632.8649481213773 186.28628130448132 776.9826021901567 # Ar
247 247 1 0.0 725.6922997211583 487.5567599314757 598.4037017704898 # Ar
248 248 1 0.0 449.20887715024656 165.6286173854384 56.444548240786325 # Ar
249 249 1 0.0 387.47819902012264 117.11571358862616 111.78042167893243 # Ar
250 250 1 0.0 669.7109014299534 363.94643203468155 70.16544338494253 # Ar
251 251 1 0.0 284.3415143657886 663.5290255959957 554.7272884375363 # Ar
252 252 1 0.0 813.6409649391007 296.45239987739535 283.71433102967507 # Ar
253 253 1 0.0 440.7234308156164 731.167513787181 328.6411691093555 # Ar
254 254 1 0.0 422.9985503135769 424.89943713443853 674.2523411577735 # Ar
255 255 1 0.0 225.72791375614202 284.6380492988872 57.93424793279408 # Ar
256 256 1 0.0 112.61539809101801 477.48618730684115 265.8642018410006 # Ar
257 257 1 0.0 541.4659329295333 791.7819385744699 198.77744367303035 # Ar
258 258 1 0.0 208.28670361266907 811.7384253352031 162.19463193985112 # Ar
259 259 1 0.0 468.00951082839555 143.67442995047344 710.3269247786542 # Ar
260 260 1 0.0 668.4660130775084 549.3186299009268 201.29303885918264 # Ar
261 261 1 0.0 34.225024296433126 105.27855545736345 210.26539744364484 # Ar
262 262 1 0.0 228.81457380281992 130.4484949397894 377.9108676608591 # Ar
263 263 1 0.0 15.345706820484255 650.1630222649218 592.4652214766941 # Ar
264 264 1 0.0 113.98934131443426 770.4185678172353 315.1774635870942 # Ar
265 265 1 0.0 647.6997276833608 806.6445557115305 339.5924882164699 # Ar
266 266 1 0.0 727.300624986477 380.43538023443534 374.2223613460145 # Ar
267 267 1 0.0 326.89267125536037 520.4037411238777 814.067664066289 # Ar
268 268 1 0.0 533.7046526709103 235.84525476022694 180.38261961398115 # Ar
269 269 1 0.0 666.3024291150087 601.5113445539362 721.3082995740469 # Ar
270 270 1 0.0 135.3170209372803 556.4619159386862 194.00360732332896 # Ar
271 271 1 0.0 581.3341464790258 179.56653360207963 625.9714906880516 # Ar
272 272 1 0.0 753.8010793749728 3.81470740714225 400.01356773417956 # Ar
273 273 1 0.0 366.9197056800075 289.6438676412688 131.38279984330495 # Ar
274 274 1 0.0 454.73198185132424 101.18479088169417 157.30126218125002 # Ar
275 275 1 0.0 671.4756939394117 496.76261586383646 547.0374856416745 # Ar
276 276 1 0.0 403.3246153157865 109.64934557011166 780.8964250415108 # Ar
277 277 1 0.0 297.53069137829453 706.7693741025947 160.45477984814795 # Ar
278 278 1 0.0 412.4022761837822 690.5733347640788 304.0457918255039 # Ar
279 279 1 0.0 382.0556275069305 123.7152351052485 745.3706968400423 # Ar
280 280 1 0.0 794.8507207506944 585.8250631558507 41.218970435580836 # Ar
281 281 1 0.0 750.6230889487287 571.5497949959723 98.29634497156907 # Ar
282 282 1 0.0 490.24448538073307 763.4358795950388 783.6168529894217 # Ar
283 283 1 0.0 445.0946838756487 180.4551739554211 160.59983373945096 # Ar
284 284 1 0.0 229.44598518134723 95.93919431820817 133.22528215152457 # Ar
285 285 1 0.0 17.517496276297756 0.5513801829327556 107.68545181624772 # Ar
286 286 1 0.0 655.7629271693262 317.60478684194493 680.2042250010013 # Ar
287 287 1 0.0 796.9728264228334 466.3951151856672 196.72390513142008 # Ar
288 288 1 0.0 416.10908492018297 612.6033543249146 725.3992168017414 # Ar
289 289 1 0.0 784.5820055252439 0.16497622757752398 458.08561458395786 # Ar
290 290 1 0.0 764.9037232626305 41.974333911989 71.62926225114252 # Ar
291 291 1 0.0 176.85070616927723 727.3656754608241 173.3860078623776 # Ar
292 292 1 0.0 782.1192181987357 618.8576081988807 460.33813783313633 # Ar
293 293 1 0.0 7.932357715615916 24.43445016093619 354.2657008205589 # Ar
294 294 1 0.0 236.2497840429785 123.79438310590872 286.5473611153527 # Ar
295 295 1 0.0 763.5350070656198 445.52865344484945 342.5549704737738 # Ar
296 296 1 0.0 452.5896305798889 626.721820526359 510.11193534596384 # Ar
297 297 1 0.0 653.3223469188194 567.2542797742614 578.0389180657513 # Ar
298 298 1 0.0 282.6928445502372 180.4262422747155 551.5780417143874 # Ar
299 299 1 0.0 806.4188664852601 639.4062957128366 305.760094051125 # Ar
300 300 1 0.0 413.37048156198586 389.1603375254705 796.3298995637151 # Ar
301 301 1 0.0 462.2590620414459 312.14454577179623 667.5994068261447 # Ar
302 302 1 0.0 533.5418096615066 346.01118530431 419.0387048015006 # Ar
303 303 1 0.0 127.9122137256491 728.1972033726088 296.6540038677896 # Ar
304 304 1 0.0 132.6307224557457 374.7804595264964 27.641807662562726 # Ar
305 305 1 0.0 769.3829027600526 231.4246620523611 30.71576035609933 # Ar
306 306 1 0.0 465.5112346081739 237.8558244448259 364.11083242997876 # Ar
307 307 1 0.0 725.4379228309689 345.25256654217526 563.5309343103119 # Ar
308 308 1 0.0 314.0595743254187 611.7604106062219 207.84196110540353 # Ar
309 309 1 0.0 435.1386892990761 83.83257695492891 614.7081361508797 # Ar
310 310 1 0.0 715.6110442851956 251.75440468779132 796.9961622318685 # Ar
311 311 1 0.0 389.8920194573241 173.9949847845546 416.39236022608407 # Ar
312 312 1 0.0 499.10567122559377 263.05009844002393 207.3837668650196 # Ar
313 313 1 0.0 448.22538743922536 426.2629616885493 752.2150149079183 # Ar
314 314 1 0.0 535.3289603798294 493.179270867381 116.17437519190578 # Ar
315 315 1 0.0 440.14965367946576 807.4770071062401 776.4206903126576 # Ar
316 316 1 0.0 752.0552641442549 299.1704579121803 789.173727879929 # Ar
317 317 1 0.0 811.8669615413974 20.857764586675238 354.6108491895276 # Ar
318 318 1 0.0 634.0838939238699 621.594404532249 292.3486303862662 # Ar
319 319 1 0.0 741.1401935274886 232.77419712952607 620.4063547197094 # Ar
320 320 1 0.0 557.6304695996774 337.53315565229883 231.78408726886423 # Ar
321 321 1 0.0 286.9925612171968 492.09904398434105 87.58277335753087 # Ar
322 322 1 0.0 769.962433325345 666.7244481775876 776.0661659436669 # Ar
323 323 1 0.0 272.20159824376543 443.9584442339067 805.3551401141636 # Ar
324 324 1 0.0 277.9104383165433 749.6483587953169 183.34096444327554 # Ar
325 325 1 0.0 438.8000974527017 718.0536782304722 29.794808739082683 # Ar
326 326 1 0.0 608.1440716471031 264.5684876271035 502.4566374243461 # Ar
327 327 1 0.0 128.235815889758 740.570161839423 565.4154046944818 # Ar
328 328 1 0.0 53.62003967114612 714.8741468381103 270.80082504975576 # Ar
329 329 1 0.0 646.3322997504282 355.5297156298194 448.94101114062954 # Ar
330 330 1 0.0 458.9391350780285 599.086087401373 63.92330503809192 # Ar
331 331 1 0.0 391.5243802127899 9.583489615888425 544.2117697661953 # Ar
332 332 1 0.0 518.5478373118174 794.4308178507414 485.1859490076438 # Ar
333 333 1 0.0 35.191725325506646 106.03698794090604 323.85271636128573 # Ar
334 334 1 0.0 626.6602724741607 193.04088642570585 433.48667840568055 # Ar
335 335 1 0.0 494.4799120790108 93.13326679115762 536.733174892647 # Ar
336 336 1 0.0 67.80200643268805 197.90768598671673 50.01499062573587 # Ar
337 337 1 0.0 63.11813281840285 46.71807094852818 586.230317608518 # Ar
338 338 1 0.0 464.661530667983 531.7251001969471 610.2532294161306 # Ar
339 339 1 0.0 79.39113006774781 265.64573405031376 141.63568356936426 # Ar
340 340 1 0.0 508.7367517269775 165.34676563368913 11.481033503785834 # Ar
341 341 1 0.0 442.7512956694361 617.6409379164651 529.1881555929008 # Ar
342 342 1 0.0 741.3300513600861 325.88607903348054 592.8195766223848 # Ar
343 343 1 0.0 436.74141738266263 143.6876604642183 749.8310953477699 # Ar
344 344 1 0.0 596.216733222609 809.0189531808368 532.7761986667332 # Ar
345 345 1 0.0 39.395656870629345 169.83489013484035 332.9877496140353 # Ar
346 346 1 0.0 606.6921290828321 709.4228975966985 270.4637155890196 # Ar
347 347 1 0.0 30.284415554167854 411.7533242490703 376.78932831628026 # Ar
348 348 1 0.0 309.7279206164081 13.802047037324307 411.032423490191 # Ar
349 349 1 0.0 22.984970671260456 204.34750460349792 589.8454575498847 # Ar
350 350 1 0.0 123.25974336014237 93.38920027190474 590.4629261750932 # Ar
351 351 1 0.0 379.66200587333464 298.6442917345345 299.72870489051957 # Ar
352 352 1 0.0 675.0312506977585 525.1656292173992 332.7258641188874 # Ar
353 353 1 0.0 496.0138538007745 209.83287625656155 565.2291958859801 # Ar
354 354 1 0.0 579.8865870379259 17.38156487868654 539.7786107991834 # Ar
355 355 1 0.0 53.85795458254638 368.98128580355757 451.01496761687343 # Ar
356 356 1 0.0 748.9399647761846 16.168519636430744 502.0872602329111 # Ar
357 357 1 0.0 684.6227338209437 376.7813477313804 90.5801930557868 # Ar
358 358 1 0.0 431.4389504660842 359.5558551696289 252.45233548298796 # Ar
359 359 1 0.0 296.6720318764289 748.6924319784403 388.1701205119889 # Ar
360 360 1 0.0 160.14699901553803 319.47229940217596 136.370694321224 # Ar
361 361 1 0.0 794.9821612201225 18.979259992787032 187.50952466348943 # Ar
362 362 1 0.0 719.7891646635373 373.67534385752964 656.0054211995404 # Ar
363 363 1 0.0 596.661685929196 591.6727865047768 675.8123023891326 # Ar
364 364 1 0.0 762.9838272752459 121.79928752432906 596.770626423146 # Ar
365 365 1 0.0 295.86701438809064 223.59978519508107 145.02928041067335 # Ar
366 366 1 0.0 104.43172316731614 262.9105811191425 186.349333628483 # Ar
367 367 1 0.0 253.39679054995895 94.1247018612987 309.4830518497194 # Ar
368 368 1 0.0 466.41027623908354 197.22713906114657 629.8265517908449 # Ar
369 369 1 0.0 51.87952428781184 662.2182972994304 399.0121533980336 # Ar
370 370 1 0.0 414.277253454148 710.043049369841 681.1640415388439 # Ar
371 371 1 0.0 264.12867002011916 555.9977816927412 218.17929343459156 # Ar
372 372 1 0.0 368.023489968436 346.3896903136551 809.1542524623788 # Ar
373 373 1 0.0 327.99406952424437 293.3286213794273 602.8802076031559 # Ar
374 374 1 0.0 775.9663050887038 407.18351276647905 477.5166227754205 # Ar
375 375 1 0.0 686.7111996196045 442.7668175374212 380.5202361254504 # Ar
376 376 1 0.0 328.8204425759139 92.45847351537074 763.407939885972 # Ar
377 377 1 0.0 79.59226414538057 87.00618035992824 648.8583796538891 # Ar
378 378 1 0.0 310.81123267972833 317.81742665989265 315.0426010870726 # Ar
379 379 1 0.0 721.9546090396697 632.0677094949625 67.70623598121706 # Ar
380 380 1 0.0 782.2380035072159 513.1611545152923 144.84023340734743 # Ar
381 381 1 0.0 730.12209261211 155.38843417754939 72.6333295252315 # Ar
382 382 1 0.0 33.10012238045469 659.1702275740594 477.61377372078573 # Ar
383 383 1 0.0 72.56801232162478 511.72676004125765 352.40459127407786 # Ar
384 384 1 0.0 642.3110543681485 592.1469345691933 677.6834127614065 # Ar
385 385 1 0.0 222.88067624976867 696.527765495189 19.00761780659759 # Ar
386 386 1 0.0 534.9928100924005 307.5890667100077 410.26499632529965 # Ar
387 387 1 0.0 765.5047132134289 53.017005451619525 639.7839234574753 # Ar
388 388 1 0.0 254.6116950626118 483.40881044626013 100.92298075356372 # Ar
389 389 1 0.0 527.0266260748487 688.6091310833225 39.915276185515566 # Ar
390 390 1 0.0 68.90948211112135 303.32145940826473 488.44175505119244 # Ar
391 391 1 0.0 792.0174427494624 755.3990229773094 229.13946920382978 # Ar
392 392 1 0.0 58.388784773127895 289.4497753102216 371.69259786110126 # Ar
393 393 1 0.0 559.9416340951105 785.368026857556 626.5646226075118 # Ar
394 394 1 0.0 102.57509165490781 431.59665937852344 809.0139725756486 # Ar
395 395 1 0.0 148.44996565187043 322.115348561702 155.49183614851526 # Ar
396 396 1 0.0 632.5380675419118 261.4851067661662 743.9917785075961 # Ar
397 397 1 0.0 243.37958127553262 636.1222911567223 779.6488304305047 # Ar
398 398 1 0.0 104.32524804709979 267.5988977882729 678.5091763155827 # Ar
399 399 1 0.0 265.0185469675133 613.3213081805817 668.6751301646709 # Ar
400 400 1 0.0 553.0876989429794 548.4913936276763 560.8777161647313 # Ar
401 401 1 0.0 521.2806626428528 773.2458389899546 152.60725968811096 # Ar
402 402 1 0.0 356.7485835517417 190.65699283250146 171.3167547609946 # Ar
403 403 1 0.0 745.76646628696 624.1005063756755 550.8771646238982 # Ar
404 404 1 0.0 390.42387860696095 556.9764342633076 541.869107663711 # Ar
405 405 1 0.0 744.99050440172 525.4748536177301 454.4036063455645 # Ar
406 406 1 0.0 797.4485384773626 442.45933117514755 802.0000603165548 # Ar
407 407 1 0.0 227.5521131772014 409.22538737230076 738.7708808157663 # Ar
408 408 1 0.0 607.4271228028331 810.8763229045859 192.04732294092955 # Ar
409 409 1 0.0 17.445688877291257 224.01116193873787 798.9331752500331 # Ar
410 410 1 0.0 299.5853121419871 54.85115372131415 101.88580872793892 # Ar
411 411 1 0.0 152.59944184887559 663.3045905809096 523.2251816675836 # Ar
412 412 1 0.0 396.53767443270357 485.4465280011983 297.35519822064316 # Ar
413 413 1 0.0 633.6829219738796 519.8660568631684 336.2203841825955 # Ar
414 414 1 0.0 516.188581849857 660.9596807256404 699.9961606599559 # Ar
415 415 1 0.0 481.04855065047525 10.953841151692442 298.4662944619353 # Ar
416 416 1 0.0 463.64584992631336 466.2868466552815 335.56937819757724 # Ar
417 417 1 0.0 53.178110623832715 660.2226022856933 489.7727480671921 # Ar
418 418 1 0.0 746.0466403299693 42.434156726686375 763.4201343417892 # Ar
419 419 1 0.0 674.5262619775885 466.6242714067262 792.4617315243606 # Ar
420 420 1 0.0 40.6751395444853 284.3551723196513 688.7736570604445 # Ar
421 421 1 0.0 386.9547814935461 243.12355661998797 133.06636308095344 # Ar
422 422 1 0.0 30.57594124220873 342.5602059952963 479.2633128501625 # Ar
423 423 1 0.0 239.4242157028685 793.5287976956507 607.1441631805467 # Ar
424 424 1 0.0 746.2804791954239 338.7567486226953 236.27156571801981 # Ar
425 425 1 0.0 488.13286893435543 274.8769706483694 148.69124661817676 # Ar
426 426 1 0.0 22.86508618735117 51.89138737196226 346.3126268613866 # Ar
427 427 1 0.0 295.98086554925027 279.55408997051813 429.4128247625986 # Ar
428 428 1 0.0 57.584411418847466 354.07002509118416 351.18313109842984 # Ar
429 429 1 0.0 777.639952567538 401.0314130189755 261.0881910818785 # Ar
430 430 1 0.0 551.5832431654039 468.4061081928148 294.6409291255539 # Ar
431 431 1 0.0 130.1882438229694 334.4218948231803 136.1619420597789 # Ar
432 432 1 0.0 670.3830165648287 452.8952217230936 657.9003484253749 # Ar
433 433 1 0.0 532.9769924829877 539.6083830678584 713.2089957380347 # Ar
434 434 1 0.0 134.59766179952177 467.9807211267631 125.90378270183558 # Ar
435 435 1 0.0 549.8631962383228 309.2454792688022 179.47531254194018 # Ar
436 436 1 0.0 13.682836446409835 326.00265081595046 8.168579702560656 # Ar
437 437 1 0.0 633.7169425677218 562.4932184521978 601.6796629937484 # Ar
438 438 1 0.0 506.90677359049954 606.9203227564864 397.10142749003614 # Ar
439 439 1 0.0 66.07967028000228 212.74570519189552 15.311587295986646 # Ar
440 440 1 0.0 19.889387051897334 589.5260278770155 206.67143082475158 # Ar
441 441 1 0.0 47.372122333341764 218.06835912783387 44.99836685758568 # Ar
442 442 1 0.0 563.8480891281879 375.4864646677819 497.8539718391889 # Ar
443 443 1 0.0 368.4895308541652 135.1493777121524 14.213892792045256 # Ar
444 444 1 0.0 799.7101970368667 706.2430502061407 420.94400502215024 # Ar
445 445 1 0.0 138.5875997673991 92.09788326016599 340.72707601781445 # Ar
446 446 1 0.0 783.5750044399449 366.5524934834484 678.3782532213166 # Ar
447 447 1 0.0 211.932829615375 81.4321979734579 451.41792480997077 # Ar
448 448 1 0.0 788.4822710927647 705.8075649962783 472.5911373027337 # Ar
449 449 1 0.0 655.9710067336122 365.3359009537919 166.10696583192714 # Ar
450 450 1 0.0 752.1711769662214 386.5165689385756 714.3555885823959 # Ar
451 451 1 0.0 723.4576151742862 584.0698809788781 676.9618146316072 # Ar
452 452 1 0.0 664.2454023356439 249.00055660544655 400.1878313437153 # Ar
453 453 1 0.0 343.11503116344954 93.02035712552676 115.33489250065678 # Ar
454 454 1 0.0 801.9900344723753 326.3937663355729 467.3815570079736 # Ar
455 455 1 0.0 425.4675014624056 84.85310398487587 440.2715848163954 # Ar
456 456 1 0.0 743.368371857274 375.6250641686951 592.2871050616241 # Ar
457 457 1 0.0 674.9203719226731 152.5485377085242 645.6095385168605 # Ar
458 458 1 0.0 383.7735173663715 337.6905391861328 290.91925221093584 # Ar
459 459 1 0.0 753.8959245447347 169.78055701311334 458.942607164411 # Ar
460 460 1 0.0 27.42051254449786 243.52497711248836 200.38664574778042 # Ar
461 461 1 0.0 203.41242428572556 63.17795619349576 775.9431080667855 # Ar
462 462 1 0.0 465.97374290114175 508.24268334945873 250.5633856370152 # Ar
463 463 1 0.0 514.4242938617916 254.072632949904 60.015878061911714 # Ar
464 464 1 0.0 91.0433600866868 266.7340819747599 23.518281307865518 # Ar
465 465 1 0.0 765.5320984107796 169.25744276816616 682.6552269118783 # Ar
466 466 1 0.0 36.21952303295578 387.4203804719394 440.6878690893343 # Ar
467 467 1 0.0 468.89878918931964 441.0366137744739 640.0943367168279 # Ar
468 468 1 0.0 597.8876051401159 444.9657387613113 540.4183117903799 # Ar
469 469 1 0.0 668.3616534085481 453.55220266565726 730.0286401823854 # Ar
470 470 1 0.0 328.5986665079076 115.02002779082623 521.9154096224662 # Ar
471 471 1 0.0 19.0970113052534 193.68349986632734 544.7790497235528 # Ar
472 472 1 0.0 171.26150322262535 778.3596696637122 725.7346953160131 # Ar
473 473 1 0.0 500.7891291932558 714.6868238053491 543.4448636011502 # Ar
474 474 1 0.0 803.2824112739648 309.8134074263007 241.72037881701272 # Ar
475 475 1 0.0 781.4645773399059 277.9684876223298 489.10334962738364 # Ar
476 476 1 0.0 165.4459457585599 179.4585390875753 460.5912219804378 # Ar
477 477 1 0.0 44.2542635792674 365.3303699552281 366.97968957505 # Ar
478 478 1 0.0 686.0677422643053 450.22044831591825 685.5435433260242 # Ar
479 479 1 0.0 709.4410377491442 370.43287495453234 341.9560355458411 # Ar
480 480 1 0.0 258.3713143633401 570.3312902299198 629.7533421741468 # Ar
481 481 1 0.0 350.8625995633191 816.759847957244 806.2458019200861 # Ar
482 482 1 0.0 54.94045146467279 244.1251556356664 328.4705067132669 # Ar
483 483 1 0.0 669.3521667052152 34.35934215916525 649.466110687336 # Ar
484 484 1 0.0 787.7539079572973 218.61156818247082 661.7577371694929 # Ar
485 485 1 0.0 455.9203956795799 43.39974042473851 29.57161063967762 # Ar
486 486 1 0.0 541.2952369528458 519.6957106898776 537.2750183677445 # Ar
487 487 1 0.0 561.0875869725216 244.81471918441005 300.7049083108391 # Ar
488 488 1 0.0 67.48700131815177 415.2138164178609 226.6972980908169 # Ar
489 489 1 0.0 698.0234863405739 701.0205133405789 343.26900991238915 # Ar
490 490 1 0.0 301.83055829887905 23.268027168920835 152.9910759256187 # Ar
491 491 1 0.0 698.7996591128224 625.4858711822544 314.76397590879884 # Ar
492 492 1 0.0 379.8719813131585 134.00380261694264 281.8637658266572 # Ar
493 493 1 0.0 807.6864380280065 293.9959328306407 634.3819475238981 # Ar
494 494 1 0.0 245.98251080286673 1.001083400793697 480.87406290780143 # Ar
495 495 1 0.0 586.157245740402 213.99951601320117 134.38774107606807 # Ar
496 496 1 0.0 187.25591728093002 49.28482861709611 249.1416424021435 # Ar
497 497 1 0.0 261.7627404920979 259.3869779067659 666.7618337046355 # Ar
498 498 1 0.0 567.622850425669 466.5391369163079 233.60553243661738 # Ar
499 499 1 0.0 715.8044308077203 583.9590051860846 511.9036758648141 # Ar
500 500 1 0.0 166.16383260989454 424.749403635148 625.5375414387441 # Ar
501 501 1 0.0 249.11685695156677 722.6500771596085 114.23614211371864 # Ar
502 502 1 0.0 670.8592275522019 440.0388557811433 336.995095884068 # Ar
503 503 1 0.0 70.14196972961044 201.41277687607175 94.02414663363824 # Ar
504 504 1 0.0 793.2938393614444 145.5983483577325 474.59907196176346 # Ar
505 505 1 0.0 294.2060233198726 690.2237255862049 15.68834834022703 # Ar
506 506 1 0.0 462.1845961730008 758.6483340978042 16.113221520465853 # Ar
507 507 1 0.0 457.6444737124528 67.72224626906711 85.85261972316721 # Ar
508 508 1 0.0 642.0875803164039 404.2742551884748 377.3253606111033 # Ar
509 509 1 0.0 122.80582299322091 347.12181218913605 737.9416472963692 # Ar
510 510 1 0.0 146.0319383381655 482.90137667656353 647.8929686970716 # Ar
511 511 1 0.0 178.85881231003873 248.33445431612503 163.39710627882985 # Ar
512 512 1 0.0 108.39147112747914 280.1371440748721 732.3743962711951 # Ar
513 513 1 0.0 794.0556618842979 25.235490875341792 102.90735673880677 # Ar
514 514 1 0.0 226.60953157883873 712.3986714777917 687.3809270283222 # Ar
515 515 1 0.0 727.8974189332209 581.3632220450286 739.9214312411988 # Ar
516 516 1 0.0 537.1105740807004 476.76531644650646 210.74985483206294 # Ar
517 517 1 0.0 302.7893770222033 424.97201248424415 52.039421163578766 # Ar
518 518 1 0.0 725.238306194443 444.5546434980569 734.7437259028725 # Ar
519 519 1 0.0 636.447337012723 464.56454911340546 465.4407587370125 # Ar
520 520 1 0.0 21.546821047623023 606.0871171722166 799.7159711500404 # Ar
521 521 1 0.0 608.6042491792705 690.699713103543 303.3938152879389 # Ar
522 522 1 0.0 439.3988289486175 314.44426264478426 508.4230555891466 # Ar
523 523 1 0.0 454.9219489733279 419.0138236753539 584.8980282119114 # Ar
524 524 1 0.0 277.2172410820644 313.56357999579865 646.632073318491 # Ar
525 525 1 0.0 711.2768905272919 601.5057128400595 686.845200685201 # Ar
526 526 1 0.0 647.0135909197276 586.9742687807175 110.64383230546616 # Ar
527 527 1 0.0 320.4530392432841 687.2953755192674 586.6420510348484 # Ar
528 528 1 0.0 764.0384794376655 531.9674422447936 22.26358088568006 # Ar
529 529 1 0.0 21.92582128283642 161.98351624254266 300.3593844763331 # Ar
530 530 1 0.0 479.86033002014204 787.92536512481 118.00815356238382 # Ar
531 531 1 0.0 119.41487328082837 706.3796716894007 181.0575613407771 # Ar
532 532 1 0.0 295.8138894811725 183.08844197938134 89.59652323312226 # Ar
533 533 1 0.0 717.1578064728553 447.86282204468654 493.7351240018327 # Ar
534 534 1 0.0 255.1214462944893 633.2529060667722 796.0899777220887 # Ar
535 535 1 0.0 352.8230955222404 182.68355112406007 294.2983152531635 # Ar
536 536 1 0.0 504.275970421525 545.7699989997545 568.0593714212163 # Ar
537 537 1 0.0 613.0202648743677 676.2131132555484 303.8498826137143 # Ar
538 538 1 0.0 504.7828897971617 160.95401912675578 239.5816339422884 # Ar
539 539 1 0.0 812.6601966432877 214.39605284386272 687.301481459861 # Ar
540 540 1 0.0 748.8599631226006 17.058129510360956 198.3684474537022 # Ar
541 541 1 0.0 522.0789891291408 388.87495650983277 585.1884407488969 # Ar
542 542 1 0.0 610.443940106964 206.3923167004783 141.2336251478875 # Ar
543 543 1 0.0 344.1889379114956 326.50442247847843 622.5743280712863 # Ar
544 544 1 0.0 47.90991915208954 479.11684029425527 649.458797030517 # Ar
545 545 1 0.0 133.0136106861951 85.09475135394452 110.42279729055835 # Ar
546 546 1 0.0 646.5763083796959 549.8603360810606 170.98677216597272 # Ar
547 547 1 0.0 62.00834895699031 738.6489764938904 442.57859909746696 # Ar
548 548 1 0.0 361.57401444814735 223.7094146298986 21.33334485968152 # Ar
549 549 1 0.0 527.4041627578307 748.662327114308 304.84829620889394 # Ar
550 550 1 0.0 510.49642867713317 720.0095140296469 647.1469764533757 # Ar
551 551 1 0.0 50.07362694194323 507.2658223120122 82.37790854549414 # Ar
552 552 1 0.0 369.59676311284824 41.72994974332629 409.329516059875 # Ar
553 553 1 0.0 198.44641700304132 762.6135004707918 749.6216083155093 # Ar
554 554 1 0.0 102.91500235383374 745.9108986579956 42.20389991507707 # Ar
555 555 1 0.0 570.2789245434867 743.2705740009931 406.6999023401838 # Ar
556 556 1 0.0 795.4146655414327 135.22395840954525 730.7782074054712 # Ar
557 557 1 0.0 739.580763251616 305.89848753986996 55.0561137596202 # Ar
558 558 1 0.0 403.26534460983027 458.15667895039337 184.40386465169058 # Ar
559 559 1 0.0 614.8971285831843 109.5492471801891 203.66922348452775 # Ar
560 560 1 0.0 11.559608826989646 21.630201949604075 184.8171552231086 # Ar
561 561 1 0.0 421.2307382116318 650.0327173821863 415.30104692903853 # Ar
562 562 1 0.0 509.77264250072426 138.20411737989383 787.4773817400093 # Ar
563 563 1 0.0 230.2513771848811 5.219786846495914 132.96874269612866 # Ar
564 564 1 0.0 265.66379080207673 448.6059294853371 191.23720886847215 # Ar
565 565 1 0.0 175.70825048352515 338.0814139034 121.69565516342206 # Ar
566 566 1 0.0 157.04531376263728 652.1033471314526 20.658967744397547 # Ar
567 567 1 0.0 210.5049018967322 419.86103182507827 540.507117512605 # Ar
568 568 1 0.0 551.0066383401359 295.58059689339615 157.2882649548149 # Ar
569 569 1 0.0 218.94719501019028 342.04823369589747 186.7352625290345 # Ar
570 570 1 0.0 512.9793340057845 758.0019218336381 430.92776719381703 # Ar
571 571 1 0.0 202.59125043112408 456.48929146880744 202.21556425572058 # Ar
572 572 1 0.0 647.935339930424 772.8465658016652 304.26985123140827 # Ar
573 573 1 0.0 585.6156082633797 720.7335454646287 662.9065564381997 # Ar
574 574 1 0.0 633.3697290057582 185.48352490759052 164.3108931471309 # Ar
575 575 1 0.0 188.89332124896626 96.54830398806801 236.97224373305676 # Ar
576 576 1 0.0 417.7298695713154 633.8220176862656 13.226232564225247 # Ar
577 577 1 0.0 606.8008049779339 326.8639005384761 441.27842608167487 # Ar
578 578 1 0.0 505.7929504788338 345.74971945982145 793.1103979945502 # Ar
579 579 1 0.0 433.48934658159675 396.3618365736222 175.8040558405821 # Ar
580 580 1 0.0 746.2432634579775 159.69355356795586 556.525284573775 # Ar
581 581 1 0.0 749.3252787336894 426.29916827365645 810.316051980447 # Ar
582 582 1 0.0 352.95442485793177 663.5595194753869 807.8360553215183 # Ar
583 583 1 0.0 510.1789077508182 771.9729667220844 153.55073740155302 # Ar
584 584 1 0.0 407.1859379498076 540.4835923383928 107.18851172919908 # Ar
585 585 1 0.0 779.7401412100157 516.2540625219755 602.9347843026234 # Ar
586 586 1 0.0 398.29927359568785 18.425439114883012 168.0871545546023 # Ar
587 587 1 0.0 470.4329425059656 151.21133106421075 29.328499035888683 # Ar
588 588 1 0.0 623.2295816643632 229.2883340504015 431.5056418192894 # Ar
589 589 1 0.0 432.9749574418767 323.1868618016937 309.6344603117761 # Ar
590 590 1 0.0 356.3549362501649 3.269916032477288 212.1107455298412 # Ar
591 591 1 0.0 233.69694242546163 590.7298951489155 2.117606280465234 # Ar
592 592 1 0.0 408.0607693187053 388.77208893794324 512.8571874331923 # Ar
593 593 1 0.0 489.38841037524406 752.1668261916376 245.8355107519159 # Ar
594 594 1 0.0 241.76243195909714 767.983873864251 201.77591562465923 # Ar
595 595 1 0.0 467.3417602574553 165.84152888399518 304.2968268884159 # Ar
596 596 1 0.0 784.9667806973758 189.2041427717343 698.5464160951617 # Ar
597 597 1 0.0 568.0341851709106 258.85626066357173 173.5913270500488 # Ar
598 598 1 0.0 622.7571140691433 263.76060383531154 495.14159673079763 # Ar
599 599 1 0.0 792.8467221286958 264.5631995439474 46.208947047933236 # Ar
600 600 1 0.0 479.2070754172761 629.4487447361463 415.39967721116193 # Ar
601 601 1 0.0 291.4306730315537 559.1530463460392 747.8288221799471 # Ar
602 602 1 0.0 478.074592883476 601.907279516117 298.8566631849285 # Ar
603 603 1 0.0 309.75165025555606 508.86918282319175 521.45082622572 # Ar
604 604 1 0.0 258.3134559840405 279.2935634122127 611.5714289045526 # Ar
605 605 1 0.0 121.01640863736426 3.2989110924352985 61.39096650371888 # Ar
606 606 1 0.0 359.08130043136043 223.35733942508585 799.6535346506327 # Ar
607 607 1 0.0 32.43636815234121 705.517552793217 56.10921235943829 # Ar
608 608 1 0.0 389.56765828622434 41.54678368235056 549.2248841983987 # Ar
609 609 1 0.0 73.658372170659 358.5426851883 81.01385001118098 # Ar
610 610 1 0.0 234.46622779093468 96.56771746538392 536.9646211915101 # Ar
611 611 1 0.0 270.2606865253121 408.69040594607736 175.12085107062003 # Ar
612 612 1 0.0 438.2257599956394 282.0204166752969 276.0173722306097 # Ar
613 613 1 0.0 438.8561106291066 556.3082538941925 216.0770036756615 # Ar
614 614 1 0.0 10.350764296914772 402.14701517419064 638.0314969320699 # Ar
615 615 1 0.0 92.96756804881535 708.4266552221532 173.35949879811966 # Ar
616 616 1 0.0 321.93001797979656 414.20438798193834 565.1182637314075 # Ar
617 617 1 0.0 377.39872535527354 369.65270076614047 144.66931252000768 # Ar
618 618 1 0.0 250.85700099461442 215.30108416110343 417.95894267374996 # Ar
619 619 1 0.0 69.21122018908989 612.0719678551548 100.34671892438399 # Ar
620 620 1 0.0 815.558237467246 624.5980050034856 534.2643758009768 # Ar
621 621 1 0.0 737.5920037648311 626.382971025944 161.2158521956684 # Ar
622 622 1 0.0 673.7122054836694 575.3679170565582 41.864704991107295 # Ar
623 623 1 0.0 469.37290486747816 486.9083549025637 464.60139186060115 # Ar
624 624 1 0.0 642.1654781525208 770.4925780759868 312.0253108078603 # Ar
625 625 1 0.0 417.1590998775249 236.2442790335306 151.6077813169388 # Ar
626 626 1 0.0 724.4652936612176 8.205332234242986 65.05818127968342 # Ar
627 627 1 0.0 158.14120787385292 16.701051899851514 150.78864903251312 # Ar
628 628 1 0.0 22.387351845641522 183.41908496002074 696.4940337119107 # Ar
629 629 1 0.0 115.96052004378531 117.39166241606662 9.749799006025635 # Ar
630 630 1 0.0 722.3801877948928 247.89700535603237 646.6129606380247 # Ar
631 631 1 0.0 83.93634518648477 371.6164676829521 522.9304931543729 # Ar
632 632 1 0.0 204.80718934137093 122.54137949175798 247.95695392137475 # Ar
633 633 1 0.0 734.7407524665006 223.31204914391233 638.0130787981147 # Ar
634 634 1 0.0 247.55071930566803 3.3864201709054607 780.8871623713818 # Ar
635 635 1 0.0 586.9784296682893 460.3441996542601 363.97988669026824 # Ar
636 636 1 0.0 170.51744963159797 442.16673175336746 542.101729947434 # Ar
637 637 1 0.0 148.92754126268258 673.8099414783509 483.568529923325 # Ar
638 638 1 0.0 562.9250152916245 47.69157190522003 199.62706626464237 # Ar
639 639 1 0.0 645.0792727539584 535.8446448031408 365.7780440033786 # Ar
640 640 1 0.0 245.21297769560897 387.76121692925955 769.5278903579664 # Ar
641 641 1 0.0 496.6192180924917 596.5857531183491 129.8293960542917 # Ar
642 642 1 0.0 253.937453941771 383.6113475050856 409.6684097481918 # Ar
643 643 1 0.0 385.97108379336845 632.2637749325112 757.5545879286019 # Ar
644 644 1 0.0 382.2150308432326 765.9337335844888 192.69849236809785 # Ar
645 645 1 0.0 475.4301492805768 256.5730219624343 658.025301589872 # Ar
646 646 1 0.0 727.1273526349701 556.5302969758809 92.85907244645274 # Ar
647 647 1 0.0 258.57751345498883 559.0721156453596 73.30015952464532 # Ar
648 648 1 0.0 350.5820735797695 207.5510387416063 517.054780543642 # Ar
649 649 1 0.0 238.04440697181798 39.56975800553891 291.9575816156713 # Ar
650 650 1 0.0 15.19127522184859 724.2815755199509 67.66915353817099 # Ar
651 651 1 0.0 88.10343434360253 48.34913581094369 566.7000626850927 # Ar
652 652 1 0.0 533.8242081579591 502.10634922500464 310.001411600562 # Ar
653 653 1 0.0 630.4671656943483 701.0665162889462 271.22478171003985 # Ar
654 654 1 0.0 141.76578556103095 531.1838304935759 243.36616465842184 # Ar
655 655 1 0.0 656.4407501915791 567.9561704162095 285.66019023492663 # Ar
656 656 1 0.0 443.3758525500875 163.07427175207303 649.5600799493222 # Ar
657 657 1 0.0 167.64015968382415 669.930847529377 617.0034058005511 # Ar
658 658 1 0.0 32.71002922278805 280.68930961100773 544.4083044341495 # Ar
659 659 1 0.0 363.99317502534916 146.16095548968585 668.1344541739616 # Ar
660 660 1 0.0 570.5617354877678 434.99112250851005 225.80104912037305 # Ar
661 661 1 0.0 343.40009939038936 568.3502141339892 466.50882876851017 # Ar
662 662 1 0.0 373.25372566143193 745.3196616441537 537.4938757455537 # Ar
663 663 1 0.0 787.6425427940795 251.10633697895554 60.27413130732459 # Ar
664 664 1 0.0 635.535735391091 769.9109415985706 282.57358790420335 # Ar
665 665 1 0.0 365.7001151354916 735.968972081467 444.3191414930401 # Ar
666 666 1 0.0 260.0169473035196 447.5545448431311 398.5635378152423 # Ar
667 667 1 0.0 254.0409936902662 152.56301557656062 503.8161703481925 # Ar
668 668 1 0.0 428.4168346785107 550.6167508489224 140.88122462794124 # Ar
669 669 1 0.0 306.2207332245527 180.24893915522765 75.62202628057346 # Ar
670 670 1 0.0 222.59124794403985 168.76666034589886 688.4436301978536 # Ar
671 671 1 0.0 480.0978598471428 479.491040581628 692.3680845346832 # Ar
672 672 1 0.0 386.11310872907916 110.84007003775722 73.19850382614275 # Ar
673 673 1 0.0 14.63137003419859 480.63678534643316 571.9612636067507 # Ar
674 674 1 0.0 655.3492035387688 435.9775235602921 618.755607356086 # Ar
675 675 1 0.0 578.3769620386347 582.0889980503889 478.0864018692406 # Ar
676 676 1 0.0 107.38813447977351 159.76563180897392 213.78677692495435 # Ar
677 677 1 0.0 23.195451944442592 618.1240425210691 178.03878408517755 # Ar
678 678 1 0.0 796.4468914503137 636.6270045823841 272.7140867882546 # Ar
679 679 1 0.0 202.74565398648946 774.4186974988507 751.0358990719088 # Ar
680 680 1 0.0 27.569993184690638 120.19049828822783 137.17662775040446 # Ar
681 681 1 0.0 553.4769398876574 461.11893735386315 331.9781570203572 # Ar
682 682 1 0.0 724.51282922593 127.00505577573017 46.25355087398446 # Ar
683 683 1 0.0 7.229097785646574 761.9190311440268 337.1379220983083 # Ar
684 684 1 0.0 628.3154219240217 423.48950092772884 792.1716750128809 # Ar
685 685 1 0.0 714.7517572085889 596.4910893854035 261.657429066624 # Ar
686 686 1 0.0 198.8208983609552 4.2561646007697425 241.79407480560351 # Ar
687 687 1 0.0 186.89193850839683 773.232662864742 543.5568989386974 # Ar
688 688 1 0.0 334.46507825499464 412.922859996531 175.9009033554873 # Ar
689 689 1 0.0 209.68913755061894 152.99347436535882 128.91970830466232 # Ar
690 690 1 0.0 768.1552629134507 665.026764709106 184.3138441336246 # Ar
691 691 1 0.0 322.2314393476613 616.8683347472029 6.672151917865452 # Ar
692 692 1 0.0 650.8305621064244 332.4032781151637 390.7649033019298 # Ar
693 693 1 0.0 205.73863063450523 299.5119783154986 594.7355008881676 # Ar
694 694 1 0.0 314.49165428916115 152.19874335749796 544.644428296391 # Ar
695 695 1 0.0 537.9841035106354 243.69218792854383 559.0623065320323 # Ar
696 696 1 0.0 757.084258920052 514.4409869143966 228.55390232325576 # Ar
697 697 1 0.0 371.0578694953148 614.5746986866654 581.320710031941 # Ar
698 698 1 0.0 441.5509969596529 518.451141890751 139.6652464116238 # Ar
699 699 1 0.0 231.55777780910577 271.35711397273457 566.0291653690344 # Ar
700 700 1 0.0 93.53639022594986 789.8745509517763 309.93623371407557 # Ar
701 701 1 0.0 45.61434954105332 642.567568782193 816.4469683258653 # Ar
702 702 1 0.0 635.2221574450436 129.62508790590613 731.4426963190947 # Ar
703 703 1 0.0 326.9468198131292 420.86101214553173 173.8654885122406 # Ar
704 704 1 0.0 399.852600590043 674.012379677379 458.3547260197362 # Ar
705 705 1 0.0 228.98348989244178 41.685906656206555 551.6459428898203 # Ar
706 706 1 0.0 155.30831579055115 290.78137744149024 742.8638338070949 # Ar
707 707 1 0.0 557.4383795779089 486.76833907663746 304.85715741355347 # Ar
708 708 1 0.0 666.9886283691095 615.132186634076 209.98241162418844 # Ar
709 709 1 0.0 451.3717058966106 669.0425248105817 60.37127763144979 # Ar
710 710 1 0.0 301.4571348905612 295.79048209624216 85.0041979555791 # Ar
711 711 1 0.0 286.8726581223608 29.686702994334563 159.58943884605296 # Ar
712 712 1 0.0 761.4132555142164 469.2654290104577 92.69170076375417 # Ar
713 713 1 0.0 594.6531705565927 143.08523522355347 661.2138528376221 # Ar
714 714 1 0.0 428.2885189348317 715.5485795519646 18.66601163891481 # Ar
715 715 1 0.0 457.7191969113088 665.8495656465712 579.2880788167539 # Ar
716 716 1 0.0 116.90170436288994 712.5433793141201 730.0146825401365 # Ar
717 717 1 0.0 79.85672435540395 480.4221132842379 512.4071046959612 # Ar
718 718 1 0.0 153.60068466395978 45.33899225685999 641.4116216200325 # Ar
719 719 1 0.0 647.546625387583 111.80109055518801 210.1038269073413 # Ar
720 720 1 0.0 676.5214336086572 639.1694162521937 260.5927012031449 # Ar
721 721 1 0.0 227.13740523233068 575.4254756303234 592.1266386375438 # Ar
722 722 1 0.0 199.46429389815944 540.249534387189 261.1845869730062 # Ar
723 723 1 0.0 626.9935992047701 676.0707262138866 423.54038105782297 # Ar
724 724 1 0.0 145.78320803785937 747.2771633250438 667.8516005950507 # Ar
725 725 1 0.0 768.4905506971332 47.2831366359934 145.6803003430136 # Ar
726 726 1 0.0 556.8734524917621 216.3326909206419 581.6943221340634 # Ar
727 727 1 0.0 188.270989312103 375.18760778237214 728.8966102884766 # Ar
728 728 1 0.0 546.1600891908226 585.7317369439969 408.00219298165626 # Ar
729 729 1 0.0 4.900196270624314 11.683739810314362 657.7483244524685 # Ar
730 730 1 0.0 287.9400449281976 776.3952225541807 474.7820443447132 # Ar
731 731 1 0.0 69.22538227897057 284.68238131996293 286.1790557709288 # Ar
732 732 1 0.0 273.01427816060766 744.2223016373741 238.06401030884095 # Ar
733 733 1 0.0 688.4425090342162 182.3665742512343 713.6621280840932 # Ar
734 734 1 0.0 18.48781353020778 218.1588442292742 670.662208961595 # Ar
735 735 1 0.0 759.0200193667555 310.54065242649204 585.1499635855585 # Ar
736 736 1 0.0 380.0402528374854 388.84473725052834 324.6979480117805 # Ar
737 737 1 0.0 256.5185358238312 448.00696749386276 162.62797710799353 # Ar
738 738 1 0.0 180.33292984761533 392.6076798722577 816.4137359780595 # Ar
739 739 1 0.0 584.8617913278806 798.9593320373838 217.0831435293462 # Ar
740 740 1 0.0 702.8188508590475 62.57182572025997 685.2781837091992 # Ar
741 741 1 0.0 97.65154137219406 50.14287446333468 590.4271598769553 # Ar
742 742 1 0.0 539.7761994920183 109.41680650933391 539.4161965798827 # Ar
743 743 1 0.0 72.0990434963902 423.46467511710864 617.4379076312484 # Ar
744 744 1 0.0 153.36175897727307 558.2133156170044 521.025444618702 # Ar
745 745 1 0.0 604.887643634518 713.693367311134 417.7360314125323 # Ar
746 746 1 0.0 209.2878513453566 638.5544601539773 176.29947480728484 # Ar
747 747 1 0.0 133.81568049601702 227.76949017377106 131.95022257002242 # Ar
748 748 1 0.0 236.13972163708218 630.713723991063 131.50488183752418 # Ar
749 749 1 0.0 251.8474560514412 745.9159339052957 120.92034709276709 # Ar
750 750 1 0.0 421.9197794781827 115.15178530798894 499.4042939431908 # Ar
751 751 1 0.0 727.4651833608486 138.50307069463224 658.9016742023932 # Ar
752 752 1 0.0 515.2215065740049 176.71573474184947 71.37609594206106 # Ar
753 753 1 0.0 365.5770703996446 748.661331400016 651.9522580420299 # Ar
754 754 1 0.0 502.2628713459392 617.963037944863 10.341857916844209 # Ar
755 755 1 0.0 203.77876722098893 136.25904837833164 245.10080915318713 # Ar
756 756 1 0.0 705.5234878902792 239.96003172078593 159.44543751948075 # Ar
757 757 1 0.0 582.6854141154672 677.8632638608697 772.3439325950266 # Ar
758 758 1 0.0 563.0768694689356 407.12948838097725 446.19262466863125 # Ar
759 759 1 0.0 70.42598009770042 788.4767189144844 112.80107337572278 # Ar
760 760 1 0.0 648.6854150696554 398.11728176036695 63.71453948950647 # Ar
761 761 1 0.0 58.441299928567894 152.84497769378095 218.33272605630808 # Ar
762 762 1 0.0 119.80304641327845 247.07012482540577 127.8219692582525 # Ar
763 763 1 0.0 581.5880088486034 142.56983210903368 230.32383038841547 # Ar
764 764 1 0.0 523.1549611566597 533.8719852126825 515.3659449416394 # Ar
765 765 1 0.0 327.1800298393919 153.83305595291836 508.4358515771387 # Ar
766 766 1 0.0 629.8456584582133 266.5701128902914 266.2795171171979 # Ar
767 767 1 0.0 145.54803166486016 722.7540254690937 267.7460156341114 # Ar
768 768 1 0.0 589.128950484603 177.3974049940191 264.2732579930382 # Ar
769 769 1 0.0 158.54055017784728 624.5420081368864 659.9016247170392 # Ar
770 770 1 0.0 197.99452987043148 441.69418734913336 256.57111623808055 # Ar
771 771 1 0.0 494.78578538580365 298.8780603697994 318.2346227670749 # Ar
772 772 1 0.0 737.3949178413034 786.352645609109 497.94088230784934 # Ar
773 773 1 0.0 405.4380112347026 566.713649408402 638.4107363201047 # Ar
774 774 1 0.0 283.3175995928465 662.5868274923955 267.41209024471306 # Ar
775 775 1 0.0 792.7389074415021 95.43284590055234 113.2145276452886 # Ar
776 776 1 0.0 459.67584312074155 386.2878503930462 414.3929097517262 # Ar
777 777 1 0.0 263.6771849779539 450.76366702667144 792.7805791442582 # Ar
778 778 1 0.0 684.7561685842627 499.5011746442438 359.961904249264 # Ar
779 779 1 0.0 745.0509538823204 807.6742601522309 378.17862212292505 # Ar
780 780 1 0.0 269.3868417320048 544.8547897168172 328.89287822438513 # Ar
781 781 1 0.0 786.1376941369831 786.8982078095263 277.2231159421737 # Ar
782 782 1 0.0 513.7251972879644 596.4084853302633 457.18879783543684 # Ar
783 783 1 0.0 371.15331131792857 411.8600665216027 774.6451126410351 # Ar
784 784 1 0.0 676.5633524236217 385.2814641340869 495.9587453243236 # Ar
785 785 1 0.0 160.607329542804 112.22390838224113 743.699673348186 # Ar
786 786 1 0.0 735.8773222226739 335.39356128745334 442.7889761085744 # Ar
787 787 1 0.0 762.4592933419982 751.0696304213711 106.13160046183775 # Ar
788 788 1 0.0 475.0600161560599 8.461649765755999 16.695241921574304 # Ar
789 789 1 0.0 670.9593607321683 389.84851845043295 394.31144248156915 # Ar
790 790 1 0.0 781.032214441211 38.640695055147944 187.32959694578798 # Ar
791 791 1 0.0 520.8049514314956 246.95280103901163 436.35837448625364 # Ar
792 792 1 0.0 451.86725998732004 795.8637431823765 614.2349540710412 # Ar
793 793 1 0.0 462.7443040656186 204.20623420075503 446.3429016237338 # Ar
794 794 1 0.0 563.5991135154626 513.503623187356 13.592690874585399 # Ar
795 795 1 0.0 170.55592663526224 692.8264714811083 102.02078995883775 # Ar
796 796 1 0.0 333.79141947756807 579.2390642577583 452.1189733393521 # Ar
797 797 1 0.0 135.49766033285073 626.527896598649 403.62379473670865 # Ar
798 798 1 0.0 629.1692543835393 538.9262360843466 383.83458704430876 # Ar
799 799 1 0.0 9.013301131823125 681.6244541166059 682.4328165302702 # Ar
800 800 1 0.0 56.85884726183186 732.2329309903822 600.7819680017923 # Ar
801 801 1 0.0 183.19186190429554 299.5429275926697 316.62992267774126 # Ar
802 802 1 0.0 231.82584878728133 776.4475256542498 389.4384960693237 # Ar
803 803 1 0.0 557.1309036307771 504.9078780850943 726.8974212420175 # Ar
804 804 1 0.0 228.33104081172024 744.534555495397 229.7947583812649 # Ar
805 805 1 0.0 803.6754598639744 626.697134244858 307.6374796916423 # Ar
806 806 1 0.0 501.38419901013583 69.1532709287983 118.88466632218925 # Ar
807 807 1 0.0 693.0231097821317 347.2596029208806 27.478126312285745 # Ar
808 808 1 0.0 675.0473249166937 29.318832676734267 63.44307685545002 # Ar
809 809 1 0.0 515.0197242859606 171.9709021961677 504.48841101723195 # Ar
810 810 1 0.0 757.7230686270773 1.3637360127594753 810.3468070880195 # Ar
811 811 1 0.0 681.5604558878425 686.6740077540595 572.6611683289818 # Ar
812 812 1 0.0 319.1835817156874 766.0486298968874 197.55727616261316 # Ar
813 813 1 0.0 293.7163805152708 317.3079347329143 599.0746474524477 # Ar
814 814 1 0.0 197.98689186324611 450.36761182556063 633.0289823052154 # Ar
815 815 1 0.0 497.80593564966017 560.7377995642994 482.64382165398655 # Ar
816 816 1 0.0 301.3070042536326 664.3567506087724 332.54793463706056 # Ar
817 817 1 0.0 97.86882931583456 671.2248172202568 345.9352281268851 # Ar
818 818 1 0.0 540.8138157079621 34.600235161229214 637.2600704738062 # Ar
819 819 1 0.0 761.5182449672653 408.15351549518283 282.85910706724525 # Ar
820 820 1 0.0 7.669166186039718 164.09882126761227 729.9352647282707 # Ar
821 821 1 0.0 390.75592880247825 483.607386749201 337.1479612331871 # Ar
822 822 1 0.0 722.195112298345 718.3696651786513 439.90130158818647 # Ar
823 823 1 0.0 510.94270527776496 571.1219287162261 80.54475834391303 # Ar
824 824 1 0.0 572.0659047830229 697.6073320798196 457.730149709116 # Ar
825 825 1 0.0 153.58448270156237 489.52821539849185 662.9049790115288 # Ar
826 826 1 0.0 589.5834946212431 177.864130839879 336.39982956809007 # Ar
827 827 1 0.0 706.5928238968677 264.84426783726417 562.4382631249771 # Ar
828 828 1 0.0 800.71662597735 11.744404865756298 647.268860364405 # Ar
829 829 1 0.0 678.3673111971573 707.6418604088485 555.3673182063203 # Ar
830 830 1 0.0 287.32471254388923 631.3393536178119 6.079595325956974 # Ar
831 831 1 0.0 801.27113516124 710.6435689346943 732.4435439447523 # Ar
832 832 1 0.0 471.31997408515815 724.0058732340569 65.70962209372536 # Ar
833 833 1 0.0 559.7577774994481 234.3135890329768 423.72328088823997 # Ar
834 834 1 0.0 451.48509391760234 641.646640626838 810.7032751677207 # Ar
835 835 1 0.0 484.84774192272425 96.83581977992358 481.3855007209402 # Ar
836 836 1 0.0 798.879912769561 234.56432349941485 136.7343525065849 # Ar
837 837 1 0.0 273.32432921454466 438.3073012428871 809.7341011368277 # Ar
838 838 1 0.0 358.5281209276983 450.465741545041 442.18656189975286 # Ar
839 839 1 0.0 185.2958615216806 360.7498915022034 76.54906585590045 # Ar
840 840 1 0.0 54.76604053983573 232.74225003374244 50.78477152402622 # Ar
841 841 1 0.0 719.744802938153 104.58969891604634 607.437207093155 # Ar
842 842 1 0.0 785.9255660508369 526.6376901918904 75.29320341376616 # Ar
843 843 1 0.0 151.45542909490382 762.7239259050772 142.35232014419367 # Ar
844 844 1 0.0 11.552508468501381 437.08540052240954 706.4777575971262 # Ar
845 845 1 0.0 317.8168977385603 630.3602099094686 640.454019434619 # Ar
846 846 1 0.0 672.2742539397003 406.1208247988429 337.2637934614201 # Ar
847 847 1 0.0 403.20226965247343 43.697257125168264 586.2023345767443 # Ar
848 848 1 0.0 88.38116698893907 392.350300960138 562.8592470617895 # Ar
849 849 1 0.0 518.2029991325411 476.9943236936414 535.8702359608878 # Ar
850 850 1 0.0 366.178683090716 472.3878646134657 13.477795838109515 # Ar
851 851 1 0.0 669.6558500230343 175.09976100415412 123.593672297288 # Ar
852 852 1 0.0 155.2350459575768 677.678602210237 328.45160582715704 # Ar
853 853 1 0.0 738.8953108904648 618.7688511738025 309.27965414057235 # Ar
854 854 1 0.0 433.3031434853455 33.8028720724976 353.71784863941616 # Ar
855 855 1 0.0 314.5910916849444 730.8103027083162 19.137578897533196 # Ar
856 856 1 0.0 214.8206451968463 561.394207687435 793.0395856239273 # Ar
857 857 1 0.0 726.2525855068307 244.02084691173775 399.6422706094663 # Ar
858 858 1 0.0 685.669596180334 185.22893242499887 712.8330679410502 # Ar
859 859 1 0.0 782.8481857316332 395.7316183222881 443.585095187352 # Ar
860 860 1 0.0 488.940438303713 280.05882369029194 59.40417115305864 # Ar
861 861 1 0.0 457.74483639332414 734.3181310382154 744.070891763183 # Ar
862 862 1 0.0 522.7734449015704 343.1273366811339 14.481112297542884 # Ar
863 863 1 0.0 587.8011311787326 84.49564255472285 450.5875849389575 # Ar
864 864 1 0.0 430.9672134575441 814.9660242506391 257.11262786011434 # Ar
865 865 1 0.0 732.1875140452127 724.7492665422299 301.3391688434544 # Ar
866 866 1 0.0 51.98298904734126 801.7792731166612 267.2871107363213 # Ar
867 867 1 0.0 59.21071469944759 404.23407193184914 371.15796156978223 # Ar
868 868 1 0.0 505.5184695245011 166.47170619535981 154.1862248844054 # Ar
869 869 1 0.0 453.93169990437076 644.609485451482 13.90800254515312 # Ar
870 870 1 0.0 12.302706797384303 431.8104261617156 284.7283397389042 # Ar
871 871 1 0.0 521.1199983955714 724.7983394929319 592.1531605095568 # Ar
872 872 1 0.0 110.81919782111216 770.5981597118564 631.2894377156624 # Ar
873 873 1 0.0 320.2811684453839 782.5672106987226 516.125955841483 # Ar
874 874 1 0.0 404.58722628611207 519.8462846213187 635.7228135864397 # Ar
875 875 1 0.0 315.13589917299834 90.66201086472309 487.8279248842121 # Ar
876 876 1 0.0 704.2700445511275 87.19439782871348 468.19288597040173 # Ar
877 877 1 0.0 132.23396617051512 693.6435413650458 541.329411703649 # Ar
878 878 1 0.0 370.33295291040343 364.0415880818921 670.1111536624297 # Ar
879 879 1 0.0 692.2321046192037 361.94049139935544 358.00609124254635 # Ar
880 880 1 0.0 687.5606021270038 288.9320665070252 190.96012887998177 # Ar
881 881 1 0.0 20.890642662273056 56.978311195532065 336.6959902684302 # Ar
882 882 1 0.0 15.169831933677976 93.97758966170016 232.20970304673358 # Ar
883 883 1 0.0 96.14787025089623 749.7162208728315 585.4450745764244 # Ar
884 884 1 0.0 168.28587950034185 355.6096207207915 111.38052327652761 # Ar
885 885 1 0.0 31.849144913598145 631.3579324686151 112.44785877755687 # Ar
886 886 1 0.0 691.9185264134243 303.480977739405 794.004927876848 # Ar
887 887 1 0.0 616.334388533609 348.1008441161176 116.48708460876159 # Ar
888 888 1 0.0 299.91406344669525 341.79758767151657 808.0681729173087 # Ar
889 889 1 0.0 441.65370352536326 337.0504683558931 19.150705561452973 # Ar
890 890 1 0.0 99.11879948202875 433.209023040001 256.35933002102206 # Ar
891 891 1 0.0 572.745116240598 47.198950749757834 232.24436826504223 # Ar
892 892 1 0.0 791.7692971908701 66.20604853579206 665.8071278443294 # Ar
893 893 1 0.0 655.979754077118 20.688447386854044 182.69306945667594 # Ar
894 894 1 0.0 252.02457044198366 95.42984770379653 360.5907040025791 # Ar
895 895 1 0.0 374.6261567631666 24.01119814774639 65.32216283530931 # Ar
896 896 1 0.0 196.99593461786256 148.88457714420736 777.9150908941634 # Ar
897 897 1 0.0 323.35067387962 765.7668645326085 570.8988247174518 # Ar
898 898 1 0.0 303.4056746680009 58.52873879561938 443.1453913739478 # Ar
899 899 1 0.0 635.3590340980007 815.4844474469714 77.33174812409224 # Ar
900 900 1 0.0 513.06832240263 279.5362346385629 657.1991248579848 # Ar
901 901 1 0.0 242.92487722459654 228.33919262713206 652.8041380211004 # Ar
902 902 1 0.0 736.797227967787 683.2371311254534 37.25686328336128 # Ar
903 903 1 0.0 361.82810837614045 279.5091251169226 150.41024412146606 # Ar
904 904 1 0.0 181.14345290452553 438.9947416126102 186.1511359124017 # Ar
905 905 1 0.0 377.964040438569 9.576522797836242 261.97088358440817 # Ar
906 906 1 0.0 443.04009721095355 792.2577651830275 426.7995477913736 # Ar
907 907 1 0.0 160.02324529706075 786.498770085615 312.97085055812215 # Ar
908 908 1 0.0 154.3310514650058 408.0183401059737 750.2445878914659 # Ar
909 909 1 0.0 480.0559236487478 252.65743772120658 429.287232977637 # Ar
910 910 1 0.0 419.5348680301555 285.32647240863184 663.2142924048123 # Ar
911 911 1 0.0 715.7090625331343 667.3440842215509 212.52763403566027 # Ar
912 912 1 0.0 95.86092867144819 92.0679192511515 2.1069321792725493 # Ar
913 913 1 0.0 319.99955339595004 538.7578392539414 37.39926709419062 # Ar
914 914 1 0.0 72.80051670978855 16.256938748532075 609.1209400568501 # Ar
915 915 1 0.0 236.8452982477439 89.11763949757301 372.5473752385272 # Ar
916 916 1 0.0 656.4277709671995 424.3592847798203 408.8209841745372 # Ar
917 917 1 0.0 157.22212625212308 170.77742218353748 26.936634566626214 # Ar
918 918 1 0.0 52.7404347596219 47.98864882957184 439.10323152373576 # Ar
919 919 1 0.0 284.04515438925915 643.3853791917559 298.18011758260326 # Ar
920 920 1 0.0 677.2566436599234 690.1979797771722 582.7563014707926 # Ar
921 921 1 0.0 125.84676955481667 365.91724073831074 655.3559374497528 # Ar
922 922 1 0.0 241.97072642559897 34.105357333834114 707.0960707063142 # Ar
923 923 1 0.0 705.8563305967723 765.971760545101 796.9431160111548 # Ar
924 924 1 0.0 510.04714882025115 633.2470051880126 404.3150280095006 # Ar
925 925 1 0.0 336.42750666771065 247.23542389488313 364.92283218504656 # Ar
926 926 1 0.0 396.663066323107 694.0438777077126 162.17175495743456 # Ar
927 927 1 0.0 432.5843792859754 193.51828473938133 479.16482508755513 # Ar
928 928 1 0.0 219.44711897917557 512.217109394236 683.9939096161636 # Ar
929 929 1 0.0 34.759825207390996 699.6961692803048 622.8315841548883 # Ar
930 930 1 0.0 366.7949750751644 664.5799705152046 610.7015060083604 # Ar
931 931 1 0.0 265.31429448510255 705.7626246926069 249.23394877963736 # Ar
932 932 1 0.0 514.4551444513105 178.8651075750169 434.1895083732938 # Ar
933 933 1 0.0 154.00591679351487 461.7756135103929 607.0864804098367 # Ar
934 934 1 0.0 483.3813535734723 675.7264751540299 498.1482390942168 # Ar
935 935 1 0.0 408.61052080794843 642.7725041297745 666.363282394823 # Ar
936 936 1 0.0 187.1444195233497 274.9690397005994 44.51639171694441 # Ar
937 937 1 0.0 55.892545002831454 737.627161961541 280.6092846642831 # Ar
938 938 1 0.0 54.35529357277072 489.6293307578885 429.1723543480328 # Ar
939 939 1 0.0 656.9034553723709 242.41635065444984 744.3103342622239 # Ar
940 940 1 0.0 57.20573923182507 644.2800321899572 520.7452126719135 # Ar
941 941 1 0.0 330.0677451904297 621.0855360194818 210.38569831547107 # Ar
942 942 1 0.0 401.66501384320645 62.38246624923901 413.591585052964 # Ar
943 943 1 0.0 342.4198905230398 10.387363585141241 555.868145417346 # Ar
944 944 1 0.0 260.847434266202 259.27403820562495 151.65798473951025 # Ar
945 945 1 0.0 40.36085451319418 235.927250347669 112.485854889796 # Ar
946 946 1 0.0 441.36830275190056 556.5539088765523 234.51038483600786 # Ar
947 947 1 0.0 208.86462544039085 484.2526258425671 120.72217188379031 # Ar
948 948 1 0.0 773.0283536011423 310.6962199050538 811.1471823317678 # Ar
949 949 1 0.0 2.5833690369594917 158.31170822513818 747.4360876671251 # Ar
950 950 1 0.0 38.0534212156386 270.5348448855663 360.73150362783804 # Ar
951 951 1 0.0 110.84952516732808 200.70561179833183 395.8145947398369 # Ar
952 952 1 0.0 66.84991756466813 332.0722127177859 38.778019008943424 # Ar
953 953 1 0.0 195.85444194800607 689.2388017289353 400.84535552530986 # Ar
954 954 1 0.0 651.085940097673 765.464378159473 133.33012954423234 # Ar
955 955 1 0.0 510.47946647160313 569.2000817083399 197.85628486833158 # Ar
956 956 1 0.0 317.8792958331101 782.9074965912777 126.59824850360985 # Ar
957 957 1 0.0 90.86698828079916 762.0765408183034 532.2095658724936 # Ar
958 958 1 0.0 340.27573988811037 502.23947442391955 93.71515715713038 # Ar
959 959 1 0.0 316.1800234119546 574.1511987648705 224.68515800851355 # Ar
960 960 1 0.0 747.9140996511611 116.2552675229688 524.7610412270516 # Ar
961 961 1 0.0 412.45590630340087 402.5247585019386 597.4002058892472 # Ar
962 962 1 0.0 792.5034196915944 344.09393004009814 435.69958507408097 # Ar
963 963 1 0.0 25.032692725841745 268.22526585921156 68.34028400125369 # Ar
964 964 1 0.0 83.63097940851263 741.2539819302939 369.8511177505894 # Ar
965 965 1 0.0 325.01181117608866 709.2409284047085 201.42935695150302 # Ar
966 966 1 0.0 295.60959405438626 813.813757189367 372.5135293782237 # Ar
967 967 1 0.0 577.7191569192541 764.0261345571054 463.06582483594696 # Ar
968 968 1 0.0 385.5868834491286 643.1704889937591 665.4715554882278 # Ar
969 969 1 0.0 640.5545629732293 663.4006089652366 56.21741638469931 # Ar
970 970 1 0.0 25.698728483831278 725.5117166170958 510.89956172236856 # Ar
971 971 1 0.0 719.1036062810739 647.7646875338061 766.1457786516413 # Ar
972 972 1 0.0 792.7986034947938 726.6276203115831 284.98151514930396 # Ar
973 973 1 0.0 444.06685437139225 401.8594678654189 802.0179575826091 # Ar
974 974 1 0.0 17.358980505656998 701.2176177201791 160.39618223185545 # Ar
975 975 1 0.0 366.5197709133136 270.0427522653526 45.5044965826715 # Ar
976 976 1 0.0 318.3696751754832 89.27079777465288 527.0112247127987 # Ar
977 977 1 0.0 479.819597642027 546.8122238290038 661.7932344288265 # Ar
978 978 1 0.0 98.80756977006962 761.1612110309646 90.40834015370149 # Ar
979 979 1 0.0 517.6251253419881 718.7853797338772 299.93069822702415 # Ar
980 980 1 0.0 239.4103822271889 701.387230736848 70.7345952282184 # Ar
981 981 1 0.0 446.87189820538663 805.7251416457214 139.12682922883715 # Ar
982 982 1 0.0 21.136659116333988 45.70884285309652 762.7020467424672 # Ar
983 983 1 0.0 665.5819431590251 712.5511596779875 570.6559690365805 # Ar
984 984 1 0.0 81.82723424450847 115.5622453830355 786.3951002660402 # Ar
985 985 1 0.0 220.81898954179505 96.66261549532346 251.83434309880224 # Ar
986 986 1 0.0 506.55155858875645 488.29077304667936 710.08961095664 # Ar
987 987 1 0.0 647.048157390278 158.48010132277514 16.27015164091076 # Ar
988 988 1 0.0 798.2069614710553 222.04865086692865 327.7000862823498 # Ar
989 989 1 0.0 579.0260052320463 270.05391691321734 310.8901989300444 # Ar
990 990 1 0.0 676.5110934369104 66.9116121991725 451.9513055909957 # Ar
991 991 1 0.0 657.036906818278 310.56858199549765 752.5621131492409 # Ar
992 992 1 0.0 470.64801997523125 392.5489170638572 27.556105920719574 # Ar
993 993 1 0.0 615.0065137945597 93.51692824787955 36.47851295899554 # Ar
994 994 1 0.0 157.2455345837124 479.13422165093493 784.2068741495438 # Ar
995 995 1 0.0 561.633425688127 324.9885742297412 133.16472278254108 # Ar
996 996 1 0.0 105.24314015497006 187.68901302719908 217.9882633093609 # Ar
997 997 1 0.0 736.2451712097511 752.8480333802677 266.30099024952574 # Ar
998 998 1 0.0 733.2575953071446 334.4192256249915 363.1939676995659 # Ar
999 999 1 0.0 684.5648495573851 572.6615869942285 33.32633133686352 # Ar
1000 1000 1 0.0 239.2853958020521 789.7701222919695 749.9063168405596 # Ar
1001 1001 1 0.0 249.76631129637283 28.372211695387012 716.2812454147421 # Ar
1002 1002 1 0.0 665.8599926578712 658.2942860430377 151.436256999865 # Ar
1003 1003 1 0.0 702.0471848017959 9.73198682321171 348.31977953587034 # Ar
1004 1004 1 0.0 393.31797250157064 558.5255190029874 387.90272716974175 # Ar
1005 1005 1 0.0 761.6082910590425 312.0354740550464 520.3211336070394 # Ar
1006 1006 1 0.0 442.5085467585906 123.31856938212007 621.8619461622285 # Ar
1007 1007 1 0.0 406.61944001444084 761.7593028316867 587.0701316319654 # Ar
1008 1008 1 0.0 219.8169968133379 739.0660204490197 407.81846021563496 # Ar
1009 1009 1 0.0 631.1938107652504 677.4062103565867 106.36540385042066 # Ar
1010 1010 1 0.0 530.3660042097879 376.34858606320637 400.9420187688391 # Ar
1011 1011 1 0.0 625.4257008723733 623.4743364673952 85.8489877856164 # Ar
1012 1012 1 0.0 21.454056281625906 438.66447237243943 677.5783233136283 # Ar
1013 1013 1 0.0 376.17495369050107 627.8882038289121 307.56820902791276 # Ar
1014 1014 1 0.0 205.1343740585351 735.0166990365934 563.2813218343333 # Ar
1015 1015 1 0.0 563.1654078235778 636.8442057769622 675.0111833679354 # Ar
1016 1016 1 0.0 77.79241068742893 467.7163549386258 574.8933761911969 # Ar
1017 1017 1 0.0 62.02984206329328 255.10152630329748 420.8458272472089 # Ar
1018 1018 1 0.0 179.70422730790554 513.3582939157341 744.9896664285276 # Ar
1019 1019 1 0.0 748.6302863528899 63.64980424244201 334.84075456606786 # Ar
1020 1020 1 0.0 341.9573818821668 660.4672908715579 799.4269326107848 # Ar
1021 1021 1 0.0 683.5888307063443 95.09696187510393 679.853049902208 # Ar
1022 1022 1 0.0 107.14507527716204 780.9743990458438 580.576854862494 # Ar
1023 1023 1 0.0 5.410210747255812 311.44981828346204 459.59721436855773 # Ar
1024 1024 1 0.0 672.4595036914546 779.7242415282947 649.2996293114321 # Ar
1025 1025 1 0.0 653.3484663181803 214.85146889205564 637.4354220598755 # Ar
1026 1026 1 0.0 369.3961588475556 774.6212728131865 348.53529736643975 # Ar
1027 1027 1 0.0 384.7647674743213 246.58073015457333 650.6379510428827 # Ar
1028 1028 1 0.0 422.6370510668741 448.21918883094827 219.08130997582128 # Ar
1029 1029 1 0.0 579.7856386608017 368.4106319297092 418.932901634545 # Ar
1030 1030 1 0.0 425.2318809336779 414.28251198512027 396.54851903406006 # Ar
1031 1031 1 0.0 137.75573226551109 145.3738603103157 78.10640512013022 # Ar
1032 1032 1 0.0 7.023131016922307 210.61936027924438 657.0243797491553 # Ar
1033 1033 1 0.0 282.77198562804637 467.1584392010793 281.91389614171953 # Ar
1034 1034 1 0.0 82.01615839680798 158.64717318355662 642.1851499066448 # Ar
1035 1035 1 0.0 5.876573643020167 550.8589933449052 498.3809756194543 # Ar
1036 1036 1 0.0 789.495607566683 109.18029755554142 295.0218698802993 # Ar
1037 1037 1 0.0 282.05027455795033 14.161435507702594 77.71395432106203 # Ar
1038 1038 1 0.0 432.82130837874087 96.12463054222151 162.41703822051363 # Ar
1039 1039 1 0.0 664.5932862753649 783.6174496108702 41.76969198061558 # Ar
1040 1040 1 0.0 273.68226251117187 31.042466389385428 800.8229347228022 # Ar
1041 1041 1 0.0 365.2740592020972 754.4152978912011 753.9759678087648 # Ar
1042 1042 1 0.0 307.0176628595193 307.14351776400486 292.5728775449678 # Ar
1043 1043 1 0.0 343.40384596386565 17.79934405623827 660.5471714358887 # Ar
1044 1044 1 0.0 212.75158390266606 62.56178146943004 722.7784099128437 # Ar
1045 1045 1 0.0 11.424739012517009 750.2005777436904 63.4442004300513 # Ar
1046 1046 1 0.0 750.4169630822365 35.140655016963365 296.65856053419253 # Ar
1047 1047 1 0.0 60.41633653623094 248.196541236751 748.545376406362 # Ar
1048 1048 1 0.0 678.4207202913337 337.81678984842455 677.7221268905528 # Ar
1049 1049 1 0.0 764.6798147105935 165.06883549323138 262.1678459447433 # Ar
1050 1050 1 0.0 740.9935646230817 22.51247712023908 2.538970894329895 # Ar
1051 1051 1 0.0 675.586112217424 179.86266250658906 452.2188311202484 # Ar
1052 1052 1 0.0 391.1495731330858 76.22121556896668 653.3912790667583 # Ar
1053 1053 1 0.0 271.3700174707528 798.1460453436355 68.70113989953524 # Ar
1054 1054 1 0.0 332.4545935581659 561.2907533177079 753.778319089077 # Ar
1055 1055 1 0.0 531.8193177011117 163.4322031232754 794.6260504738856 # Ar
1056 1056 1 0.0 728.9356618174947 323.819859604234 231.2265653235311 # Ar
1057 1057 1 0.0 597.944982676486 550.9771030237362 695.4439798660964 # Ar
1058 1058 1 0.0 454.50758190239696 469.3645716471725 170.55953477777751 # Ar
1059 1059 1 0.0 201.8343257709622 537.8705007119028 386.75146283039095 # Ar
1060 1060 1 0.0 394.2163207210825 187.02467130377417 487.64199120525603 # Ar
1061 1061 1 0.0 79.01180437451836 660.3739735583118 136.55979599297328 # Ar
1062 1062 1 0.0 74.44566411713235 662.8792618178319 126.53399055703314 # Ar
1063 1063 1 0.0 650.2556990495906 4.758963646023901 217.58583909681462 # Ar
1064 1064 1 0.0 375.3441250541994 478.69640982546923 276.5945228037271 # Ar
1065 1065 1 0.0 490.41574902343365 256.79870446110823 472.6841182501402 # Ar
1066 1066 1 0.0 53.24052699954964 521.2885233021391 387.59737967536705 # Ar
1067 1067 1 0.0 658.803910209406 576.3550506085946 19.19068693241696 # Ar
1068 1068 1 0.0 9.819365540012358 147.2464883393527 607.1024232610637 # Ar
1069 1069 1 0.0 319.1091261084802 549.8761266244425 175.48617297437156 # Ar
1070 1070 1 0.0 37.5903794539618 523.7546847582319 24.580471756967707 # Ar
1071 1071 1 0.0 588.7475559978891 35.00463851282713 396.48121931866626 # Ar
1072 1072 1 0.0 586.7028773545703 545.3691699733575 218.74048850084765 # Ar
1073 1073 1 0.0 447.5164353907659 436.0235634388213 759.8055371858378 # Ar
1074 1074 1 0.0 39.772724223864394 408.02958015854864 460.05580068223975 # Ar
1075 1075 1 0.0 23.649586054481382 17.03256131522709 113.84131292914728 # Ar
1076 1076 1 0.0 536.8977950022353 721.231692604467 415.5792942822778 # Ar
1077 1077 1 0.0 306.6834706332693 810.9630657860374 722.4589418752022 # Ar
1078 1078 1 0.0 451.2081672919212 555.1466563784737 103.86828710031853 # Ar
1079 1079 1 0.0 320.14422330421434 514.9280122257215 318.75035475215 # Ar
1080 1080 1 0.0 751.7999677910747 62.635894874953635 649.9416143976642 # Ar
1081 1081 1 0.0 340.31193086351306 452.6079964367664 574.5202886164864 # Ar
1082 1082 1 0.0 579.1326529411751 675.3177691730986 553.5180285075714 # Ar
1083 1083 1 0.0 492.89659404375385 80.33330737530784 145.05560847617363 # Ar
1084 1084 1 0.0 490.2777503694596 604.4288559808085 154.48237725639584 # Ar
1085 1085 1 0.0 366.9974726410583 403.9232361061879 406.64972809450006 # Ar
1086 1086 1 0.0 534.2090694788461 601.9752457641536 623.8254953558732 # Ar
1087 1087 1 0.0 707.2622642715547 572.3933305950832 332.7461954807902 # Ar
1088 1088 1 0.0 625.4772715829614 60.26986580199248 742.179574591399 # Ar
1089 1089 1 0.0 769.7950295330826 116.03137360994235 41.36392486127483 # Ar
1090 1090 1 0.0 622.4185294909394 564.530500223286 530.039137504217 # Ar
1091 1091 1 0.0 699.152559084505 32.43347935202222 564.9289055647345 # Ar
1092 1092 1 0.0 589.7666008856193 655.3555058531992 616.8827018278499 # Ar
1093 1093 1 0.0 310.4372757742658 655.0955433043963 519.0034284052233 # Ar
1094 1094 1 0.0 106.60869297022282 368.93586648479857 603.371333173058 # Ar
1095 1095 1 0.0 744.0635694779985 312.1922468465645 237.3959755471635 # Ar
1096 1096 1 0.0 700.9236581603611 40.235028111555394 285.3278104323062 # Ar
1097 1097 1 0.0 506.4135996840461 525.2217776761969 741.5723823633613 # Ar
1098 1098 1 0.0 737.6207437181137 350.64472495667104 454.59679521345294 # Ar
1099 1099 1 0.0 355.0691785806146 669.7548780843609 781.0932394993259 # Ar
1100 1100 1 0.0 543.3746956488418 734.0861565484387 99.3377171094546 # Ar
1101 1101 1 0.0 412.3175401510082 673.0854482769943 805.5746246379715 # Ar
1102 1102 1 0.0 416.9563325362922 485.1912770594217 201.11714443864244 # Ar
1103 1103 1 0.0 421.5168647321033 786.1181231259355 163.13828173018675 # Ar
1104 1104 1 0.0 399.02200355820196 478.9042325047601 188.0985714651834 # Ar
1105 1105 1 0.0 42.524793942570604 50.02740788503894 678.6002772627625 # Ar
1106 1106 1 0.0 192.3495956220937 146.93404551537878 396.5348761649599 # Ar
1107 1107 1 0.0 748.4891329399107 578.3497823699884 37.87260744044802 # Ar
1108 1108 1 0.0 128.2379069594623 65.23125350376141 322.3868518903312 # Ar
1109 1109 1 0.0 779.7825314991567 284.18660834600786 91.45498643709796 # Ar
1110 1110 1 0.0 786.5267243281837 253.28651985630032 225.76739041200278 # Ar
1111 1111 1 0.0 528.3402974430229 270.7314244814467 518.4901949231836 # Ar
1112 1112 1 0.0 242.65130972687135 588.0569129507795 73.5681578706787 # Ar
1113 1113 1 0.0 9.004444295825943 441.5061820123139 731.6732833704654 # Ar
1114 1114 1 0.0 120.62659410344178 269.67978311379153 778.8786164760397 # Ar
1115 1115 1 0.0 68.71483147259104 170.11179541491674 678.2703913860078 # Ar
1116 1116 1 0.0 185.91919872952357 744.7783100790155 775.6266099168222 # Ar
1117 1117 1 0.0 574.963942715883 639.0854252198433 747.2119289316022 # Ar
1118 1118 1 0.0 636.7231996968058 77.63642269812667 384.9113785990553 # Ar
1119 1119 1 0.0 108.03015319163354 655.0155531201522 379.01265994604927 # Ar
1120 1120 1 0.0 777.6132817544773 742.5035611346059 788.2510531518908 # Ar
1121 1121 1 0.0 574.3266989825393 44.59723359999241 110.8031297067857 # Ar
1122 1122 1 0.0 19.77217833037288 193.93012476907822 730.8138351465548 # Ar
1123 1123 1 0.0 578.6699195259779 372.4686013866909 21.792902628067676 # Ar
1124 1124 1 0.0 56.3797049776022 764.988853346016 453.36557320365256 # Ar
1125 1125 1 0.0 454.62426598420524 762.8267993377818 97.17261409146167 # Ar
1126 1126 1 0.0 439.8878905130712 229.98386622363387 673.1206892576491 # Ar
1127 1127 1 0.0 319.5496380984075 790.5505711231783 334.47380384658436 # Ar
1128 1128 1 0.0 483.8602845310826 232.85119001394537 236.97102680400704 # Ar
1129 1129 1 0.0 167.16140223554194 238.43158574274153 481.09100285657786 # Ar
1130 1130 1 0.0 532.2838907434705 621.8365861837374 109.29474443294977 # Ar
1131 1131 1 0.0 85.2849414794436 382.60813723438434 353.82995227394593 # Ar
1132 1132 1 0.0 462.9692376386514 541.6568221867029 748.5568113680891 # Ar
1133 1133 1 0.0 594.3932722690447 775.686202819034 352.3243263198635 # Ar
1134 1134 1 0.0 472.53947767513097 598.0851528863882 626.1274676010175 # Ar
1135 1135 1 0.0 653.3345475208164 604.5807818188009 696.0998778821179 # Ar
1136 1136 1 0.0 218.45066446947007 6.510425139664926 661.3147145276382 # Ar
1137 1137 1 0.0 656.8766155360178 526.0579989076067 209.52548487595303 # Ar
1138 1138 1 0.0 127.01366435829698 212.887290998616 34.33856920703957 # Ar
1139 1139 1 0.0 386.4922863192299 511.3140932674566 804.658713281505 # Ar
1140 1140 1 0.0 579.8152731904943 722.8205349531947 341.12405690612934 # Ar
1141 1141 1 0.0 427.05448037984195 673.1436945913098 188.09705204309532 # Ar
1142 1142 1 0.0 63.30349356194804 139.44188120360772 631.5248080344137 # Ar
1143 1143 1 0.0 41.46027546534875 27.416741784532583 452.9347054892438 # Ar
1144 1144 1 0.0 775.3194108416324 647.7929565040533 485.64974479454645 # Ar
1145 1145 1 0.0 516.751840671369 745.8657558934772 660.6485967510819 # Ar
1146 1146 1 0.0 315.6170747483632 505.05680570156085 313.4790533459522 # Ar
1147 1147 1 0.0 504.0013444832942 194.6256992533523 390.97653318730465 # Ar
1148 1148 1 0.0 258.2792141798966 114.7803320456928 330.314708552692 # Ar
1149 1149 1 0.0 576.3304239826232 701.1051139676783 417.47962743169234 # Ar
1150 1150 1 0.0 103.90986859206309 751.3281521164494 114.02382997920873 # Ar
1151 1151 1 0.0 657.7997305692074 592.448274853981 353.95225887608166 # Ar
1152 1152 1 0.0 59.83819072284724 42.14425146197052 707.3015964703342 # Ar
1153 1153 1 0.0 273.2113256856073 513.5781668288327 157.90682214156183 # Ar
1154 1154 1 0.0 538.1500702853452 596.6273200417622 263.9935125314202 # Ar
1155 1155 1 0.0 657.1776657167459 698.9127804497672 756.2943428175153 # Ar
1156 1156 1 0.0 734.6663902254144 346.2332294034824 355.5459932731697 # Ar
1157 1157 1 0.0 446.73173570336127 196.27016376925314 428.17923106777766 # Ar
1158 1158 1 0.0 258.15337830496986 744.4011134349203 53.3563644707177 # Ar
1159 1159 1 0.0 349.6162951054522 616.2264661813497 490.2628115638171 # Ar
1160 1160 1 0.0 214.18474526473858 681.8010716820431 151.30051114156396 # Ar
1161 1161 1 0.0 765.2715421643932 279.4072610604413 51.47031120301578 # Ar
1162 1162 1 0.0 427.69469183971313 308.9840609274001 494.2954054677742 # Ar
1163 1163 1 0.0 174.13491499210593 646.7732808716547 697.7532732054465 # Ar
1164 1164 1 0.0 444.0439736399767 507.91704511759 245.2934292755305 # Ar
1165 1165 1 0.0 55.61566509843912 603.2057793617311 50.48945472997096 # Ar
1166 1166 1 0.0 493.219296265855 372.8854081921254 329.67452420800043 # Ar
1167 1167 1 0.0 100.48210743592918 781.8925991121401 212.05798281229815 # Ar
1168 1168 1 0.0 419.60974119492533 47.722914463648756 61.437903661348095 # Ar
1169 1169 1 0.0 682.5710807144685 589.9932714906785 34.01598756036162 # Ar
1170 1170 1 0.0 294.6167560341086 781.8670053490729 299.49936384789925 # Ar
1171 1171 1 0.0 751.493997625178 731.844893157188 588.4694579048124 # Ar
1172 1172 1 0.0 228.13022099676883 145.91340395350556 556.1660063949654 # Ar
1173 1173 1 0.0 396.93243367386214 372.59544771858447 31.716619108028205 # Ar
1174 1174 1 0.0 260.6359563109406 670.8239860379966 425.6922546269154 # Ar
1175 1175 1 0.0 758.6724648822475 4.934744423261905 338.61997959789994 # Ar
1176 1176 1 0.0 590.2423427186098 627.284967413229 712.5024992778901 # Ar
1177 1177 1 0.0 272.27098974213476 700.651570625465 35.73324447149693 # Ar
1178 1178 1 0.0 34.69917562290774 76.20104178210413 712.6398465892634 # Ar
1179 1179 1 0.0 530.470620738714 111.98111563014142 668.1827215828491 # Ar
1180 1180 1 0.0 105.69808780399131 514.5615999904218 430.3909702792061 # Ar
1181 1181 1 0.0 582.8740451441954 179.5086227691977 732.9624364716959 # Ar
1182 1182 1 0.0 358.8536481583269 336.4377322373891 675.1895957658071 # Ar
1183 1183 1 0.0 221.4550219228745 121.83646473944374 658.505851381215 # Ar
1184 1184 1 0.0 426.3472730092695 639.9561356092478 592.9482255248598 # Ar
1185 1185 1 0.0 6.311822201293266 498.20694398328396 108.69763853362977 # Ar
1186 1186 1 0.0 107.33742496973862 501.33566340857345 649.563358562385 # Ar
1187 1187 1 0.0 795.2356835397468 109.17295527886522 495.1553042035062 # Ar
1188 1188 1 0.0 150.01037700918056 271.70570648558555 227.3349109743852 # Ar
1189 1189 1 0.0 490.2742966969676 802.5019577177691 505.6947599757634 # Ar
1190 1190 1 0.0 409.3167351724229 357.31943076780425 355.30129163220437 # Ar
1191 1191 1 0.0 244.93965390626536 546.4012647388778 707.6728400060251 # Ar
1192 1192 1 0.0 704.2308691137489 108.25695698778748 741.1881820750822 # Ar
1193 1193 1 0.0 599.5217237776279 573.042014475368 584.4999336792434 # Ar
1194 1194 1 0.0 123.30647452305217 243.33627502200585 527.9659877959658 # Ar
1195 1195 1 0.0 262.9314241528935 152.62896513353203 809.9053185185192 # Ar
1196 1196 1 0.0 492.0303645008637 790.8195619183772 585.1180845623614 # Ar
1197 1197 1 0.0 370.61568697263004 101.22298797060076 239.8401862210885 # Ar
1198 1198 1 0.0 128.86148325853534 160.91379947210214 11.083354611264564 # Ar
1199 1199 1 0.0 656.4390891300471 31.75214714938329 54.27511471362945 # Ar
1200 1200 1 0.0 326.1996680008235 189.45255550347102 441.4681578029388 # Ar
1201 1201 1 0.0 781.4500497357129 196.08063618314108 409.86964872833454 # Ar
1202 1202 1 0.0 394.7543637869299 460.8056544404274 497.141710998072 # Ar
1203 1203 1 0.0 89.08489079430066 4.366203681158511 326.18590418963436 # Ar
1204 1204 1 0.0 649.5039680283538 714.455143036422 29.551419684662818 # Ar
1205 1205 1 0.0 416.6234114750623 414.8408750844335 578.0978960523569 # Ar
1206 1206 1 0.0 591.9806274664627 661.8777819047632 215.08889369194432 # Ar
1207 1207 1 0.0 549.3277196891413 772.3933712475201 492.19885706412055 # Ar
1208 1208 1 0.0 295.01200428415575 196.7359343393814 399.662777006574 # Ar
1209 1209 1 0.0 494.3332968471364 116.25310733772169 1.4379547066258669 # Ar
1210 1210 1 0.0 594.1060616278571 769.5105878684667 201.47986023715674 # Ar
1211 1211 1 0.0 41.81531936506842 45.74202493541791 379.7352466879175 # Ar
1212 1212 1 0.0 742.7143268684525 554.2783145490625 562.6805141182729 # Ar
1213 1213 1 0.0 430.157005567301 427.4787503456816 93.2932275696008 # Ar
1214 1214 1 0.0 303.0197695241028 722.6154171395284 664.9337409246006 # Ar
1215 1215 1 0.0 673.351128741782 416.48023922761473 385.86786698102395 # Ar
1216 1216 1 0.0 340.64143772966975 65.15811128403357 491.4208155480404 # Ar
1217 1217 1 0.0 631.6912075282602 221.6203964730974 586.7884371522123 # Ar
1218 1218 1 0.0 390.19986739232894 699.7697100444534 292.18825637259795 # Ar
1219 1219 1 0.0 711.4912208027012 450.99898508543134 571.4595822017608 # Ar
1220 1220 1 0.0 636.858866948812 296.7169913224239 263.43608065692683 # Ar
1221 1221 1 0.0 723.0144112774943 123.04421201467427 292.620170539167 # Ar
1222 1222 1 0.0 121.78111579946739 721.9417070476474 201.99429297323476 # Ar
1223 1223 1 0.0 283.8068897421503 625.7388699273309 712.4997875300271 # Ar
1224 1224 1 0.0 71.28824279497417 407.34413411257407 108.8442788989998 # Ar
1225 1225 1 0.0 470.72309054749 399.72710814262155 99.99682848160063 # Ar
1226 1226 1 0.0 793.4341689432875 84.41132962061297 403.86848607203046 # Ar
1227 1227 1 0.0 811.8436344718166 519.4900739295308 524.7206010948663 # Ar
1228 1228 1 0.0 582.780401796282 640.0239490854725 468.89368569210507 # Ar
1229 1229 1 0.0 135.67406737431486 99.03495370269717 757.2966602475535 # Ar
1230 1230 1 0.0 563.4872661150133 81.66265423237242 809.5537278469586 # Ar
1231 1231 1 0.0 415.71726422713425 597.109265160248 327.8187115225003 # Ar
1232 1232 1 0.0 253.5780721407598 137.31257666537198 452.7261864535802 # Ar
1233 1233 1 0.0 604.373842600449 279.1187272871756 619.3860953176167 # Ar
1234 1234 1 0.0 793.5357695227226 509.2221028218803 542.5301383547039 # Ar
1235 1235 1 0.0 224.5148158884192 729.3477585760298 805.1676196902345 # Ar
1236 1236 1 0.0 802.2945926529966 578.2310249130026 143.31796833372536 # Ar
1237 1237 1 0.0 617.5162301685381 387.2503870050333 139.09969213456642 # Ar
1238 1238 1 0.0 809.727532190153 627.8870951753332 241.14212672304168 # Ar
1239 1239 1 0.0 683.0940218945584 385.00980258059826 24.6924147342966 # Ar
1240 1240 1 0.0 781.1785137874277 316.8276840056141 402.64671855987183 # Ar
1241 1241 1 0.0 654.6675036227216 613.9087210063078 471.58199398947914 # Ar
1242 1242 1 0.0 166.3867271390108 663.3853046562843 729.1089531073779 # Ar
1243 1243 1 0.0 89.74980463675021 311.48132155876675 653.8906945464767 # Ar
1244 1244 1 0.0 395.365322175647 266.95164706660086 436.55853793029024 # Ar
1245 1245 1 0.0 166.94145106902582 658.6668288175091 176.0643494710082 # Ar
1246 1246 1 0.0 746.9171620474867 512.1223738538134 627.7649095692803 # Ar
1247 1247 1 0.0 385.63258704981394 528.8695741800527 308.5380866992497 # Ar
1248 1248 1 0.0 407.15098235148014 762.5232464381221 565.6780370647732 # Ar
1249 1249 1 0.0 636.8509663739608 278.24150465222175 663.0096584616092 # Ar
1250 1250 1 0.0 178.48319726649933 555.5491985386675 108.95988978121699 # Ar
1251 1251 1 0.0 468.82049364060805 337.28535552624265 578.0835167016068 # Ar
1252 1252 1 0.0 432.2740610271426 564.1612454335173 90.65651550638343 # Ar
1253 1253 1 0.0 729.3155853206482 77.59403687641463 462.2205060709759 # Ar
1254 1254 1 0.0 143.80955493831064 622.7057700585734 802.6250987933314 # Ar
1255 1255 1 0.0 260.43465448008175 201.92738859614596 583.2928637912274 # Ar
1256 1256 1 0.0 269.9667362696999 44.517053809069466 414.00643531113303 # Ar
1257 1257 1 0.0 714.2929925846837 725.0025038348283 440.1532983483812 # Ar
1258 1258 1 0.0 351.3599759885237 518.7664356005637 511.35677830080755 # Ar
1259 1259 1 0.0 537.0281419474804 417.54778005227973 407.90004265023305 # Ar
1260 1260 1 0.0 257.90645929039783 519.7192356594138 218.13135637877858 # Ar
1261 1261 1 0.0 54.338628116186655 793.075117070618 111.2624945330507 # Ar
1262 1262 1 0.0 442.45109877338837 178.8118214170349 379.1452874441761 # Ar
1263 1263 1 0.0 489.35244428657154 453.0594321352909 107.71494924462132 # Ar
1264 1264 1 0.0 735.0076602916859 688.2222530220032 452.5027476698024 # Ar
1265 1265 1 0.0 334.1864995283701 255.1178838086484 148.7559095288329 # Ar
1266 1266 1 0.0 789.0795058282741 479.237767090571 271.7440334748829 # Ar
1267 1267 1 0.0 124.28552603908699 72.697296754547 753.4546455303657 # Ar
1268 1268 1 0.0 83.54998905968202 388.6781229890046 352.21518911653504 # Ar
1269 1269 1 0.0 684.6359713999186 8.253349125378765 214.31892900640085 # Ar
1270 1270 1 0.0 510.8010417988804 347.35145680809256 656.3915025165904 # Ar
1271 1271 1 0.0 755.7718222890949 624.7398417061685 75.58770221201473 # Ar
1272 1272 1 0.0 655.7383591300196 175.22343793335648 807.9028211251917 # Ar
1273 1273 1 0.0 141.90034079612178 704.4160167562928 448.72747263860873 # Ar
1274 1274 1 0.0 29.586674688384065 424.53843791308117 146.5865960720503 # Ar
1275 1275 1 0.0 187.54698007353446 637.9123644231139 787.9648855293887 # Ar
1276 1276 1 0.0 792.9698337813919 217.7552077267046 289.756552593974 # Ar
1277 1277 1 0.0 510.8930254751914 202.16285582293756 594.5228592949326 # Ar
1278 1278 1 0.0 28.375402745558596 647.4947555742424 332.188891519969 # Ar
1279 1279 1 0.0 247.73237302669045 311.2765009833858 456.191755984104 # Ar
1280 1280 1 0.0 498.89902740419353 446.83252873585997 799.7868798428161 # Ar
1281 1281 1 0.0 226.72546786502042 42.366552363017554 694.0130950181667 # Ar
1282 1282 1 0.0 559.0296732465162 51.02291582587377 672.065806338359 # Ar
1283 1283 1 0.0 398.9877937042574 395.26173398684386 470.56682378407316 # Ar
1284 1284 1 0.0 95.17403001669814 586.233630723005 421.2115703986246 # Ar
1285 1285 1 0.0 540.2057493141376 779.1079133673644 233.99197502245812 # Ar
1286 1286 1 0.0 165.81528199774053 762.4080971437992 776.5060282293075 # Ar
1287 1287 1 0.0 764.6953074841741 459.1084000833415 547.8840203045575 # Ar
1288 1288 1 0.0 160.4191704030939 76.72530148452026 62.84022577147368 # Ar
1289 1289 1 0.0 353.16063453204697 49.88469127912633 482.13187998063427 # Ar
1290 1290 1 0.0 216.15150442430104 372.06594409015474 214.63191917249563 # Ar
1291 1291 1 0.0 428.0716239201798 109.84997364614699 638.3574039494267 # Ar
1292 1292 1 0.0 423.87454005348303 432.02310322288025 326.42022989151144 # Ar
1293 1293 1 0.0 597.0061576899393 676.3634967497388 227.89913385330783 # Ar
1294 1294 1 0.0 475.21525591226 192.87799388484987 350.04755465803674 # Ar
1295 1295 1 0.0 683.1520344912802 178.02745489945852 1.881110848140512 # Ar
1296 1296 1 0.0 435.142955018798 250.14600628818806 449.3226204467628 # Ar
1297 1297 1 0.0 303.3058114158756 389.2489274344617 798.8561451116984 # Ar
1298 1298 1 0.0 405.01851739080155 620.3854591248545 788.234100532293 # Ar
1299 1299 1 0.0 433.12104830756795 373.74163069806576 788.5532477619984 # Ar
1300 1300 1 0.0 428.63735579672647 290.10753329006786 753.5462555032923 # Ar
1301 1301 1 0.0 123.91749999618888 520.3038135267385 803.1050833809214 # Ar
1302 1302 1 0.0 37.58496202850524 748.7675600303328 138.63813265642432 # Ar
1303 1303 1 0.0 757.1730399022515 135.70484826211032 482.3320973464726 # Ar
1304 1304 1 0.0 164.1159253435354 281.7723621224211 243.3008328996157 # Ar
1305 1305 1 0.0 431.15975309519644 290.82178857147176 60.01941903103596 # Ar
1306 1306 1 0.0 528.83642821262 524.6466474593274 205.7913622089881 # Ar
1307 1307 1 0.0 703.3368274051844 789.4169956166597 478.5062055953733 # Ar
1308 1308 1 0.0 682.483924297398 414.35013506621146 407.39574521624564 # Ar
1309 1309 1 0.0 185.89125700777282 515.774316619022 716.4988880742818 # Ar
1310 1310 1 0.0 641.1802943632522 65.94526907330943 81.51918659236439 # Ar
1311 1311 1 0.0 643.7245656247081 320.1725321155188 288.3877733886124 # Ar
1312 1312 1 0.0 343.5963004313837 370.6174202174145 93.71099037760328 # Ar
1313 1313 1 0.0 468.03332588615865 779.8266460485698 276.86542200759555 # Ar
1314 1314 1 0.0 777.2832021862654 693.705975804909 422.1094927169363 # Ar
1315 1315 1 0.0 783.3684543918263 561.8869494992372 393.2572873781743 # Ar
1316 1316 1 0.0 272.1087339935398 491.8800615831799 782.1661984036945 # Ar
1317 1317 1 0.0 399.13156841748105 196.55905812238774 202.31769278103437 # Ar
1318 1318 1 0.0 540.221270436842 202.16486935140335 340.48627641224306 # Ar
1319 1319 1 0.0 434.1503297320534 348.05547275540465 106.78448652964796 # Ar
1320 1320 1 0.0 183.88011981415454 223.84144980149696 186.3107211528849 # Ar
1321 1321 1 0.0 246.23618172532397 338.39503255557725 508.96944947078725 # Ar
1322 1322 1 0.0 661.4486975190944 120.88852255395832 454.4949797349791 # Ar
1323 1323 1 0.0 517.8362783638848 708.3903888810861 49.58648650735489 # Ar
1324 1324 1 0.0 717.8957724577687 239.3543808009776 588.6871600436201 # Ar
1325 1325 1 0.0 252.63098251983496 597.7035450462818 209.15294496110334 # Ar
1326 1326 1 0.0 402.3366663901759 143.72364374969058 268.69833389104446 # Ar
1327 1327 1 0.0 10.561984711896816 357.63071602965994 519.3853966379452 # Ar
1328 1328 1 0.0 628.527236135582 468.80396323163353 105.00602199416502 # Ar
1329 1329 1 0.0 732.3338212345737 207.93993310660633 286.3680455686516 # Ar
1330 1330 1 0.0 792.6946134438308 533.3678520338524 125.65766933879716 # Ar
1331 1331 1 0.0 301.930846560298 196.44809214645136 409.0668322718013 # Ar
1332 1332 1 0.0 484.04993299037164 525.2474434414052 571.5951903676319 # Ar
1333 1333 1 0.0 20.445276109172287 45.0445027977964 563.6506707995622 # Ar
1334 1334 1 0.0 789.1422221291582 657.2788620213973 539.1082956311327 # Ar
1335 1335 1 0.0 725.2650549587379 744.4509511875156 344.71684863344456 # Ar
1336 1336 1 0.0 376.6747015155552 271.9417603246945 681.887413281909 # Ar
1337 1337 1 0.0 137.24814282511863 548.9953899463409 17.217064368754198 # Ar
1338 1338 1 0.0 184.3889472618075 445.3836846087797 63.53244485154795 # Ar
1339 1339 1 0.0 476.08335357368315 548.5459800222287 809.4430401358804 # Ar
1340 1340 1 0.0 738.0350839204358 234.532456643038 16.28133650621191 # Ar
1341 1341 1 0.0 106.3526061199359 597.4873738448302 475.089837383675 # Ar
1342 1342 1 0.0 272.5249218598982 452.1234579019727 722.5808468391173 # Ar
1343 1343 1 0.0 38.805558212199 651.8316252909106 513.9726510843642 # Ar
1344 1344 1 0.0 185.11408805472513 639.5563898900951 372.02079899799213 # Ar
1345 1345 1 0.0 601.3776851058508 86.37975222092514 48.097099433181995 # Ar
1346 1346 1 0.0 563.3425566030606 1.3646391715829924 501.4250550456588 # Ar
1347 1347 1 0.0 272.6900761344708 169.9839631855821 226.9905857192661 # Ar
1348 1348 1 0.0 645.0630717437799 626.5028351915097 328.00940956627903 # Ar
1349 1349 1 0.0 141.36581861943193 81.6901884517047 571.1004328257928 # Ar
1350 1350 1 0.0 255.89480520701045 381.43277071182297 299.24444916816697 # Ar
1351 1351 1 0.0 111.84509299944379 782.9198665114081 157.55178443451442 # Ar
1352 1352 1 0.0 435.60608436600853 80.26949645042205 470.81459162739185 # Ar
1353 1353 1 0.0 749.9841619482626 686.0926916667094 143.87812777079128 # Ar
1354 1354 1 0.0 499.0353830161898 289.67000429008664 156.19534010839502 # Ar
1355 1355 1 0.0 455.64680324520003 415.8859648117927 272.47904368611916 # Ar
1356 1356 1 0.0 6.888270381999131 547.2138637329305 786.7594020721582 # Ar
1357 1357 1 0.0 645.138569969382 679.0533958059317 378.8052718157341 # Ar
1358 1358 1 0.0 19.404284326712123 245.10422932229454 755.169769455569 # Ar
1359 1359 1 0.0 20.690387583146226 298.95708917701194 420.93982833754353 # Ar
1360 1360 1 0.0 203.17997054582509 177.1825443680966 356.71197887932885 # Ar
1361 1361 1 0.0 476.59967850308595 190.76136018239063 141.95423114426882 # Ar
1362 1362 1 0.0 57.3460450024079 239.0563162418574 465.4499450589674 # Ar
1363 1363 1 0.0 210.0409167933564 265.88908703735586 7.789796234378383 # Ar
1364 1364 1 0.0 526.2425735386187 460.4241535862691 477.3186824228409 # Ar
1365 1365 1 0.0 248.46495928396052 429.93045473112534 697.2756713265318 # Ar
1366 1366 1 0.0 440.28387337382554 96.35433144907132 650.5843714908872 # Ar
1367 1367 1 0.0 594.1259142316998 249.0721784084421 428.1810857949835 # Ar
1368 1368 1 0.0 56.75155228189344 681.449997379161 562.351592808466 # Ar
1369 1369 1 0.0 620.8570083627882 460.3239530453821 811.6162556579093 # Ar
1370 1370 1 0.0 264.3836329826434 648.5153934506909 399.93536697423446 # Ar
1371 1371 1 0.0 112.25882117614186 559.2468870349995 110.14070489053954 # Ar
1372 1372 1 0.0 402.48586978402386 483.5002689416538 56.15540860644351 # Ar
1373 1373 1 0.0 280.2071401192275 617.8344602972159 173.03275008690744 # Ar
1374 1374 1 0.0 551.2864114099101 274.40108890786973 632.3913262195207 # Ar
1375 1375 1 0.0 23.813082253969363 551.0718865201511 509.9109774693749 # Ar
1376 1376 1 0.0 288.37417873864575 63.349352504648266 103.2730249203885 # Ar
1377 1377 1 0.0 213.47943447902202 112.93114083937648 677.8687168016845 # Ar
1378 1378 1 0.0 137.59225346792996 326.06012059452235 540.0315811568315 # Ar
1379 1379 1 0.0 42.94964382224704 308.66988983949574 784.1918877015837 # Ar
1380 1380 1 0.0 310.41015401867344 326.01828516861747 415.9837877564975 # Ar
1381 1381 1 0.0 1.382880904404496 645.2727846611673 380.77208441455963 # Ar
1382 1382 1 0.0 594.2513154313137 155.5141577778006 243.193010572911 # Ar
1383 1383 1 0.0 40.13169991067661 277.7724799590383 203.60785562852254 # Ar
1384 1384 1 0.0 57.30763238756383 530.8296392448959 614.9978253920789 # Ar
1385 1385 1 0.0 596.9071636973814 603.7398924384504 472.69879103905737 # Ar
1386 1386 1 0.0 644.8892288928564 264.34969555577993 304.1205037650882 # Ar
1387 1387 1 0.0 394.06511213079375 593.9170583633106 748.5771436698157 # Ar
1388 1388 1 0.0 625.7010729936663 447.0366716365806 122.42928486572863 # Ar
1389 1389 1 0.0 340.64154776354957 789.9293818336752 755.7905352537518 # Ar
1390 1390 1 0.0 811.1865294721981 57.23112257747928 120.22193754586453 # Ar
1391 1391 1 0.0 758.8277652773484 467.9128349227286 221.87361811405506 # Ar
1392 1392 1 0.0 280.3541905016239 17.832312601945315 416.5745207261828 # Ar
1393 1393 1 0.0 564.9123956454061 447.73343338228625 682.0985694984588 # Ar
1394 1394 1 0.0 399.5905868627031 754.2000916034788 434.279976558337 # Ar
1395 1395 1 0.0 265.559599252564 636.5403964981294 277.3261539704753 # Ar
1396 1396 1 0.0 811.9962765334211 475.2712540159879 460.5129480478097 # Ar
1397 1397 1 0.0 530.6105869560474 388.94257583796735 314.2770329508115 # Ar
1398 1398 1 0.0 133.6780971983151 671.5506726640991 87.61717279726054 # Ar
1399 1399 1 0.0 481.08344382581225 115.11560464483097 330.8561071681266 # Ar
1400 1400 1 0.0 154.46679841712927 441.32140320840466 437.40618397566277 # Ar
1401 1401 1 0.0 758.3655780620752 779.2952933172251 769.1871807214776 # Ar
1402 1402 1 0.0 314.2122040789373 103.74864731416717 274.4718025533728 # Ar
1403 1403 1 0.0 38.11928341695367 74.89655522096213 390.2658340173793 # Ar
1404 1404 1 0.0 78.71309215587955 116.02170604107117 332.382535968809 # Ar
1405 1405 1 0.0 110.6229342133958 583.9323865829847 344.45922163249486 # Ar
1406 1406 1 0.0 46.69471254537451 198.97548336844994 340.14925127832885 # Ar
1407 1407 1 0.0 773.8008218435979 749.470962022771 537.0752047600441 # Ar
1408 1408 1 0.0 86.00423621081602 292.6705787094196 150.78031480092955 # Ar
1409 1409 1 0.0 302.5267613824065 220.7282930764122 575.5479286519183 # Ar
1410 1410 1 0.0 53.966863502085296 380.3016591046816 582.1026702501068 # Ar
1411 1411 1 0.0 584.1373389672704 747.2582941439857 145.06818525418316 # Ar
1412 1412 1 0.0 181.48113055615377 456.04569533736276 494.24576826657847 # Ar
1413 1413 1 0.0 298.36306921080154 537.8063773653816 103.41154871132649 # Ar
1414 1414 1 0.0 234.38145362123217 59.09253553570719 602.102229535598 # Ar
1415 1415 1 0.0 284.3107295334792 72.42783272566606 676.077642892996 # Ar
1416 1416 1 0.0 329.09439244825916 549.1871966306577 442.016404228048 # Ar
1417 1417 1 0.0 670.6249835705677 802.2994754617632 623.7968874178292 # Ar
1418 1418 1 0.0 156.31192916859996 272.94671388997426 547.3901193344719 # Ar
1419 1419 1 0.0 53.40897080341025 361.0360227922498 574.7817930249616 # Ar
1420 1420 1 0.0 448.1245394341416 323.1475276319416 340.0709993882058 # Ar
1421 1421 1 0.0 342.0711634161865 237.1507142816451 386.817306446847 # Ar
1422 1422 1 0.0 6.703375809099342 427.417882527738 325.77769404677235 # Ar
1423 1423 1 0.0 454.95310129363475 161.87983349126438 153.5653130653666 # Ar
1424 1424 1 0.0 694.5705772585002 398.8449771011117 743.9474924778057 # Ar
1425 1425 1 0.0 93.68856723900542 349.33692973128205 749.7507673122791 # Ar
1426 1426 1 0.0 459.0623052821385 458.07928193544024 669.7747830162797 # Ar
1427 1427 1 0.0 17.063916581553435 732.8984670765276 227.17395818196246 # Ar
1428 1428 1 0.0 480.0852768823255 389.5641988084764 529.4471550690934 # Ar
1429 1429 1 0.0 493.4854138003773 403.8929885551001 28.959606713783632 # Ar
1430 1430 1 0.0 112.5163237431612 308.32963707941377 765.1944926028506 # Ar
1431 1431 1 0.0 130.07520049831433 255.17821474825442 640.918972100784 # Ar
1432 1432 1 0.0 292.4577977187034 0.10977835397993475 456.8483192788065 # Ar
1433 1433 1 0.0 758.2075362327419 795.4895638064654 677.8296270937163 # Ar
1434 1434 1 0.0 547.4609875130591 88.47724100537357 450.9465656092483 # Ar
1435 1435 1 0.0 229.1691960114175 355.42691420323507 166.46561663612218 # Ar
1436 1436 1 0.0 199.664641689919 176.94723158576824 657.2732672166755 # Ar
1437 1437 1 0.0 292.4770464240243 550.0294464511916 25.28700489629166 # Ar
1438 1438 1 0.0 814.2418296588257 112.95186076899633 765.150761093959 # Ar
1439 1439 1 0.0 100.3778568551557 370.30169492914985 111.36139788667074 # Ar
1440 1440 1 0.0 327.3293454928594 199.8618429904115 85.06950282979655 # Ar
1441 1441 1 0.0 260.0079576663324 314.62447573940506 168.28528926365615 # Ar
1442 1442 1 0.0 508.1260053081641 713.1192977520044 513.7954913897993 # Ar
1443 1443 1 0.0 192.58218653955578 346.42553478817 706.4158781090133 # Ar
1444 1444 1 0.0 471.87969862490553 403.4825024213342 460.1819125279455 # Ar
1445 1445 1 0.0 618.8852234906785 80.59422335687933 791.1190292150104 # Ar
1446 1446 1 0.0 391.61196348933464 721.9557657003638 714.8371735826041 # Ar
1447 1447 1 0.0 365.1446538487611 546.644871914424 476.3070845335551 # Ar
1448 1448 1 0.0 641.8576989711613 339.3870935917395 470.4608237537847 # Ar
1449 1449 1 0.0 737.1572174558835 431.91102570811614 370.3276894010998 # Ar
1450 1450 1 0.0 136.82879275558594 328.0220460173905 799.0555642686003 # Ar
1451 1451 1 0.0 569.3818910761463 326.4724240794882 354.1065223664735 # Ar
1452 1452 1 0.0 801.0050495011452 21.50821112872989 326.14086592792955 # Ar
1453 1453 1 0.0 346.03405432816294 669.7252984514024 103.29171245050622 # Ar
1454 1454 1 0.0 657.4119239055804 495.1875154104722 753.9515359219101 # Ar
1455 1455 1 0.0 745.6771439049157 301.30434176190613 450.82279781597975 # Ar
1456 1456 1 0.0 439.67203814218965 611.4183066363121 609.2736433045135 # Ar
1457 1457 1 0.0 278.53465370087935 161.75616053694662 781.567844216414 # Ar
1458 1458 1 0.0 444.70448516995134 344.3106200020158 440.15960854354717 # Ar
1459 1459 1 0.0 300.50264360934364 605.6974335954953 291.26274286988445 # Ar
1460 1460 1 0.0 153.34154904589815 441.6130435567912 345.8710039851008 # Ar
1461 1461 1 0.0 688.6113962999079 73.48270719800415 583.7297081174094 # Ar
1462 1462 1 0.0 710.400552831836 722.785830816989 604.9302758754056 # Ar
1463 1463 1 0.0 305.7272809838382 182.07266727821673 652.5326069890903 # Ar
1464 1464 1 0.0 580.401763161838 427.56107299924577 511.63917561058986 # Ar
1465 1465 1 0.0 337.7672156338012 789.4049413035369 786.4040802484152 # Ar
1466 1466 1 0.0 740.7560744095266 299.70877642406816 383.8759664356342 # Ar
1467 1467 1 0.0 267.791467416706 359.60442129309365 600.4113009380599 # Ar
1468 1468 1 0.0 2.8816817733416653 160.5074868754854 742.9180014636387 # Ar
1469 1469 1 0.0 792.1224918296534 111.6367000514569 226.96407996547663 # Ar
1470 1470 1 0.0 792.1590334325343 635.601692675872 238.6604299138038 # Ar
1471 1471 1 0.0 624.0634083159146 636.0508024924497 527.9771610486235 # Ar
1472 1472 1 0.0 240.30512480620288 381.20608746038243 570.2634295151868 # Ar
1473 1473 1 0.0 5.043517519345919 743.7787524362117 582.4308718579175 # Ar
1474 1474 1 0.0 768.9727867976518 331.2258570560044 159.52998271235882 # Ar
1475 1475 1 0.0 250.5456595456326 775.4086208350252 554.2118338920724 # Ar
1476 1476 1 0.0 734.4863497866943 577.502707111504 766.0841487049462 # Ar
1477 1477 1 0.0 12.265249176249178 807.3110928047405 242.75146689937736 # Ar
1478 1478 1 0.0 588.8014205852517 477.0600428135202 26.830945549976892 # Ar
1479 1479 1 0.0 222.80415601012652 558.4886661889176 723.4765554801874 # Ar
1480 1480 1 0.0 505.7277120497656 391.5494964893262 497.8908391430352 # Ar
1481 1481 1 0.0 185.4573862262047 299.00983938727205 32.879251761359406 # Ar
1482 1482 1 0.0 3.2554099871777775 740.2844153529949 280.19604895407065 # Ar
1483 1483 1 0.0 617.399070307767 531.4872169862823 77.42931672861275 # Ar
1484 1484 1 0.0 136.79653107617094 270.2843595073394 430.51680297964776 # Ar
1485 1485 1 0.0 535.5824703818084 530.2918486010759 511.495192277758 # Ar
1486 1486 1 0.0 547.2117011251559 798.5401532356256 445.68078651269803 # Ar
1487 1487 1 0.0 573.0428541684954 148.75725171530235 810.2198013180855 # Ar
1488 1488 1 0.0 129.30454372786988 638.8951880113674 117.99433236030227 # Ar
1489 1489 1 0.0 229.58262754774674 256.5594204460125 408.7153807283804 # Ar
1490 1490 1 0.0 14.501633361898785 211.4832312671635 728.5136614301679 # Ar
1491 1491 1 0.0 454.1390650523141 213.49517286800463 305.08421616222716 # Ar
1492 1492 1 0.0 734.5711709789219 650.2002484959721 133.66695904967324 # Ar
1493 1493 1 0.0 609.5648736491021 373.5843864615322 210.3187038036151 # Ar
1494 1494 1 0.0 460.27535789642855 368.29711700405267 27.09299812150087 # Ar
1495 1495 1 0.0 140.64214424626363 38.75131598008152 783.6154487373437 # Ar
1496 1496 1 0.0 126.09763218018219 62.68908195662581 686.2487747216418 # Ar
1497 1497 1 0.0 196.44656654776094 359.8002222351151 687.0525760315951 # Ar
1498 1498 1 0.0 686.4778689973879 139.39714382804294 654.871060503119 # Ar
1499 1499 1 0.0 302.2767197366932 644.8646016549469 561.3153179785003 # Ar
1500 1500 1 0.0 693.0223398966464 668.8932469097011 668.433086527809 # Ar
1501 1501 1 0.0 717.2000490995335 401.17488170763716 678.1559853842781 # Ar
1502 1502 1 0.0 555.8961959370696 169.89040471002156 813.3240375808044 # Ar
1503 1503 1 0.0 332.1503443904842 415.9836673653277 345.83726303064964 # Ar
1504 1504 1 0.0 200.163115656445 618.233761135809 213.6918174720924 # Ar
1505 1505 1 0.0 540.8966395153221 83.1076463472287 775.6463856433201 # Ar
1506 1506 1 0.0 45.02848133137034 742.1302885611751 589.1467269925313 # Ar
1507 1507 1 0.0 453.6431270643044 578.3166283900335 204.49404378931294 # Ar
1508 1508 1 0.0 702.6179656112079 480.3621615541495 230.22019068632454 # Ar
1509 1509 1 0.0 217.05933288286474 467.6759632246494 747.7140361267565 # Ar
1510 1510 1 0.0 544.6241042413366 245.79068212004447 748.9938532683149 # Ar
1511 1511 1 0.0 299.7441434974027 500.382883330252 347.1726712807047 # Ar
1512 1512 1 0.0 547.2352386761693 141.047742950335 172.99805809838114 # Ar
1513 1513 1 0.0 738.6628323006221 582.3389834965642 367.3503722358172 # Ar
1514 1514 1 0.0 487.4547036522646 158.15658134363386 455.73281187975334 # Ar
1515 1515 1 0.0 145.18994343504377 316.0184217156102 185.91015650743253 # Ar
1516 1516 1 0.0 282.15860893708435 71.88594996370772 84.35945183070363 # Ar
1517 1517 1 0.0 96.9008151658615 659.2941114903886 402.78363494004293 # Ar
1518 1518 1 0.0 490.15869410913814 43.01743823475255 711.0892659871552 # Ar
1519 1519 1 0.0 404.6109574009153 770.952134036773 719.4432361791336 # Ar
1520 1520 1 0.0 338.2465875102082 325.3172343561591 37.66603981435452 # Ar
1521 1521 1 0.0 157.31535240183632 46.65766932889264 244.1712409291605 # Ar
1522 1522 1 0.0 717.5998028219632 107.70585238730672 742.2680865606967 # Ar
1523 1523 1 0.0 765.0604436183388 577.4371223856405 218.16221157160496 # Ar
1524 1524 1 0.0 695.4376804959909 590.9836732499404 599.9797446510338 # Ar
1525 1525 1 0.0 357.96409142500124 22.607473190732986 282.76890966598626 # Ar
1526 1526 1 0.0 632.5222342434064 181.05680335121843 716.9545668846055 # Ar
1527 1527 1 0.0 471.15272523266935 688.0037927217193 131.04935038829848 # Ar
1528 1528 1 0.0 206.09982621679873 607.6654432231713 525.7000986163297 # Ar
1529 1529 1 0.0 614.8827788877272 163.81606319028617 655.0945494963981 # Ar
1530 1530 1 0.0 661.0023735468358 106.82424244865985 532.4153922581191 # Ar
1531 1531 1 0.0 364.46324134912453 745.1945498053277 516.240024145834 # Ar
1532 1532 1 0.0 136.65190555609968 106.70265915769929 345.7066864503405 # Ar
1533 1533 1 0.0 709.9573267993926 646.6494744035427 536.0310150080322 # Ar
1534 1534 1 0.0 756.5361977437333 773.9698632160596 114.03311035178987 # Ar
1535 1535 1 0.0 763.5320957755076 749.4209068395671 552.324522720318 # Ar
1536 1536 1 0.0 30.443750803795222 407.16847856626316 543.8311159962494 # Ar
1537 1537 1 0.0 535.4059060025007 804.229073338827 46.10450957303613 # Ar
1538 1538 1 0.0 620.1683768022436 292.8885610038243 799.6495546766541 # Ar
1539 1539 1 0.0 50.945881589549884 802.6743591943092 164.84853259859662 # Ar
1540 1540 1 0.0 462.774420578229 420.7972737097335 525.8429510887178 # Ar
1541 1541 1 0.0 388.8418991959574 602.1605926075388 88.03495320133553 # Ar
1542 1542 1 0.0 454.75907580840345 322.4667146220789 290.8994398711079 # Ar
1543 1543 1 0.0 345.27341211264655 768.2330212643653 704.8900715948068 # Ar
1544 1544 1 0.0 39.78710842332946 405.5765704020505 770.2595079616572 # Ar
1545 1545 1 0.0 581.2389642425192 590.3013399900782 300.1522494527349 # Ar
1546 1546 1 0.0 477.41914939300307 15.045206304510309 549.010020982938 # Ar
1547 1547 1 0.0 647.2664105845157 809.926628575882 568.9067365872754 # Ar
1548 1548 1 0.0 300.34675335574275 341.880811418408 378.166156285475 # Ar
1549 1549 1 0.0 385.3287888120929 133.87262406248226 31.601168031269875 # Ar
1550 1550 1 0.0 94.06891308629747 651.2553013355671 589.6498576713265 # Ar
1551 1551 1 0.0 464.4277956287706 782.8237868537501 679.9759379375886 # Ar
1552 1552 1 0.0 429.0288678942115 329.10934515857434 735.9054191410358 # Ar
1553 1553 1 0.0 3.8278510303133766 70.72820954438617 387.11466808666734 # Ar
1554 1554 1 0.0 93.9441410861383 176.1553923978505 773.2009343946833 # Ar
1555 1555 1 0.0 672.1198942287688 665.9452127136603 611.2782237499841 # Ar
1556 1556 1 0.0 772.6889604978409 201.70014552677318 423.8525862250557 # Ar
1557 1557 1 0.0 323.9843981365514 678.5392756025143 134.39323726714062 # Ar
1558 1558 1 0.0 113.46259363852079 408.79920710145626 229.0558403879064 # Ar
1559 1559 1 0.0 491.62553133487063 487.3639583504505 72.67603029840197 # Ar
1560 1560 1 0.0 23.74380007716366 78.15285332462939 220.26625215271721 # Ar
1561 1561 1 0.0 103.92639962041109 102.80651187256369 10.041572763635921 # Ar
1562 1562 1 0.0 226.09585955529909 757.6695668463658 378.0498501872975 # Ar
1563 1563 1 0.0 527.283269479061 457.8891752696176 364.10956399677286 # Ar
1564 1564 1 0.0 12.604683027509447 676.113476632483 343.88383919779045 # Ar
1565 1565 1 0.0 693.5180182420571 284.3548953373917 816.7829403290773 # Ar
1566 1566 1 0.0 500.7666667908832 526.5544202897709 365.780811900972 # Ar
1567 1567 1 0.0 99.236878843963 81.70111349566446 420.55682461705715 # Ar
1568 1568 1 0.0 314.7552377919604 539.5684849945359 477.2373650880571 # Ar
1569 1569 1 0.0 549.8236715154229 717.3804413521872 302.914932361037 # Ar
1570 1570 1 0.0 576.8978514702964 2.5412481012431805 686.5057357683204 # Ar
1571 1571 1 0.0 691.388093410514 589.6022348070954 268.34271563688964 # Ar
1572 1572 1 0.0 463.5105989889774 552.4979898297233 278.428683986935 # Ar
1573 1573 1 0.0 247.67216498779703 46.3926648640951 503.69690880476594 # Ar
1574 1574 1 0.0 601.5978223201241 739.5528429773206 386.9187817406476 # Ar
1575 1575 1 0.0 118.52119856207793 284.40171504500614 498.9436453367319 # Ar
1576 1576 1 0.0 809.1008923697109 580.0294643302408 387.2820963138766 # Ar
1577 1577 1 0.0 728.009630307611 806.1906581927135 641.1834978061745 # Ar
1578 1578 1 0.0 237.01563394999488 346.5991086922994 72.86265858829486 # Ar
1579 1579 1 0.0 576.8116433770537 239.9463285048557 674.413512125094 # Ar
1580 1580 1 0.0 492.91500504419577 585.3769264108909 586.6016582447081 # Ar
1581 1581 1 0.0 726.5620053442324 1.3071536592503803 775.1812615954092 # Ar
1582 1582 1 0.0 204.10349928640775 262.24958256040617 808.9036413551343 # Ar
1583 1583 1 0.0 11.313014820444637 355.00181407235686 426.55591046348127 # Ar
1584 1584 1 0.0 290.6331690915521 758.826231794368 724.7811619882385 # Ar
1585 1585 1 0.0 101.6266358128044 583.281826626756 721.6301647283843 # Ar
1586 1586 1 0.0 595.4627146884594 216.0927565831814 708.6489117769155 # Ar
1587 1587 1 0.0 267.1693713918428 213.58265897243263 511.85371610211746 # Ar
1588 1588 1 0.0 677.9967092848786 616.1711440350733 744.7930900557842 # Ar
1589 1589 1 0.0 358.571537129878 660.9600598089382 483.0873273683466 # Ar
1590 1590 1 0.0 664.9697739593306 501.3393523018888 717.0435318946035 # Ar
1591 1591 1 0.0 400.82596059782213 645.6917062237108 723.895389674252 # Ar
1592 1592 1 0.0 334.3330910312087 130.38062611226113 294.090467849326 # Ar
1593 1593 1 0.0 623.6104289261325 202.98255292758458 148.6228167529758 # Ar
1594 1594 1 0.0 512.94642567895 351.6519632457815 325.87664326163724 # Ar
1595 1595 1 0.0 797.9862086526956 376.6187425224932 434.53595677223467 # Ar
1596 1596 1 0.0 485.44834756182615 180.25354698779537 318.8986381610274 # Ar
1597 1597 1 0.0 651.7929105578243 496.8344227305089 757.1467757354279 # Ar
1598 1598 1 0.0 649.1358214705093 155.96564201820746 628.6927117921908 # Ar
1599 1599 1 0.0 117.06488282151115 150.11335379003708 137.59289806240554 # Ar
1600 1600 1 0.0 702.3480551924184 33.59074950171183 387.3959010236583 # Ar
1601 1601 1 0.0 497.8968815562779 680.9731142035052 355.61738365635097 # Ar
1602 1602 1 0.0 171.09661314416695 375.1719456842442 486.0868885222624 # Ar
1603 1603 1 0.0 85.81818661095681 185.3282438677582 672.1278867799313 # Ar
1604 1604 1 0.0 682.9226921491206 747.8391223853837 673.3721026056601 # Ar
1605 1605 1 0.0 113.67342487028057 676.9313030264464 90.02381745988131 # Ar
1606 1606 1 0.0 628.4681339496616 552.8831435062799 333.19028952390573 # Ar
1607 1607 1 0.0 237.1248867570463 9.083288463160093 619.4055730955331 # Ar
1608 1608 1 0.0 7.170664490065859 30.9486003436477 692.8298371194904 # Ar
1609 1609 1 0.0 32.19622038635468 362.2418491030507 480.0757926166808 # Ar
1610 1610 1 0.0 328.10853175790334 341.159543370992 373.645681113437 # Ar
1611 1611 1 0.0 803.2081854060974 160.30686400473115 322.94727248724786 # Ar
1612 1612 1 0.0 423.39525598005395 495.71333349671386 157.04610139975944 # Ar
1613 1613 1 0.0 49.042287880562746 628.0523977390726 315.79905621362457 # Ar
1614 1614 1 0.0 776.9973460001778 45.652323648280266 685.9306471196854 # Ar
1615 1615 1 0.0 113.06008810082224 703.7048970001421 617.0327463651163 # Ar
1616 1616 1 0.0 312.7067663471119 577.0923734084993 704.651605152682 # Ar
1617 1617 1 0.0 200.82987031857104 621.8106032016591 365.3104613198829 # Ar
1618 1618 1 0.0 593.2750106152729 90.5384391689868 324.0707698954539 # Ar
1619 1619 1 0.0 430.3475557209954 78.92512100447952 151.67149476997304 # Ar
1620 1620 1 0.0 567.2677794282287 594.5059189534994 48.94937400546311 # Ar
1621 1621 1 0.0 3.9119608174025275 684.2755191890958 393.00702918395956 # Ar
1622 1622 1 0.0 758.0119007764014 438.2984055565234 701.4519474017941 # Ar
1623 1623 1 0.0 411.01001297586805 474.65154264901184 161.99073735170276 # Ar
1624 1624 1 0.0 252.00798957258505 312.8572410392709 372.42105705352554 # Ar
1625 1625 1 0.0 575.7440653184157 696.0495248381472 555.0025190349841 # Ar
1626 1626 1 0.0 166.78350799788578 246.08270668352355 747.3916237179974 # Ar
1627 1627 1 0.0 773.4918707275434 162.82240297332137 184.34129413041668 # Ar
1628 1628 1 0.0 22.313292192338466 133.7845305537834 598.6337557367129 # Ar
1629 1629 1 0.0 242.89174313868435 751.4592453192107 283.8558434554013 # Ar
1630 1630 1 0.0 530.4200850285467 414.57112457912365 605.2672078983538 # Ar
1631 1631 1 0.0 558.6404872875312 125.914966694298 211.53369688122055 # Ar
1632 1632 1 0.0 236.20073595956814 541.0688466756127 141.18956362132894 # Ar
1633 1633 1 0.0 362.40357983438446 544.048895027274 748.9925900403508 # Ar
1634 1634 1 0.0 342.6935518292407 692.7396814748399 106.52198930962267 # Ar
1635 1635 1 0.0 81.44483047156953 562.0912718264781 24.94592024762329 # Ar
1636 1636 1 0.0 790.0167754970889 793.3948022894527 474.4939391643925 # Ar
1637 1637 1 0.0 510.4853391489036 72.61489911116016 371.48911345847085 # Ar
1638 1638 1 0.0 335.48513742514916 656.4618285369969 460.9984538601648 # Ar
1639 1639 1 0.0 671.9722550630856 397.69690704974147 9.805513301405703 # Ar
1640 1640 1 0.0 768.7522595044591 592.3923128869998 671.5934641229678 # Ar
1641 1641 1 0.0 96.54421172141957 322.30424906034983 574.1850504038473 # Ar
1642 1642 1 0.0 211.0128530938447 71.87149664776776 322.46293135148136 # Ar
1643 1643 1 0.0 284.79437032332197 693.2273243980011 781.2353287310559 # Ar
1644 1644 1 0.0 210.43505450703933 110.45610671992405 324.707417728093 # Ar
1645 1645 1 0.0 251.12843240295413 160.26214146356563 65.72677369999055 # Ar
1646 1646 1 0.0 343.041033215674 599.1220510625441 125.18094539402551 # Ar
1647 1647 1 0.0 49.02200922969138 573.1599789542162 334.67503725782444 # Ar
1648 1648 1 0.0 644.8372080015736 145.56514254514897 783.1393447706862 # Ar
1649 1649 1 0.0 451.3473040928679 658.27933086165 151.35128952392785 # Ar
1650 1650 1 0.0 711.3722374540587 95.92610172285262 550.4491507965511 # Ar
1651 1651 1 0.0 379.00532606158794 95.99045199496996 147.9431099671321 # Ar
1652 1652 1 0.0 225.58792211101496 678.9843651706589 473.10886138509227 # Ar
1653 1653 1 0.0 617.3151314499376 474.46610427391465 460.38088173200913 # Ar
1654 1654 1 0.0 86.3309933892458 708.2293166443458 82.73670218517984 # Ar
1655 1655 1 0.0 742.8171600520342 690.201989800854 777.3689141167115 # Ar
1656 1656 1 0.0 778.2975200116072 485.5677973554764 310.9026640708031 # Ar
1657 1657 1 0.0 791.6374792901677 527.6969035523289 359.9921175768333 # Ar
1658 1658 1 0.0 280.49941476070603 434.3216880994383 686.3180431224363 # Ar
1659 1659 1 0.0 557.8245969601692 351.90739410847783 686.2706847001319 # Ar
1660 1660 1 0.0 473.9105502762508 608.447559186456 686.6762004810485 # Ar
1661 1661 1 0.0 785.0601478247708 377.65985451142836 199.6471136588184 # Ar
1662 1662 1 0.0 1.4065511737407577 310.7036515110564 468.3901178937633 # Ar
1663 1663 1 0.0 693.8105800363826 110.92827341387442 815.8394253973839 # Ar
1664 1664 1 0.0 388.3253428555217 568.8193800270841 808.4182206449464 # Ar
1665 1665 1 0.0 8.552039368014302 801.8178344124151 645.2971216338291 # Ar
1666 1666 1 0.0 25.335948335631084 721.7955567365852 83.74695577614816 # Ar
1667 1667 1 0.0 190.32539519022075 627.6964453441301 548.2520911000242 # Ar
1668 1668 1 0.0 104.63052519814306 616.6735707879876 630.9444506520506 # Ar
1669 1669 1 0.0 666.9595779650759 129.36794401103003 195.3735375548909 # Ar
1670 1670 1 0.0 91.83933323491743 447.5988442330987 650.0451416356627 # Ar
1671 1671 1 0.0 606.7467140898955 394.47750420980327 428.8465318726588 # Ar
1672 1672 1 0.0 365.45864986034877 234.01977915865942 812.4209865856864 # Ar
1673 1673 1 0.0 351.8806658953712 334.06914405277394 701.6144799559128 # Ar
1674 1674 1 0.0 806.475631833571 9.786458013596663 51.74557876898658 # Ar
1675 1675 1 0.0 637.019614432221 541.3233981259993 447.4938322264139 # Ar
1676 1676 1 0.0 119.83457656465943 815.9644400339087 406.3676784820162 # Ar
1677 1677 1 0.0 503.7815425548072 698.2223991711242 2.5339136643726126 # Ar
1678 1678 1 0.0 116.69340851426708 254.84914576277754 163.06251911074085 # Ar
1679 1679 1 0.0 545.1729205616116 45.58370913844016 76.7884948768387 # Ar
1680 1680 1 0.0 479.2556836791527 128.8559224961961 510.08066034966413 # Ar
1681 1681 1 0.0 631.2217085577041 420.61451377671807 740.0011652323052 # Ar
1682 1682 1 0.0 212.24027744030047 17.30803679939239 455.7823617347596 # Ar
1683 1683 1 0.0 687.3779025289042 301.38702826975816 594.1415293416128 # Ar
1684 1684 1 0.0 687.1813009780469 221.44595455430172 552.7835225139978 # Ar
1685 1685 1 0.0 126.32508046516126 414.3347135640491 110.58272581992473 # Ar
1686 1686 1 0.0 111.6155798193454 112.69240386431638 101.60858759166113 # Ar
1687 1687 1 0.0 573.6201575747059 66.66055557256239 582.5570748129836 # Ar
1688 1688 1 0.0 464.95484309732865 273.45682785350925 104.70364038002454 # Ar
1689 1689 1 0.0 802.5207705394439 678.0095541995818 394.3910976447161 # Ar
1690 1690 1 0.0 316.827656167312 154.95892670691703 397.13628178752117 # Ar
1691 1691 1 0.0 338.9273580890501 691.973547654214 268.76517603691406 # Ar
1692 1692 1 0.0 664.7697844212365 509.5717590109089 374.1073444141748 # Ar
1693 1693 1 0.0 235.94343838672242 504.4648409981834 67.98055540223265 # Ar
1694 1694 1 0.0 144.85080613070514 530.7028871240472 118.56738464154343 # Ar
1695 1695 1 0.0 460.1808037729722 589.4800907197085 370.440844171446 # Ar
1696 1696 1 0.0 574.9239092854833 239.3659772304846 369.65971908496135 # Ar
1697 1697 1 0.0 206.8803693030439 208.8218836969428 151.76136489549322 # Ar
1698 1698 1 0.0 701.0521872319241 675.0909632490329 565.6859162134878 # Ar
1699 1699 1 0.0 662.7706486262374 148.3633263485226 683.0435070240104 # Ar
1700 1700 1 0.0 410.1706863813722 740.6071414808113 194.44580081669343 # Ar
1701 1701 1 0.0 759.6800051236668 336.31237681334073 530.0968212520837 # Ar
1702 1702 1 0.0 390.6716527020231 604.1763003984114 103.22742003033643 # Ar
1703 1703 1 0.0 291.3871249701836 664.6376376714251 548.6678165927447 # Ar
1704 1704 1 0.0 422.9937908091518 150.33221470513354 796.5825814787431 # Ar
1705 1705 1 0.0 358.24351211725457 528.493814153157 548.4708747819196 # Ar
1706 1706 1 0.0 553.2635843881305 461.474830360469 519.3729309353837 # Ar
1707 1707 1 0.0 721.7817911264543 232.96022773921229 584.9556300417223 # Ar
1708 1708 1 0.0 520.6276585403378 170.79504087083288 794.4300420158228 # Ar
1709 1709 1 0.0 775.0262926971143 266.5803877550289 394.05852734890664 # Ar
1710 1710 1 0.0 296.112323223586 320.8801144873085 613.1500346616485 # Ar
1711 1711 1 0.0 815.474953450666 118.99837246198268 701.0845724349414 # Ar
1712 1712 1 0.0 795.7388686089723 320.08760973759433 74.049157906103 # Ar
1713 1713 1 0.0 252.78290699288436 119.9938284524608 176.67209474077018 # Ar
1714 1714 1 0.0 155.39579762886603 263.65773163812366 59.26326090639907 # Ar
1715 1715 1 0.0 764.4752172149089 78.18517479939358 77.74159993521778 # Ar
1716 1716 1 0.0 520.8050785855627 7.133226178616409 710.8995815359239 # Ar
1717 1717 1 0.0 497.9926291250554 701.0601723648751 9.888665964183524 # Ar
1718 1718 1 0.0 503.96652610721543 802.108099535336 66.57017636842613 # Ar
1719 1719 1 0.0 621.8027855102581 716.0444463398437 768.2302031131999 # Ar
1720 1720 1 0.0 146.6117188461968 628.0162216657391 351.1553776759656 # Ar
1721 1721 1 0.0 472.72933984072455 289.48438367714107 29.547058120874148 # Ar
1722 1722 1 0.0 452.6397049979269 78.22036562691058 596.0358752902006 # Ar
1723 1723 1 0.0 737.6950639997466 480.6987357875444 608.2201256607542 # Ar
1724 1724 1 0.0 205.88180762013175 272.059311725539 591.7308297415257 # Ar
1725 1725 1 0.0 78.60801270587983 158.41916170242268 192.6180473168067 # Ar
1726 1726 1 0.0 393.90582479154426 45.258852270752016 738.8838147951839 # Ar
1727 1727 1 0.0 59.668347877847005 303.14068629485473 435.88205901365416 # Ar
1728 1728 1 0.0 493.14802693743843 250.83503777619364 589.7758196786028 # Ar
1729 1729 1 0.0 638.1538362562662 144.60505943423973 768.7563537386145 # Ar
1730 1730 1 0.0 30.892186302899457 625.1988894944674 89.30325175182024 # Ar
1731 1731 1 0.0 522.6019151224137 249.26852217477753 555.5476047924525 # Ar
1732 1732 1 0.0 405.58912671719384 97.49516504467098 721.1072859543601 # Ar
1733 1733 1 0.0 514.5984978325689 245.34519407917938 508.800446015704 # Ar
1734 1734 1 0.0 59.37986173752859 170.42053719195715 515.7280299572117 # Ar
1735 1735 1 0.0 49.64962372672975 377.7621116853103 811.1748022534133 # Ar
1736 1736 1 0.0 497.69648387188107 466.707152925402 662.8070195630781 # Ar
1737 1737 1 0.0 459.5487171477024 224.23233020201866 797.728512147668 # Ar
1738 1738 1 0.0 719.6930482933783 290.08542450709234 776.5487667199269 # Ar
1739 1739 1 0.0 648.1779672484514 761.2240631987305 323.8659983761833 # Ar
1740 1740 1 0.0 794.2473390413733 787.9334964499283 78.0548475960346 # Ar
1741 1741 1 0.0 302.85967072559987 570.5818638439289 288.57547237266243 # Ar
1742 1742 1 0.0 783.526451450006 376.8207608048569 185.6860543913377 # Ar
1743 1743 1 0.0 494.92237391307515 794.5459614445616 88.45738845950865 # Ar
1744 1744 1 0.0 259.1044889858352 727.263035799537 304.7612917260064 # Ar
1745 1745 1 0.0 42.14117932740467 780.6983432071165 739.0356919739736 # Ar
1746 1746 1 0.0 165.91015674899847 499.92331016809413 791.340551166089 # Ar
1747 1747 1 0.0 93.16038120124797 278.2022877545199 230.44450928488905 # Ar
1748 1748 1 0.0 6.179136930413375 88.19432865426533 707.7788873845518 # Ar
1749 1749 1 0.0 719.3772046626768 74.86033189702134 681.6810920369669 # Ar
1750 1750 1 0.0 558.7049441538175 475.7752589724183 261.63562310096034 # Ar
1751 1751 1 0.0 211.02495598851337 78.49267740420174 502.10096028179356 # Ar
1752 1752 1 0.0 187.90771582047594 119.20575897149821 760.9556127054628 # Ar
1753 1753 1 0.0 813.032500917045 688.0971355023275 60.02772557504406 # Ar
1754 1754 1 0.0 347.69468522654853 798.7479426643138 308.8353339188339 # Ar
1755 1755 1 0.0 94.75028256307382 448.3936005203474 611.9884307074371 # Ar
1756 1756 1 0.0 196.4459531868779 641.8008425031371 756.219696132963 # Ar
1757 1757 1 0.0 505.23506526077534 393.9084381927347 300.1721955772589 # Ar
1758 1758 1 0.0 141.02451219600846 181.13420782880883 153.31879066165465 # Ar
1759 1759 1 0.0 506.6595487398278 548.4215254996736 358.83708226547395 # Ar
1760 1760 1 0.0 429.90180572361345 317.03693730214854 298.8754795839596 # Ar
1761 1761 1 0.0 283.7356759718428 205.7148610200427 433.48166375138544 # Ar
1762 1762 1 0.0 322.3398813120869 44.412992757543975 166.04474196773668 # Ar
1763 1763 1 0.0 14.524510702882994 557.151153777379 199.67441550019615 # Ar
1764 1764 1 0.0 22.366893059178402 723.8353221393351 351.7453225441102 # Ar
1765 1765 1 0.0 209.69931683722285 696.8540766065514 362.8400440112724 # Ar
1766 1766 1 0.0 254.93787778640242 759.3493653915891 776.6133989712133 # Ar
1767 1767 1 0.0 11.733249376770752 647.7965287278403 377.29589036294385 # Ar
1768 1768 1 0.0 590.2524322375439 623.6110520263472 348.20819774805017 # Ar
1769 1769 1 0.0 99.75569896212339 589.3208124318062 29.624591765832868 # Ar
1770 1770 1 0.0 215.78122286652106 431.8588329356761 378.1872725181187 # Ar
1771 1771 1 0.0 45.821744059504276 755.7612249411105 559.8818446628633 # Ar
1772 1772 1 0.0 243.76001551847352 660.4944417792517 277.0040135543906 # Ar
1773 1773 1 0.0 578.535690495567 182.97841608948804 313.29595306632507 # Ar
1774 1774 1 0.0 378.98352212433883 189.63610571040334 475.0396697972122 # Ar
1775 1775 1 0.0 79.69956842133095 485.20296351990265 586.916172316613 # Ar
1776 1776 1 0.0 336.42048323806733 540.6600115522352 708.3620022114195 # Ar
1777 1777 1 0.0 331.50949901895257 277.24721031123926 194.55653239120318 # Ar
1778 1778 1 0.0 416.0258082354716 402.97800994140204 29.76880646073884 # Ar
1779 1779 1 0.0 707.5924511630429 367.1156410540952 352.70403187365 # Ar
1780 1780 1 0.0 245.47491922251626 274.6574300563747 539.0919463496966 # Ar
1781 1781 1 0.0 16.073993022562355 60.615991449743554 0.42775905013312626 # Ar
1782 1782 1 0.0 501.1194404890367 236.20410425089707 73.5285094179926 # Ar
1783 1783 1 0.0 599.1066735518848 1.8596360821888724 374.8549452710399 # Ar
1784 1784 1 0.0 39.49697447358022 140.8213647683136 516.884688731998 # Ar
1785 1785 1 0.0 632.8231390800535 201.2699841720241 706.0392282659068 # Ar
1786 1786 1 0.0 325.1761305573992 312.07005520895484 563.1368667022606 # Ar
1787 1787 1 0.0 192.99435934075484 213.48365038361936 681.1581955418885 # Ar
1788 1788 1 0.0 174.38041667332692 781.5370716070449 92.60071406355094 # Ar
1789 1789 1 0.0 199.561703801027 412.90529366397124 294.27821832987445 # Ar
1790 1790 1 0.0 471.20342076415767 49.023503263551284 449.78244271408533 # Ar
1791 1791 1 0.0 584.0203543984289 530.5544538915113 473.2600415514673 # Ar
1792 1792 1 0.0 117.72016263041215 490.97011064801205 477.13867297453027 # Ar
1793 1793 1 0.0 546.4973272391325 762.4135010721241 620.5131063283961 # Ar
1794 1794 1 0.0 197.568839002174 427.47664296319516 605.5026789408546 # Ar
1795 1795 1 0.0 29.375438439059767 579.5031681822617 267.275806600538 # Ar
1796 1796 1 0.0 219.99012165581283 772.2315533210252 170.54075208239456 # Ar
1797 1797 1 0.0 86.87878462348728 814.9008363197911 465.0638629386352 # Ar
1798 1798 1 0.0 646.7133348732406 507.33710092686624 179.44691958653485 # Ar
1799 1799 1 0.0 494.0937265544073 548.9533980303037 256.0055868730429 # Ar
1800 1800 1 0.0 388.95988952970015 160.48745723449198 77.10258408992746 # Ar
1801 1801 1 0.0 117.89422305234328 66.59042674523174 139.761141940279 # Ar
1802 1802 1 0.0 22.79863963227873 539.0840609703566 269.6349954403918 # Ar
1803 1803 1 0.0 179.31994385942133 437.5163390328341 774.8971490157048 # Ar
1804 1804 1 0.0 91.33888711326063 119.6516529164138 709.657551595934 # Ar
1805 1805 1 0.0 257.334336036263 358.5100995551639 577.40501427444 # Ar
1806 1806 1 0.0 468.0539754686509 767.9338012302494 731.3295307603372 # Ar
1807 1807 1 0.0 626.9402645308483 234.29300926819536 95.15582501937958 # Ar
1808 1808 1 0.0 276.32943377110763 557.8600716534299 238.32596090435246 # Ar
1809 1809 1 0.0 602.8480083871223 687.8384826753883 499.29055819834264 # Ar
1810 1810 1 0.0 378.7957046167265 376.94619391014743 163.80584086728106 # Ar
1811 1811 1 0.0 371.6436200198802 160.82741084263014 218.36758285018018 # Ar
1812 1812 1 0.0 547.3684089922896 501.2481924857011 636.1498584750576 # Ar
1813 1813 1 0.0 622.2824444452585 526.8634119230941 161.6785680617441 # Ar
1814 1814 1 0.0 254.8029599068255 470.2506837305849 584.6714766765695 # Ar
1815 1815 1 0.0 102.6936609847086 298.5269208221231 64.81647363752103 # Ar
1816 1816 1 0.0 547.3037194949687 451.06564349240676 240.9802278542132 # Ar
1817 1817 1 0.0 470.70208768554545 199.02155674002955 682.4039182628093 # Ar
1818 1818 1 0.0 221.79193044238875 594.8512679480881 208.12585885116528 # Ar
1819 1819 1 0.0 217.8973439004037 731.8299795596707 598.7096643282613 # Ar
1820 1820 1 0.0 725.5370173077038 690.3898525565418 548.7514275414487 # Ar
1821 1821 1 0.0 102.95109859674368 678.521036690452 661.6537672018106 # Ar
1822 1822 1 0.0 725.4286774997732 712.4118232621248 305.1995455230367 # Ar
1823 1823 1 0.0 587.0361717108993 15.700781136246501 594.6905307056157 # Ar
1824 1824 1 0.0 796.8436888085854 362.2648113227401 435.03266759355535 # Ar
1825 1825 1 0.0 208.98817021663262 735.8462418790689 26.068649324617464 # Ar
1826 1826 1 0.0 19.831497116081945 94.48562016234563 190.50482495054615 # Ar
1827 1827 1 0.0 606.1998061434053 526.4707137868991 460.3235295387588 # Ar
1828 1828 1 0.0 34.2511583688858 154.45469411683746 705.2397532366227 # Ar
1829 1829 1 0.0 698.6944383929689 748.6291822280222 554.5908660256158 # Ar
1830 1830 1 0.0 675.7716689345218 541.9927019726516 357.3322733786258 # Ar
1831 1831 1 0.0 399.65415761309384 622.7088094124084 148.27967769401175 # Ar
1832 1832 1 0.0 209.09616313584104 660.1252653335823 592.3800685387043 # Ar
1833 1833 1 0.0 195.37348487381175 230.18988392322476 205.61683297282204 # Ar
1834 1834 1 0.0 222.52414060414162 474.4678260185896 591.8055811101098 # Ar
1835 1835 1 0.0 707.5728485913562 473.8498731960035 651.0813407799145 # Ar
1836 1836 1 0.0 525.4869069713276 612.6149767784256 667.5513115056416 # Ar
1837 1837 1 0.0 46.88550749713799 784.775734541453 732.9000696783976 # Ar
1838 1838 1 0.0 795.36992302688 220.1656384161327 292.4480905982514 # Ar
1839 1839 1 0.0 446.86233878799715 269.6509018069458 668.1003076923122 # Ar
1840 1840 1 0.0 78.54650378772136 802.5516451523544 764.8486346419476 # Ar
1841 1841 1 0.0 321.21435730060557 771.8723390222633 530.879238205777 # Ar
1842 1842 1 0.0 92.07485100011542 802.660687846885 190.15344780792913 # Ar
1843 1843 1 0.0 561.178536729429 135.67959333846377 661.4666225628375 # Ar
1844 1844 1 0.0 808.4053006766211 231.39905820313552 45.237950253788284 # Ar
1845 1845 1 0.0 559.406138388472 122.91986079035483 617.415276403508 # Ar
1846 1846 1 0.0 180.47714266074726 660.4912522990994 790.6584393143315 # Ar
1847 1847 1 0.0 346.23680043602894 179.2888559010608 475.57024766020714 # Ar
1848 1848 1 0.0 85.9130255044568 133.21703455886893 759.1025375823286 # Ar
1849 1849 1 0.0 630.4377981485662 699.2833841069834 640.5033577481577 # Ar
1850 1850 1 0.0 502.2331383356472 446.7841009418976 88.8174852129386 # Ar
1851 1851 1 0.0 698.4105671347204 210.7868024314237 481.23910762171926 # Ar
1852 1852 1 0.0 671.2107912358692 706.3380436738584 386.3884045642221 # Ar
1853 1853 1 0.0 122.36295066952957 353.6490593461446 501.3684035551881 # Ar
1854 1854 1 0.0 266.4597028788854 635.589874387863 726.9740431109352 # Ar
1855 1855 1 0.0 83.86678965871583 803.9829114769678 545.0135390824297 # Ar
1856 1856 1 0.0 711.9155700802746 329.7014140244265 54.79836978654576 # Ar
1857 1857 1 0.0 744.2761959058996 286.53406860236583 509.06495346409747 # Ar
1858 1858 1 0.0 306.64574179510333 718.5880430349168 689.532516197084 # Ar
1859 1859 1 0.0 171.4000086110324 299.49915480452785 740.7667631873727 # Ar
1860 1860 1 0.0 472.1342517470722 304.0767944635317 191.54858296406923 # Ar
1861 1861 1 0.0 666.5989638273217 267.6218306309004 570.9241471840306 # Ar
1862 1862 1 0.0 202.8906815028685 785.6769347197107 174.19118004763368 # Ar
1863 1863 1 0.0 804.0663251508114 808.4197900439422 626.9840662087009 # Ar
1864 1864 1 0.0 749.2539847885706 295.53271715605194 812.2869956109213 # Ar
1865 1865 1 0.0 69.69703532084662 62.82847999854256 761.6754034794038 # Ar
1866 1866 1 0.0 93.93933217114929 210.3132540431179 586.522787110962 # Ar
1867 1867 1 0.0 790.5143892662325 718.1712512410135 271.0015838452876 # Ar
1868 1868 1 0.0 468.91001488595595 283.11753885477185 96.5102581015752 # Ar
1869 1869 1 0.0 295.9553385398498 305.46237696743054 484.43004181319395 # Ar
1870 1870 1 0.0 140.2123123376088 84.63946835649566 523.7064039499469 # Ar
1871 1871 1 0.0 471.5506561900958 102.74178585574703 484.6512718391952 # Ar
1872 1872 1 0.0 702.5107773002677 503.23794282743575 18.09593420044298 # Ar
1873 1873 1 0.0 718.343697298959 571.708132457762 675.5382478774582 # Ar
1874 1874 1 0.0 494.3319687190531 359.15880015334125 362.4629540456374 # Ar
1875 1875 1 0.0 68.99198893361444 461.93865373245825 388.7745613568374 # Ar
1876 1876 1 0.0 766.384591466439 691.6280183697983 160.99897026952596 # Ar
1877 1877 1 0.0 678.98888733815 386.2995111281863 315.68109914689643 # Ar
1878 1878 1 0.0 299.76321388207623 642.0213608641026 667.6464536462827 # Ar
1879 1879 1 0.0 465.81844991773494 517.5221995946152 416.9459234789707 # Ar
1880 1880 1 0.0 81.91295410139071 217.0753883462095 627.7447930443468 # Ar
1881 1881 1 0.0 458.2596356897617 330.92637188470013 473.91024713173107 # Ar
1882 1882 1 0.0 362.3458499270289 248.23486841248356 654.1868326253845 # Ar
1883 1883 1 0.0 648.399019568843 406.389816941949 56.76467433215756 # Ar
1884 1884 1 0.0 104.34917089376917 291.608288073236 206.9513956172298 # Ar
1885 1885 1 0.0 387.3538797445447 418.13962921731235 658.0127745189513 # Ar
1886 1886 1 0.0 286.2429644477282 745.3615670747597 493.1833689103311 # Ar
1887 1887 1 0.0 402.37224149671067 507.24532852097394 396.1991734430024 # Ar
1888 1888 1 0.0 227.1467836048428 51.83754967808448 503.2307693289418 # Ar
1889 1889 1 0.0 775.2347369831958 99.48844984277464 165.9469432086609 # Ar
1890 1890 1 0.0 101.28492452813556 690.9470168643674 609.4072529376525 # Ar
1891 1891 1 0.0 41.600384184825764 18.50205381847463 620.0779002864019 # Ar
1892 1892 1 0.0 494.9344261350555 623.2032118340373 423.12333736947716 # Ar
1893 1893 1 0.0 568.9587023813731 203.3528522588374 774.1406896648302 # Ar
1894 1894 1 0.0 384.41878142422047 788.0205556997008 140.45263208751305 # Ar
1895 1895 1 0.0 740.4085185191699 634.2842334910729 586.7616342302158 # Ar
1896 1896 1 0.0 521.3732328857479 194.0335085947701 767.6713344772431 # Ar
1897 1897 1 0.0 748.1127761595868 77.83510268823788 585.2644884382698 # Ar
1898 1898 1 0.0 807.1357089845139 734.7713557362079 791.0272598790121 # Ar
1899 1899 1 0.0 371.42733833070827 437.2241840394234 250.31072090735847 # Ar
1900 1900 1 0.0 758.5319175373303 25.579278438478813 384.5347718493905 # Ar
1901 1901 1 0.0 452.7394620703179 107.51187719583685 688.9797560985361 # Ar
1902 1902 1 0.0 4.385600217532444 333.18891710995973 613.196441755466 # Ar
1903 1903 1 0.0 82.06618329540726 473.3567684935314 586.1204805043542 # Ar
1904 1904 1 0.0 1.7343774600466906 360.3050362499169 168.72056800486345 # Ar
1905 1905 1 0.0 539.8845152605048 477.0901056830622 607.0214963944989 # Ar
1906 1906 1 0.0 376.14544566649084 127.81062324771557 724.2802993947796 # Ar
1907 1907 1 0.0 539.7444567245936 669.0285947646554 261.3493406358635 # Ar
1908 1908 1 0.0 293.790020031025 244.73013493856644 469.74081607096474 # Ar
1909 1909 1 0.0 14.850492085219171 103.38446157534602 208.61372874380132 # Ar
1910 1910 1 0.0 131.8404334353812 459.8493462780979 765.4063565322672 # Ar
1911 1911 1 0.0 104.17881811997746 218.17229396445873 400.7997016998812 # Ar
1912 1912 1 0.0 537.6895775415164 81.3544905521467 250.13434713717456 # Ar
1913 1913 1 0.0 505.2045705102658 494.05190606426305 371.05539115454013 # Ar
1914 1914 1 0.0 647.4781049657037 663.6483624539718 689.8828909153497 # Ar
1915 1915 1 0.0 590.6393085835753 384.6700231280025 320.90502280357055 # Ar
1916 1916 1 0.0 693.9334108107023 264.71674028222577 343.60914834139214 # Ar
1917 1917 1 0.0 133.20671169261698 809.7522139042459 179.05227988091326 # Ar
1918 1918 1 0.0 511.8898872574916 366.6298706677623 466.55804247600383 # Ar
1919 1919 1 0.0 716.4503458484832 94.19346991457289 642.169651187844 # Ar
1920 1920 1 0.0 266.1408051908825 228.5308735282688 516.6554586975516 # Ar
1921 1921 1 0.0 689.092589436079 686.917960858904 702.6328898983908 # Ar
1922 1922 1 0.0 701.4694388956771 421.3421448239697 269.2475264117448 # Ar
1923 1923 1 0.0 543.6350764202626 138.37032166327882 699.4776111948282 # Ar
1924 1924 1 0.0 770.8473208785676 157.83649147916987 35.532859750582936 # Ar
1925 1925 1 0.0 487.963237535088 251.11655039239778 133.26139775577946 # Ar
1926 1926 1 0.0 408.94337631936907 521.4538348607755 304.4793592276199 # Ar
1927 1927 1 0.0 466.22230681643 532.972233339766 260.92466741428893 # Ar
1928 1928 1 0.0 82.05898832375892 351.88185345039176 353.5481881325758 # Ar
1929 1929 1 0.0 2.553211811846222 240.64270468289416 189.35541176132224 # Ar
1930 1930 1 0.0 608.7735984945984 350.19182720274847 10.098713116139134 # Ar
1931 1931 1 0.0 249.09816887533847 377.4082371404908 632.6033951334473 # Ar
1932 1932 1 0.0 421.4331589742134 312.68822902560845 263.1988844821876 # Ar
1933 1933 1 0.0 84.06827993305323 454.164442803172 413.7074196095887 # Ar
1934 1934 1 0.0 514.50716848401 511.6525846409062 231.49598993606173 # Ar
1935 1935 1 0.0 694.6442233099588 745.092471428913 750.0356475870068 # Ar
1936 1936 1 0.0 644.964824020538 691.5684666570083 456.6400253640072 # Ar
1937 1937 1 0.0 39.354942345680605 250.901674826697 551.052706243736 # Ar
1938 1938 1 0.0 530.8544360822624 206.42007695290667 376.0711450657699 # Ar
1939 1939 1 0.0 139.9127833978888 430.8158453238131 358.1623992415506 # Ar
1940 1940 1 0.0 677.3611492175968 20.306172841779322 509.95466769048267 # Ar
1941 1941 1 0.0 447.5125993367477 68.31492506390063 317.5158461043989 # Ar
1942 1942 1 0.0 630.8783407335537 773.8726331753686 204.00868310689762 # Ar
1943 1943 1 0.0 278.55008998504024 782.5365906227057 698.5332583532203 # Ar
1944 1944 1 0.0 160.05750270004722 352.54843863921633 353.04591067679013 # Ar
1945 1945 1 0.0 652.4999180340274 723.2672740990645 317.8636990381933 # Ar
1946 1946 1 0.0 275.4298174801789 640.2764452071226 45.76754274676066 # Ar
1947 1947 1 0.0 228.23661905033515 542.1039756325763 1.6093016179650776 # Ar
1948 1948 1 0.0 629.9941237228212 491.6873792564113 680.9509157084375 # Ar
1949 1949 1 0.0 345.5897802021028 292.15901783190014 813.5907741344238 # Ar
1950 1950 1 0.0 304.3810272597946 592.210280648187 407.81181694481194 # Ar
1951 1951 1 0.0 368.4230356809598 481.95867495313456 428.89478005003497 # Ar
1952 1952 1 0.0 336.9440637395518 16.61364834096108 352.46571583128537 # Ar
1953 1953 1 0.0 308.6846390400537 56.9959305618731 111.2492407190614 # Ar
1954 1954 1 0.0 276.55973040961845 397.4786930323368 297.60664424589515 # Ar
1955 1955 1 0.0 739.773961221608 605.7418769159755 399.7943815241502 # Ar
1956 1956 1 0.0 587.3805024446822 592.4403731852491 794.9692599744316 # Ar
1957 1957 1 0.0 398.8587375706093 522.9603955151559 747.4689535956381 # Ar
1958 1958 1 0.0 552.8213231230162 386.9148133153645 133.43355096364255 # Ar
1959 1959 1 0.0 405.14554746121723 70.6658884445279 151.94557568275616 # Ar
1960 1960 1 0.0 289.8398471638099 542.4010257798132 145.93081745812847 # Ar
1961 1961 1 0.0 288.7070276054983 760.9636679900724 556.9551744124384 # Ar
1962 1962 1 0.0 538.1179506763974 223.28816993475203 287.09337352707263 # Ar
1963 1963 1 0.0 544.7455389540771 303.8115240854729 302.98433121666227 # Ar
1964 1964 1 0.0 44.023407029114125 740.1485037587016 325.8347913346976 # Ar
1965 1965 1 0.0 243.9874911925083 459.5019401720861 731.3167491873199 # Ar
1966 1966 1 0.0 448.65070058902757 658.5640370585277 434.402096986297 # Ar
1967 1967 1 0.0 645.1033222007527 373.1095807481852 166.40292727434064 # Ar
1968 1968 1 0.0 695.2879041338881 151.70862613704182 248.81605286927328 # Ar
1969 1969 1 0.0 337.4090542048635 636.0287955951935 134.1825933415387 # Ar
1970 1970 1 0.0 448.07062676464886 187.37899082963216 273.84515232727085 # Ar
1971 1971 1 0.0 342.79606221052506 210.04834071681364 114.25217612419722 # Ar
1972 1972 1 0.0 786.7201780942154 321.54957090631774 555.1148646909398 # Ar
1973 1973 1 0.0 377.2770400921358 373.20162616644166 316.435515312343 # Ar
1974 1974 1 0.0 327.45279180561135 149.60466480077622 264.1867119839029 # Ar
1975 1975 1 0.0 164.7150230533961 777.9990009629674 336.0311413787587 # Ar
1976 1976 1 0.0 398.20415902215655 625.5007435238477 651.8508910302753 # Ar
1977 1977 1 0.0 332.94495967396074 695.4630831089125 379.29346220505556 # Ar
1978 1978 1 0.0 257.96729463946986 801.8652015163309 299.00766653711435 # Ar
1979 1979 1 0.0 337.01637411147743 748.0670896584785 95.99906901958101 # Ar
1980 1980 1 0.0 7.611661856503597 724.3763565536572 507.4744794353786 # Ar
1981 1981 1 0.0 245.76403102571058 12.7465883194688 411.19423119600884 # Ar
1982 1982 1 0.0 794.3336065813655 454.0226307462108 117.18434205842614 # Ar
1983 1983 1 0.0 557.9031446548918 0.6174603859484886 326.6169220035656 # Ar
1984 1984 1 0.0 497.5217957044912 565.0261541159945 490.22125476885225 # Ar
1985 1985 1 0.0 566.3993374253898 316.6274560660174 194.63606885572912 # Ar
1986 1986 1 0.0 172.0993733108228 741.5410917029343 562.5552211901278 # Ar
1987 1987 1 0.0 509.39448541778796 237.41112596706319 516.4718742304441 # Ar
1988 1988 1 0.0 17.19946675509044 615.9704024582154 230.3524874212685 # Ar
1989 1989 1 0.0 224.696635277827 436.70477543451705 363.6144568380311 # Ar
1990 1990 1 0.0 288.6323519820069 14.113473103250874 11.836701543283544 # Ar
1991 1991 1 0.0 25.472642442889327 112.91763935395176 796.0821320270987 # Ar
1992 1992 1 0.0 20.13710100331274 315.2445685834365 706.6596718336131 # Ar
1993 1993 1 0.0 456.2080517831665 217.42799254861103 312.96948876647207 # Ar
1994 1994 1 0.0 300.3710141599351 27.362998622098857 814.9533451491463 # Ar
1995 1995 1 0.0 243.45965574808676 804.5064794905197 489.0070541310502 # Ar
1996 1996 1 0.0 488.88808029840516 516.6523375862389 482.67262443562777 # Ar
1997 1997 1 0.0 288.6227006959928 362.98747065120955 496.4488297500911 # Ar
1998 1998 1 0.0 175.63456190851142 674.4737672577476 455.9813388723084 # Ar
1999 1999 1 0.0 224.394577069336 569.6344183536582 50.54719945752015 # Ar
2000 2000 1 0.0 741.0895171822272 538.133023389298 473.9227865789721 # Ar
