LAMMPS data file -- atom_style full -- generated by chemfiles
2000 atoms
0 bonds
0 angles
0 dihedrals
0 impropers
1 atom types
0 bond types
0 angle types
0 dihedral types
0 improper types
0.00000000 589.050655 xlo xhi
0.00000000 589.050655 ylo yhi
0.00000000 589.050655 zlo zhi

# Pair Coeffs
# 1 Ar

Masses

1 39.948 # Ar

Atoms # full

1 1 1 0.0 49.20579994334748 548.762181635229 326.66438142126435 # Ar
2 2 1 0.0 512.3667848897261 177.52747930830282 497.3774107670913 # Ar
3 3 1 0.0 121.91653698217597 105.25996456238782 470.21805241848176 # Ar
4 4 1 0.0 472.7529882946339 264.00741952820005 504.8390777655632 # Ar
5 5 1 0.0 113.7040225174307 48.70157121016806 498.7884772598293 # Ar
6 6 1 0.0 134.50374820436917 503.53087527580135 293.17562585315375 # Ar
7 7 1 0.0 173.56935789306107 505.05996964137904 356.295930430448 # Ar
8 8 1 0.0 577.1711695452256 502.0428558020944 112.9427016204992 # Ar
9 9 1 0.0 142.95646424736725 361.8690332867896 221.54099007523132 # Ar
10 10 1 0.0 334.72887855072577 116.01940661888335 371.5457089196983 # Ar
11 11 1 0.0 46.400034462995826 220.22945640289194 473.1975010687916 # Ar
12 12 1 0.0 374.7360202067184 180.1996198216498 276.6180767135772 # Ar
13 13 1 0.0 27.522915727056343 130.19886499426082 255.35537671863295 # Ar
14 14 1 0.0 531.311221596685 406.61100143452023 94.24062986756589 # Ar
15 15 1 0.0 586.2369734448998 131.89271653382346 295.38349026989476 # Ar
16 16 1 0.0 164.76316169063702 578.607673038024 65.05799299611371 # Ar
17 17 1 0.0 549.8617629633654 98.72136071982086 160.36518697866694 # Ar
18 18 1 0.0 464.5282065236641 504.581905995353 419.6239169277234 # Ar
19 19 1 0.0 323.1273364411359 412.5507242693854 399.7351642889479 # Ar
20 20 1 0.0 210.9387812608928 94.68766087072771 155.82061747508456 # Ar
21 21 1 0.0 250.02477256451252 243.98183093076358 212.03185024620413 # Ar
22 22 1 0.0 323.3169337218171 18.640361749532158 219.44157290873866 # Ar
23 23 1 0.0 436.12307348670055 154.5776221851311 324.1545510196853 # Ar
24 24 1 0.0 370.6944315345049 542.2640246586743 459.1927818613263 # Ar
25 25 1 0.0 149.10675653749257 252.2430911873305 473.30041862395655 # Ar
26 26 1 0.0 206.779313761478 463.7612465950396 33.28221973921069 # Ar
27 27 1 0.0 471.5054956220892 262.98933418207577 38.92981439860303 # Ar
28 28 1 0.0 48.70111140881057 384.7678410461112 469.52952391232185 # Ar
29 29 1 0.0 105.86622948163505 63.23626487298443 487.5786126866994 # Ar
30 30 1 0.0 423.0457390042145 391.6203411241304 21.954965206460244 # Ar
31 31 1 0.0 46.930406930279375 11.967703945747472 6.827072515839143 # Ar
32 32 1 0.0 40.44032342027789 236.43992024523976 100.40698390994574 # Ar
33 33 1 0.0 1.0932627621963846 88.75022068058185 85.1650799188149 # Ar
34 34 1 0.0 388.8611831142473 433.04163999458126 84.67016806212047 # Ar
35 35 1 0.0 306.348834060187 534.9634940957868 569.82235681479 # Ar
36 36 1 0.0 183.00475317875933 42.55796883513667 446.85874200586835 # Ar
37 37 1 0.0 312.39053767638 40.115411263276165 427.2542022883066 # Ar
38 38 1 0.0 168.04763146185547 211.8572010857234 45.99739747309889 # Ar
39 39 1 0.0 519.2763642324387 412.67272286169793 144.6018862924492 # Ar
40 40 1 0.0 12.348462425739173 497.5134856934823 580.889771915792 # Ar
41 41 1 0.0 159.05983807064297 424.16887514122914 278.5423369286862 # Ar
42 42 1 0.0 422.12428960719484 431.01971473850955 430.772713696786 # Ar
43 43 1 0.0 251.20613392941513 229.62141442666893 17.922934345192655 # Ar
44 44 1 0.0 399.6588458579119 50.2657769362815 268.07525527070237 # Ar
45 45 1 0.0 79.23993902606848 462.72677946912876 542.6635234533254 # Ar
46 46 1 0.0 480.6809148345117 324.4933374050271 139.8728198063405 # Ar
47 47 1 0.0 58.375895888291666 14.178695704777471 429.5029202677321 # Ar
48 48 1 0.0 517.9604305866703 132.90792785350638 6.565470315837784 # Ar
49 49 1 0.0 563.7344036776391 34.88408328256257 500.7779934459067 # Ar
50 50 1 0.0 215.06174569859047 518.8291163516556 185.71184091131084 # Ar
51 51 1 0.0 455.25791320274755 121.3227041277092 496.47486706689796 # Ar
52 52 1 0.0 202.06510304629657 127.45805674282246 416.8958521228341 # Ar
53 53 1 0.0 215.47523044547577 580.2263889630007 33.51883190304464 # Ar
54 54 1 0.0 134.95870462834682 118.66129845121353 205.91728771272534 # Ar
55 55 1 0.0 570.2206322846442 83.71128985388087 144.7477852166139 # Ar
56 56 1 0.0 418.68550854440423 344.5289643193487 222.029313450149 # Ar
57 57 1 0.0 483.1303977264895 585.3018325408384 143.90572780788077 # Ar
58 58 1 0.0 218.51909152012047 114.60570843719783 71.95661990601837 # Ar
59 59 1 0.0 457.57489228845475 8.921691038597068 587.9989420358739 # Ar
60 60 1 0.0 245.01205458561296 2.0036347163052777 199.619332603874 # Ar
61 61 1 0.0 378.24600940535265 246.94816988974833 326.43414149090785 # Ar
62 62 1 0.0 193.5566546901964 552.4029780811866 349.2069833303268 # Ar
63 63 1 0.0 218.35039564177205 142.50850542282845 374.85938364921225 # Ar
64 64 1 0.0 482.00949074300536 380.7846637424948 512.1936669073511 # Ar
65 65 1 0.0 294.6759378957652 262.7728334690904 6.803726157131191 # Ar
66 66 1 0.0 292.4515597121584 404.2889551033411 543.6406201140251 # Ar
67 67 1 0.0 414.83173561752335 488.44884482504193 260.0374231985957 # Ar
68 68 1 0.0 22.843908750091906 93.87925498415633 53.84830324180026 # Ar
69 69 1 0.0 340.3407303995483 383.4537986378452 3.253772469937368 # Ar
70 70 1 0.0 542.5840606160041 28.373410735231715 240.2132416900191 # Ar
71 71 1 0.0 280.62610646471876 403.5676419689311 254.07235415049914 # Ar
72 72 1 0.0 451.61103797747717 548.5329481190131 23.271964088171142 # Ar
73 73 1 0.0 9.545051825887665 84.6008892383258 438.2628202037803 # Ar
74 74 1 0.0 109.85885086164512 66.83685484102513 349.19344678753475 # Ar
75 75 1 0.0 386.0909465469092 193.82805067204475 470.3576208986535 # Ar
76 76 1 0.0 234.92457251024882 293.8088950400999 380.83403607687177 # Ar
77 77 1 0.0 501.4765148432509 409.3076872713423 562.2026622604803 # Ar
78 78 1 0.0 254.33809467916194 562.5084964111464 454.7592678479073 # Ar
79 79 1 0.0 545.1946332397774 421.26625493668575 515.5189305665415 # Ar
80 80 1 0.0 109.5007003304854 55.641395039783134 376.13843461074737 # Ar
81 81 1 0.0 64.20766089595786 58.06951862426606 219.42960716487588 # Ar
82 82 1 0.0 448.0962723569146 257.72888554267735 415.76883657735596 # Ar
83 83 1 0.0 126.74854415286072 482.14706686471186 104.14606146391192 # Ar
84 84 1 0.0 138.14294464425518 142.48475867604915 41.09185272142361 # Ar
85 85 1 0.0 98.42817066408863 573.0320285573071 542.1943200801271 # Ar
86 86 1 0.0 12.132229045876889 219.00894801212425 503.87250784933946 # Ar
87 87 1 0.0 437.6195944011844 375.94214505517607 526.7999752592382 # Ar
88 88 1 0.0 340.31006799014403 464.660864233795 139.1308164937531 # Ar
89 89 1 0.0 551.9952074615314 166.19243124641577 231.31124547948775 # Ar
90 90 1 0.0 60.51256552873249 363.68071212610005 15.180536857515662 # Ar
91 91 1 0.0 43.15392007139552 155.75751731152903 206.37100284573322 # Ar
92 92 1 0.0 320.5546529153163 478.1505738015415 421.1173857275598 # Ar
93 93 1 0.0 274.2041113535723 565.46975189765 235.38542897559017 # Ar
94 94 1 0.0 300.0586745140137 230.84197733896917 226.53780165524591 # Ar
95 95 1 0.0 260.5705344036234 447.4155835826337 487.809630554142 # Ar
96 96 1 0.0 301.64188883784 141.2918926893839 301.6020320128232 # Ar
97 97 1 0.0 429.6467901619167 550.7740530230602 545.7091482616063 # Ar
98 98 1 0.0 580.4957228721613 274.60494348141947 279.4419738419912 # Ar
99 99 1 0.0 392.78647740173574 87.03221230174888 168.96666900855388 # Ar
100 100 1 0.0 181.21686334832296 185.5239194618203 218.31209781556313 # Ar
101 101 1 0.0 3.4224147032626178 113.48288129289456 4.820553148527108 # Ar
102 102 1 0.0 191.1252310656721 497.9784427410151 418.4847850881742 # Ar
103 103 1 0.0 553.6200391665288 24.309501854292545 47.87738445147694 # Ar
104 104 1 0.0 490.38574330187606 356.8983733220784 186.39588170990788 # Ar
105 105 1 0.0 57.784507151188166 361.8877070198169 383.72966341283274 # Ar
106 106 1 0.0 99.31321950609397 583.468071029487 513.1933440566863 # Ar
107 107 1 0.0 559.095632742389 195.4285517357312 5.667151192248269 # Ar
108 108 1 0.0 377.6038583552581 121.41487417925903 117.92934296958525 # Ar
109 109 1 0.0 376.83185483466076 33.258009077635386 238.12702992129013 # Ar
110 110 1 0.0 180.9131891796662 124.19439193309583 210.96381146156654 # Ar
111 111 1 0.0 290.4344469849406 539.3719886939862 334.7820230240106 # Ar
112 112 1 0.0 267.50798540071065 122.23691298329172 374.97518576365155 # Ar
113 113 1 0.0 330.28235006259035 115.01489705501876 60.12959764861888 # Ar
114 114 1 0.0 266.11175412182797 351.3663713787872 419.32599909930775 # Ar
115 115 1 0.0 189.71724789020172 573.9788480657292 541.1693747759992 # Ar
116 116 1 0.0 568.9125462699251 329.3133736809966 393.26620947938704 # Ar
117 117 1 0.0 34.66942000996275 485.435701259539 165.71668406059985 # Ar
118 118 1 0.0 341.96981629603454 399.18255547760504 93.02187728567529 # Ar
119 119 1 0.0 371.01648865766606 367.47869693676273 35.81937595440845 # Ar
120 120 1 0.0 332.8808309459235 554.641976601507 307.45407694853895 # Ar
121 121 1 0.0 522.4873045069174 385.6229246216591 443.8532591016407 # Ar
122 122 1 0.0 487.5993433916075 35.97912399132846 274.1759624826768 # Ar
123 123 1 0.0 496.8793348449637 449.5777823361137 28.14447515551507 # Ar
124 124 1 0.0 361.9259791255035 548.2700557341311 44.134074966362526 # Ar
125 125 1 0.0 332.36159581545365 412.56409568335135 91.72216793661335 # Ar
126 126 1 0.0 34.52038901257832 562.9591231740071 559.7697619989382 # Ar
127 127 1 0.0 52.536391534369805 116.21692089023527 42.995346476947 # Ar
128 128 1 0.0 167.75248415068066 568.3127572680925 399.2864200575581 # Ar
129 129 1 0.0 94.3258344135309 197.27813083344313 69.55650823300003 # Ar
130 130 1 0.0 553.5111910716655 280.709988598392 199.22548224119257 # Ar
131 131 1 0.0 422.0232460887439 180.10404280973748 31.408096923755224 # Ar
132 132 1 0.0 444.8381352921442 479.60279218119297 469.67779449205193 # Ar
133 133 1 0.0 566.0088513747635 1.6980900526813016 531.7492983762347 # Ar
134 134 1 0.0 580.2124769368527 4.885484483143268 282.4476103612181 # Ar
135 135 1 0.0 427.5747559819243 9.97985514432565 508.9477325759803 # Ar
136 136 1 0.0 121.43798130124011 189.58133890638447 524.7395178867451 # Ar
137 137 1 0.0 413.2263885863987 300.93487834316545 15.765678514022675 # Ar
138 138 1 0.0 327.6583756309116 272.874773356172 16.24698908912266 # Ar
139 139 1 0.0 242.24995517985926 400.3185748704306 73.94581398868101 # Ar
140 140 1 0.0 397.0605627332224 38.47413693648607 253.74660390026756 # Ar
141 141 1 0.0 45.96415972576083 41.849417591012795 75.36010966853144 # Ar
142 142 1 0.0 1.1951850852046937 11.66765457047573 393.36474010262475 # Ar
143 143 1 0.0 103.32185628889809 121.90408526157111 207.15806885444442 # Ar
144 144 1 0.0 198.19214683897582 297.78512781219507 254.4810464253048 # Ar
145 145 1 0.0 293.52069980488864 14.601935410212876 444.23839092790564 # Ar
146 146 1 0.0 207.56698692087886 263.8626744389718 544.3172161655509 # Ar
147 147 1 0.0 137.8943028680581 173.64074793886377 26.176460698800202 # Ar
148 148 1 0.0 440.4398435283586 191.9120815641323 130.37763306107567 # Ar
149 149 1 0.0 293.98870028344317 169.19820188928384 331.95403735284617 # Ar
150 150 1 0.0 69.88146987010495 512.4204785497446 493.16574382548157 # Ar
151 151 1 0.0 80.28941841778645 553.3056546801985 509.38489501605795 # Ar
152 152 1 0.0 264.7820719903192 429.55625994247623 178.42986733188974 # Ar
153 153 1 0.0 393.9201590384848 316.90283788242937 405.51324549036786 # Ar
154 154 1 0.0 119.84648172583631 1.7611324064957234 8.694082118735471 # Ar
155 155 1 0.0 1.6692485507933528 7.332420932651094 212.0282965090369 # Ar
156 156 1 0.0 370.18084219801807 394.9601356393238 94.09320049754537 # Ar
157 157 1 0.0 112.65285315256688 108.293697330589 63.93858652382306 # Ar
158 158 1 0.0 78.43859493924991 337.43013511549566 31.639569283493582 # Ar
159 159 1 0.0 147.47354179164438 92.47550047254228 85.61095536207587 # Ar
160 160 1 0.0 386.40821881643984 47.26943599463832 571.914254196633 # Ar
161 161 1 0.0 367.97739411313773 440.36237978352244 74.3553140060994 # Ar
162 162 1 0.0 409.9632669892782 155.24223469546655 140.99768932802124 # Ar
163 163 1 0.0 239.61415655743735 481.60278343078204 219.83227871886177 # Ar
164 164 1 0.0 158.6586558194903 580.2999700291818 521.5392800171519 # Ar
165 165 1 0.0 281.87379856175954 113.52151327479227 196.57270492486936 # Ar
166 166 1 0.0 328.18842020786064 317.5476996346098 569.5364090371378 # Ar
167 167 1 0.0 161.43797150671656 349.1972611884397 440.073377539025 # Ar
168 168 1 0.0 284.08329508768395 456.86908400965285 537.1700140576422 # Ar
169 169 1 0.0 242.41431728705396 328.12956778685736 128.76731978429328 # Ar
170 170 1 0.0 129.86454783855316 72.01141201517783 368.1004686759241 # Ar
171 171 1 0.0 531.3617683114635 176.90546395221912 387.86833720012845 # Ar
172 172 1 0.0 101.64246884646396 235.68498228664416 375.25478301839985 # Ar
173 173 1 0.0 92.88722737956007 397.2579332143292 48.75753857148547 # Ar
174 174 1 0.0 538.8702602203649 415.8837353599526 448.01642497079666 # Ar
175 175 1 0.0 34.6462873070543 84.91352420641685 91.39373722694233 # Ar
176 176 1 0.0 153.2770355509907 545.9276041621272 200.37642885340892 # Ar
177 177 1 0.0 580.3749672404789 511.2871083497551 366.63781219495553 # Ar
178 178 1 0.0 213.9009165306192 153.3220047484937 456.5845695793273 # Ar
179 179 1 0.0 541.8514008098695 451.9903833000715 452.85657339405407 # Ar
180 180 1 0.0 33.72744465228413 488.5843020788392 389.79737493658104 # Ar
181 181 1 0.0 109.6964514432784 117.66730288998984 512.7528888345566 # Ar
182 182 1 0.0 418.3561335855158 145.67715377261231 344.05119758918437 # Ar
183 183 1 0.0 229.643549588747 450.5260741560617 377.8731564506022 # Ar
184 184 1 0.0 210.34931846690023 525.1737212761328 348.25137770280793 # Ar
185 185 1 0.0 261.1734217825217 32.02019481453464 483.39353600301223 # Ar
186 186 1 0.0 440.4442457351453 75.09983063117019 335.8039174007097 # Ar
187 187 1 0.0 382.7247589882653 266.0444847748102 224.0462926323831 # Ar
188 188 1 0.0 222.05793144191568 363.3264862029797 184.4743904892726 # Ar
189 189 1 0.0 153.2766000064638 488.3967882535961 90.67810796954849 # Ar
190 190 1 0.0 322.43953633003184 46.56332246817351 109.12217940412532 # Ar
191 191 1 0.0 86.17383226392998 360.97857844311636 545.1004253811394 # Ar
192 192 1 0.0 135.1559248953553 336.00573416470314 282.7696615276897 # Ar
193 193 1 0.0 571.0692536377795 379.34778563012827 526.8765684377295 # Ar
194 194 1 0.0 578.1873127130655 439.4513934085154 214.6916388232605 # Ar
195 195 1 0.0 235.49608846624085 575.8057280888249 257.6149992114066 # Ar
196 196 1 0.0 153.91120823083287 277.04406543160417 71.23875111095816 # Ar
197 197 1 0.0 179.8972940236308 560.586461090005 241.81018953188152 # Ar
198 198 1 0.0 521.1610553904925 346.4947200225553 534.9511410557092 # Ar
199 199 1 0.0 585.4628617772892 369.9958926000294 132.07084859558017 # Ar
200 200 1 0.0 130.67019773258693 303.97183913718993 512.2574089584128 # Ar
201 201 1 0.0 163.4257448768501 297.2699995481145 201.27811737476887 # Ar
202 202 1 0.0 187.15471720891637 172.5424418402583 78.40243031098068 # Ar
203 203 1 0.0 108.02686947903506 386.23564389365123 48.945925816178935 # Ar
204 204 1 0.0 154.44761205298045 213.21544773245805 558.8606559888799 # Ar
205 205 1 0.0 329.88079566046355 561.1001286679663 226.4424369253229 # Ar
206 206 1 0.0 383.19969908178126 482.70088390892494 204.19287514370845 # Ar
207 207 1 0.0 92.21098688520935 401.6113120590406 84.2163807734878 # Ar
208 208 1 0.0 242.5805479972461 413.2915071160026 573.940862326302 # Ar
209 209 1 0.0 521.0180087953239 457.52405444762235 206.34520875953746 # Ar
210 210 1 0.0 282.4816254004451 427.44590671489516 265.6710488886253 # Ar
211 211 1 0.0 448.4219833642496 133.01918367562607 457.1502892708184 # Ar
212 212 1 0.0 179.60311312346565 233.07508818532688 24.653870451127936 # Ar
213 213 1 0.0 246.9505603950799 525.3786589791041 390.52897249224355 # Ar
214 214 1 0.0 187.09971712485907 456.6306620250865 177.01216548244236 # Ar
215 215 1 0.0 336.06590233009393 513.1140340515398 35.8485253324016 # Ar
216 216 1 0.0 307.0892430501594 343.4624765847798 535.1869484850594 # Ar
217 217 1 0.0 427.19752708103897 521.9249055025058 321.1434016736435 # Ar
218 218 1 0.0 81.4980557073724 388.5779821493175 525.3982725762681 # Ar
219 219 1 0.0 431.5414723000218 126.74217981287761 527.3669310905341 # Ar
220 220 1 0.0 113.06575082413983 338.7991316045454 29.24254396909637 # Ar
221 221 1 0.0 261.16766295107067 587.5483719956369 225.42456054303867 # Ar
222 222 1 0.0 199.76114920001552 478.6340072834014 357.22593621123684 # Ar
223 223 1 0.0 85.56842368561134 451.8387375746574 100.80658529396618 # Ar
224 224 1 0.0 431.50281295294366 59.91050900040065 472.445461759035 # Ar
225 225 1 0.0 2.3089728734699615 310.76794959472267 118.58236853827388 # Ar
226 226 1 0.0 365.27158442078854 401.7378634800491 129.6976275279272 # Ar
227 227 1 0.0 68.6576806226198 123.39785769980894 298.25071445846663 # Ar
228 228 1 0.0 424.7894168483532 3.9796105262523964 16.05515677099339 # Ar
229 229 1 0.0 141.52970389094847 127.0128875057568 31.98454051853154 # Ar
230 230 1 0.0 507.36312732123235 162.58110335848016 407.6388211821767 # Ar
231 231 1 0.0 218.54740166096306 59.092120317282784 268.0486238317653 # Ar
232 232 1 0.0 53.30049292547431 262.30747080495524 419.61018897066623 # Ar
233 233 1 0.0 497.92558167161246 73.41716470295117 314.74892276221544 # Ar
234 234 1 0.0 374.60638613537554 279.97009573957456 81.88626428103485 # Ar
235 235 1 0.0 311.68100398209776 321.95405989522123 517.5300585503118 # Ar
236 236 1 0.0 583.8978042027791 517.0075743712858 34.1007695504419 # Ar
237 237 1 0.0 226.82927652815363 374.4064074544112 360.4262173102282 # Ar
238 238 1 0.0 305.5401752489686 486.2655888846044 263.1743236327597 # Ar
239 239 1 0.0 527.305377249875 469.4355712937451 527.6664767268064 # Ar
240 240 1 0.0 396.3504490342208 365.0808961618781 135.86434929528502 # Ar
241 241 1 0.0 379.9863677606443 172.58947434831103 566.0427560414049 # Ar
242 242 1 0.0 385.77682695166726 254.08780476378948 134.54730373970833 # Ar
243 243 1 0.0 113.02251092495577 57.99750971417556 66.09468113275484 # Ar
244 244 1 0.0 74.2197358628876 413.3963061342078 264.9710413018695 # Ar
245 245 1 0.0 479.88589217967166 414.31482425549945 294.38626670350783 # Ar
246 246 1 0.0 103.92067969712774 236.19379310779502 9.395528147414145 # Ar
247 247 1 0.0 87.81084806998045 111.76878742492832 287.67632875901904 # Ar
248 248 1 0.0 76.53888838092996 128.6303201767006 193.69914640652738 # Ar
249 249 1 0.0 59.4944593779451 311.0281902002564 363.3123805687633 # Ar
250 250 1 0.0 412.4873474039579 272.50050939969873 289.9143580185309 # Ar
251 251 1 0.0 433.24604419475236 30.84719295494563 124.6089075670137 # Ar
252 252 1 0.0 312.96508006639584 458.21314504472207 480.2008253075766 # Ar
253 253 1 0.0 11.249298044480627 49.39223319242223 174.0090482883804 # Ar
254 254 1 0.0 89.19590123360871 270.8390307532984 247.60517829234547 # Ar
255 255 1 0.0 552.8585274284397 286.51968337412086 120.64061599119395 # Ar
256 256 1 0.0 435.7310299998543 231.51658453058508 3.5096384160008514 # Ar
257 257 1 0.0 374.8158062331214 186.97230147608224 125.38754225219564 # Ar
258 258 1 0.0 204.6973864969367 188.70809861771298 520.679301039925 # Ar
259 259 1 0.0 159.285920079791 108.74567055845749 65.6189185831269 # Ar
260 260 1 0.0 226.194382692646 554.8762653266724 525.2607021686159 # Ar
261 261 1 0.0 249.5277930817115 297.2859720394779 500.6237578249822 # Ar
262 262 1 0.0 283.0636869427285 540.1787947736112 483.241893900658 # Ar
263 263 1 0.0 177.7105351622264 461.0058448620407 27.038911734130828 # Ar
264 264 1 0.0 471.1481297577666 305.31779623499875 218.42117219027773 # Ar
265 265 1 0.0 305.73106435578745 554.7887295034835 116.6865903995657 # Ar
266 266 1 0.0 105.79431215340587 202.5551400440034 311.6868598054497 # Ar
267 267 1 0.0 221.3476902943534 380.86419597427175 178.3870012868264 # Ar
268 268 1 0.0 463.9153617497423 94.06030977529461 246.10763329974858 # Ar
269 269 1 0.0 361.1813777223081 240.55820984875695 37.64703115318171 # Ar
270 270 1 0.0 91.16743006336841 301.06616740662963 28.29968223093251 # Ar
271 271 1 0.0 198.71602890457936 452.0319687284229 544.403673312879 # Ar
272 272 1 0.0 306.4219117048632 209.38541982243174 12.870997092708999 # Ar
273 273 1 0.0 379.35529611018893 35.662638333645326 21.267720625173954 # Ar
274 274 1 0.0 309.3156846052462 34.91773542526999 575.0577740865556 # Ar
275 275 1 0.0 512.7987781326327 436.8292302357851 285.33963310504504 # Ar
276 276 1 0.0 116.3139694628599 432.62335335650397 148.83855007136873 # Ar
277 277 1 0.0 413.03186260997245 270.9076028243248 61.499873915951405 # Ar
278 278 1 0.0 29.201716180438673 239.04595455744447 465.448538467197 # Ar
279 279 1 0.0 275.65173734166706 390.09433789727433 450.3913478202268 # Ar
280 280 1 0.0 303.4532361938401 258.063301454789 416.48562932232176 # Ar
281 281 1 0.0 378.79900576172275 132.68576403696838 145.86043015952146 # Ar
282 282 1 0.0 543.2762776403606 75.38161072683349 386.7058196954637 # Ar
283 283 1 0.0 101.28889399987898 70.01852479689859 132.24777087329508 # Ar
284 284 1 0.0 172.5274714955475 48.334891868545235 286.3902428164407 # Ar
285 285 1 0.0 207.82621735472208 295.75511240455097 587.5731880631167 # Ar
286 286 1 0.0 567.5682058207296 168.0368692339109 14.582064119823395 # Ar
287 287 1 0.0 516.0582096326076 564.8834023772681 81.81917211486567 # Ar
288 288 1 0.0 89.78951648512569 187.40328411777915 158.90749139548228 # Ar
289 289 1 0.0 18.70535354564043 402.5443544834466 585.0997217705361 # Ar
290 290 1 0.0 425.31812625961516 156.50797958686297 4.591853688691272 # Ar
291 291 1 0.0 250.5078070635126 345.58873833719656 293.33643133579085 # Ar
292 292 1 0.0 578.9883694355591 387.30955131991414 28.44738082511754 # Ar
293 293 1 0.0 283.55073741080383 210.56783509239898 44.090458089989745 # Ar
294 294 1 0.0 374.6693835850502 529.1575694536568 384.30034058381597 # Ar
295 295 1 0.0 471.0514831870012 510.13891992784033 372.5707775272464 # Ar
296 296 1 0.0 488.0389895607189 350.98032998742383 580.4247463832866 # Ar
297 297 1 0.0 336.90264669073554 123.49762883573753 490.8988643297155 # Ar
298 298 1 0.0 4.155102756070693 496.44978054182326 301.0617785491853 # Ar
299 299 1 0.0 230.09588289900125 527.3632594970502 195.2596340287124 # Ar
300 300 1 0.0 413.24264417076853 56.74213908120358 99.31732389465719 # Ar
301 301 1 0.0 270.3190591332247 362.2193505937258 275.3834639249063 # Ar
302 302 1 0.0 278.44761151510914 40.714221440694956 556.7450479171513 # Ar
303 303 1 0.0 306.6946843641832 276.03721548631574 142.28646479195763 # Ar
304 304 1 0.0 453.0597602546599 509.9642942624142 221.8434113750164 # Ar
305 305 1 0.0 520.688299866539 388.8434930467926 136.13822049370268 # Ar
306 306 1 0.0 529.2011160580128 293.4795294537645 452.1186612017007 # Ar
307 307 1 0.0 381.7442817041659 128.2565995460126 491.54932748558235 # Ar
308 308 1 0.0 536.257302625211 352.44675284775167 448.0574180736605 # Ar
309 309 1 0.0 363.4827777231637 586.5074495149574 351.6394476290146 # Ar
310 310 1 0.0 62.76522918801323 402.01830900440393 365.5604891735407 # Ar
311 311 1 0.0 352.91310306352887 576.0034856379125 205.7102293357263 # Ar
312 312 1 0.0 402.79697729986566 257.0859479633651 102.97480443549266 # Ar
313 313 1 0.0 374.7714140523601 415.1116601262848 131.76063472369322 # Ar
314 314 1 0.0 577.2293647242486 376.9727235294534 526.0154202718543 # Ar
315 315 1 0.0 198.692986985546 158.68735340853513 164.06767243439003 # Ar
316 316 1 0.0 464.3980808449908 513.0365955179801 413.46764909207883 # Ar
317 317 1 0.0 238.43709868606132 452.07213528061135 221.25838373122485 # Ar
318 318 1 0.0 166.7627640840747 374.29253381420295 516.7009259378425 # Ar
319 319 1 0.0 527.1951388971357 50.14347576426031 354.12886933043285 # Ar
320 320 1 0.0 136.34092400982925 455.0085195690088 310.07161324164196 # Ar
321 321 1 0.0 446.0186030746873 429.6139135137086 32.659363471579034 # Ar
322 322 1 0.0 173.9424880886027 382.85057824872484 182.2388253668681 # Ar
323 323 1 0.0 301.81850971652284 293.6305852227357 197.47214354064795 # Ar
324 324 1 0.0 339.21451972003206 54.32484118304195 196.30149057437762 # Ar
325 325 1 0.0 118.23431039160343 224.87061955887646 311.8046669447335 # Ar
326 326 1 0.0 499.4480970020155 98.75332513796532 361.5267582431072 # Ar
327 327 1 0.0 37.582118917817326 531.327442250447 166.61764228630975 # Ar
328 328 1 0.0 1.893542091050299 38.50206177660402 298.25005048294435 # Ar
329 329 1 0.0 399.73105608988055 517.4944802856496 8.934310820869495 # Ar
330 330 1 0.0 413.2814533954291 154.07562743982027 429.9645858729603 # Ar
331 331 1 0.0 473.52534742479116 116.22649909410467 522.6742621100855 # Ar
332 332 1 0.0 374.5865214492491 354.0387759534995 480.15914959724563 # Ar
333 333 1 0.0 450.9169934902919 510.10908751305294 349.1901900433881 # Ar
334 334 1 0.0 237.25516745829452 385.847512075602 141.59449499974963 # Ar
335 335 1 0.0 273.854945470526 34.370700906401815 186.45424967630728 # Ar
336 336 1 0.0 497.01587421118563 290.2694998071769 312.88909934738837 # Ar
337 337 1 0.0 76.4750633507953 178.21316748467171 100.64041617222304 # Ar
338 338 1 0.0 74.52983359022892 37.749604327033815 152.30357599159368 # Ar
339 339 1 0.0 188.46335311289198 370.7023681259597 551.7436520533048 # Ar
340 340 1 0.0 347.4179108973102 71.46623266529397 178.48999261463044 # Ar
341 341 1 0.0 77.2770499816773 492.8341731980076 77.0352417782403 # Ar
342 342 1 0.0 117.21781941481858 235.3264885819579 523.5015617780005 # Ar
343 343 1 0.0 158.5581675394456 363.342222708964 23.13567461871344 # Ar
344 344 1 0.0 86.7815804833202 97.81686394553766 271.1987425784193 # Ar
345 345 1 0.0 117.87158437554932 2.2287812538496965 172.3765270121189 # Ar
346 346 1 0.0 19.475414622061322 181.2533400310738 168.52813485916198 # Ar
347 347 1 0.0 243.7631106185988 64.2735243232416 119.0475425052385 # Ar
348 348 1 0.0 138.5280387349035 380.9387252293452 566.3089725220445 # Ar
349 349 1 0.0 588.6396423150484 407.50106889638516 251.60712630624806 # Ar
350 350 1 0.0 136.98531057407178 72.7182914360394 535.3997912632694 # Ar
351 351 1 0.0 50.59236168433498 168.3999124098648 537.7216988824475 # Ar
352 352 1 0.0 348.47000760423435 23.63352217483655 7.644793457586142 # Ar
353 353 1 0.0 351.27312856983895 73.23551842224174 359.68377786415726 # Ar
354 354 1 0.0 85.12011730833522 348.6472012789776 533.1949055887005 # Ar
355 355 1 0.0 154.94210492786266 453.8477648952503 532.0887527554761 # Ar
356 356 1 0.0 454.24622686257965 403.9650979530904 237.85630105362668 # Ar
357 357 1 0.0 481.701042185954 136.66532405477142 457.70778737955544 # Ar
358 358 1 0.0 378.8526943465333 38.76262944051849 3.18751319148663 # Ar
359 359 1 0.0 28.62829888649554 548.4053534992781 149.4294133540126 # Ar
360 360 1 0.0 359.91419232025567 285.57326154668465 397.5158639289311 # Ar
361 361 1 0.0 498.59696798014886 540.2901541216639 214.57011953908577 # Ar
362 362 1 0.0 158.10366172532383 302.243424586174 316.05813000944966 # Ar
363 363 1 0.0 167.52115969905765 379.4567927181022 414.08014751271656 # Ar
364 364 1 0.0 268.13139580953 321.06614446989613 176.56209527077047 # Ar
365 365 1 0.0 11.420710926020883 396.07727708201617 231.11611665479586 # Ar
366 366 1 0.0 210.71286199106922 248.57909405901023 233.96240957294975 # Ar
367 367 1 0.0 243.26311080873393 307.103775033963 101.72470039959998 # Ar
368 368 1 0.0 314.6267811107428 409.4960256335531 448.2205112580712 # Ar
369 369 1 0.0 224.68374799121415 10.280041634427596 394.3265443030658 # Ar
370 370 1 0.0 131.47002785492992 517.3803184719065 220.63400018553165 # Ar
371 371 1 0.0 260.6558448563105 469.36956152168125 587.7117299240803 # Ar
372 372 1 0.0 56.05649624536222 310.9773857011207 547.1015030970841 # Ar
373 373 1 0.0 255.14538066470067 583.0478560167481 219.05015554718466 # Ar
374 374 1 0.0 57.51437786915113 496.7652679355992 260.8403623789383 # Ar
375 375 1 0.0 407.4841956166486 432.82756472081854 321.2560204775124 # Ar
376 376 1 0.0 489.1620470233863 350.89178504252794 245.86231683363798 # Ar
377 377 1 0.0 326.552991632495 440.1039182807082 550.1394118849075 # Ar
378 378 1 0.0 408.915193386668 311.6628556701912 161.59836163870017 # Ar
379 379 1 0.0 588.2899193714098 450.3649253477307 124.25179266255682 # Ar
380 380 1 0.0 277.1851089939364 82.81123377224937 509.79697260343704 # Ar
381 381 1 0.0 461.7147375327079 516.2741442234499 427.043399340074 # Ar
382 382 1 0.0 75.37836278816314 495.496318183832 194.44590359732308 # Ar
383 383 1 0.0 350.0351152176481 289.18751229013446 424.6189091401692 # Ar
384 384 1 0.0 305.4787726498388 152.3949027799676 177.27618460314525 # Ar
385 385 1 0.0 287.38779274267165 428.2320420033162 70.18616745152313 # Ar
386 386 1 0.0 343.5564462870678 122.63123293672159 382.01602681691173 # Ar
387 387 1 0.0 484.6858693896808 255.7657442521907 14.576835037293423 # Ar
388 388 1 0.0 251.59150304612785 432.2174455687815 322.0646831530206 # Ar
389 389 1 0.0 87.12251806232328 506.9291967391188 120.09996613783497 # Ar
390 390 1 0.0 481.2968281346778 105.91529012745777 339.1813196813782 # Ar
391 391 1 0.0 225.42878942766572 325.1463802329984 498.1618610466099 # Ar
392 392 1 0.0 164.37694498818718 300.47899985893343 37.10810057560071 # Ar
393 393 1 0.0 401.6146853469174 270.3849786839992 248.06759485873854 # Ar
394 394 1 0.0 395.2780813302548 262.10767424373034 545.2720332509683 # Ar
395 395 1 0.0 208.92436730574778 319.5451909691811 281.8582602266952 # Ar
396 396 1 0.0 443.086866757091 60.9387632990379 313.30766354360406 # Ar
397 397 1 0.0 137.34513715149907 467.9940104802962 74.50945326645072 # Ar
398 398 1 0.0 88.05197282305737 316.1428114415594 289.12820066137107 # Ar
399 399 1 0.0 9.611866637265805 563.197070097428 214.41897609647108 # Ar
400 400 1 0.0 539.425333383863 130.11899398913064 542.8497652643678 # Ar
401 401 1 0.0 388.24096104420454 483.71602430687767 244.11021536998624 # Ar
402 402 1 0.0 221.2887674024055 365.8228447301766 535.1961202566088 # Ar
403 403 1 0.0 441.6431771523955 53.57304868860505 25.40821839433312 # Ar
404 404 1 0.0 499.4605174965095 432.3084182978827 355.47861502166324 # Ar
405 405 1 0.0 116.4251763634724 349.45130353649654 330.4294336471632 # Ar
406 406 1 0.0 472.3384342879312 440.3748098846436 160.80798458078783 # Ar
407 407 1 0.0 380.70482612509977 22.732382681424067 570.351943427404 # Ar
408 408 1 0.0 227.0473061119668 61.22981795565108 75.62257351963653 # Ar
409 409 1 0.0 416.2671743521343 493.98382133803864 349.43142082428926 # Ar
410 410 1 0.0 287.36613324550757 588.7427491399474 171.55006285075706 # Ar
411 411 1 0.0 375.7566684322683 484.44709835931786 5.737535191904979 # Ar
412 412 1 0.0 265.7158282443719 446.6847681320324 346.2249001787483 # Ar
413 413 1 0.0 326.2633975508363 269.70348471933636 88.77203911306783 # Ar
414 414 1 0.0 18.855738989396098 396.19327532755403 381.62085236021085 # Ar
415 415 1 0.0 286.3578419846785 10.93888828305799 347.81702953233287 # Ar
416 416 1 0.0 339.51238173038627 99.32604603174921 370.8672477729294 # Ar
417 417 1 0.0 443.5303932778537 406.0022034010543 516.3922014512134 # Ar
418 418 1 0.0 128.82742816570718 511.7328330290221 437.145640114591 # Ar
419 419 1 0.0 391.44833356897243 563.9347411205355 418.9349685654481 # Ar
420 420 1 0.0 149.27866588983716 88.502086226475 372.7751243406547 # Ar
421 421 1 0.0 576.3370809469609 506.7272062290546 147.2560980941785 # Ar
422 422 1 0.0 259.97151509584285 323.45955235733993 484.6707843201651 # Ar
423 423 1 0.0 34.921803795212725 158.055778810601 1.748593489066144 # Ar
424 424 1 0.0 327.8148623058826 193.9916787402892 305.35969806133556 # Ar
425 425 1 0.0 164.02422092861278 110.33035375963327 242.66449548909247 # Ar
426 426 1 0.0 185.14713953150513 37.45266593670646 171.63527617333546 # Ar
427 427 1 0.0 486.1956411150266 557.3182232027592 18.579626857407813 # Ar
428 428 1 0.0 584.5381904129813 10.213896499194407 284.3490627202056 # Ar
429 429 1 0.0 531.4222913812737 53.18688280403653 121.33478000657544 # Ar
430 430 1 0.0 279.5539475532965 244.53861651232643 146.38783871009315 # Ar
431 431 1 0.0 11.42959846728292 354.808043620519 217.222728073228 # Ar
432 432 1 0.0 445.39166649427943 350.64893029316823 78.46981041796474 # Ar
433 433 1 0.0 122.1966540296465 107.01627956646698 254.16100155447552 # Ar
434 434 1 0.0 286.3785800995015 556.4925063210636 102.54842955922483 # Ar
435 435 1 0.0 554.9789941543521 119.85620985781837 403.689735122009 # Ar
436 436 1 0.0 294.10679931235194 20.176354537294607 214.28998107544058 # Ar
437 437 1 0.0 67.47187756247033 335.30429358241935 462.91226562457166 # Ar
438 438 1 0.0 570.6058049938971 374.6714364407461 505.75846236684066 # Ar
439 439 1 0.0 529.8064640891436 121.75761099456689 363.13242560408526 # Ar
440 440 1 0.0 429.3460530649834 258.8212426986781 529.9530578834348 # Ar
441 441 1 0.0 416.0603386437298 518.5806040397825 551.0854829219078 # Ar
442 442 1 0.0 208.79173584310033 280.21051549801734 465.5501535420313 # Ar
443 443 1 0.0 50.877392617950655 74.17894796005898 274.0564316017416 # Ar
444 444 1 0.0 563.2966273178437 282.35729919999346 546.2288518980755 # Ar
445 445 1 0.0 461.5067143068861 538.120866210053 285.6959384620988 # Ar
446 446 1 0.0 489.39755709174045 143.1675925414638 91.41329847583818 # Ar
447 447 1 0.0 48.08575564991971 71.56896278453792 236.37457818030168 # Ar
448 448 1 0.0 120.9406526575049 497.518571766858 227.51124449248044 # Ar
449 449 1 0.0 437.7680499323066 435.2103771013562 439.5949016268225 # Ar
450 450 1 0.0 410.6824989551571 511.6522888443462 443.8338043926363 # Ar
451 451 1 0.0 146.10156303114118 309.0254085057249 57.10219197379721 # Ar
452 452 1 0.0 119.26700168899337 147.48764608937896 138.36984942188192 # Ar
453 453 1 0.0 547.2592201474855 178.7551670851344 464.73573621075184 # Ar
454 454 1 0.0 171.67528946002122 284.00817191591767 433.4311586563677 # Ar
455 455 1 0.0 106.9175439821132 221.5312776095648 237.27088733327597 # Ar
456 456 1 0.0 273.5514428937384 312.6387161147096 572.7436663340801 # Ar
457 457 1 0.0 190.5985493557043 169.57076552781817 226.6405106455982 # Ar
458 458 1 0.0 126.27716074927517 1.9257893392650591 281.93749322692327 # Ar
459 459 1 0.0 456.12116480252394 180.5776962182981 497.538068885046 # Ar
460 460 1 0.0 249.95892897178675 77.0581405877713 381.07453045825014 # Ar
461 461 1 0.0 271.36004138655466 341.03666682052835 367.08847314728337 # Ar
462 462 1 0.0 5.700223232853777 316.7217893016565 346.8341823961471 # Ar
463 463 1 0.0 204.94575646425673 22.6237638988385 564.2266342401413 # Ar
464 464 1 0.0 478.3501971627862 105.20716295157527 348.1527974358887 # Ar
465 465 1 0.0 0.14515537998194356 69.29823430001827 579.7206530226694 # Ar
466 466 1 0.0 336.1554440743212 533.8482759945513 170.92305796888178 # Ar
467 467 1 0.0 264.42410805443797 393.07079852175303 66.64662862729539 # Ar
468 468 1 0.0 475.0266731284356 428.40770226365464 164.94588319675861 # Ar
469 469 1 0.0 470.4766223988213 81.89591770170546 319.81228429676867 # Ar
470 470 1 0.0 344.81230841811384 429.0766353858993 340.12719246456436 # Ar
471 471 1 0.0 225.28347184553692 71.84679659194649 380.52421234120123 # Ar
472 472 1 0.0 428.7942857400768 566.5942873960433 320.3404227617668 # Ar
473 473 1 0.0 146.32097220228997 370.05575717046605 31.422121315630864 # Ar
474 474 1 0.0 506.85993126559697 587.9132965592859 216.66438609315247 # Ar
475 475 1 0.0 426.2670861034537 325.8991740726826 562.7375830132534 # Ar
476 476 1 0.0 458.03797781627503 484.75419285297323 473.92448128886343 # Ar
477 477 1 0.0 171.62115345078118 324.94855610050047 104.5366758317318 # Ar
478 478 1 0.0 332.8240425274073 294.4045488356469 173.78654190605437 # Ar
479 479 1 0.0 368.52256874456367 312.6662492111472 366.05602675314805 # Ar
480 480 1 0.0 225.1507307075675 6.691325519421373 96.81854816431323 # Ar
481 481 1 0.0 123.01214429008549 277.7953500708246 248.2284116568707 # Ar
482 482 1 0.0 167.9766842318933 440.6419865580369 47.419174987775946 # Ar
483 483 1 0.0 35.559192488166005 397.9315611387205 502.8606942701207 # Ar
484 484 1 0.0 126.52912108006457 219.46523980948706 120.42506547893177 # Ar
485 485 1 0.0 380.46553935245277 468.30722794062535 79.86341384056323 # Ar
486 486 1 0.0 92.06733597239713 195.2054132572199 367.89002757150837 # Ar
487 487 1 0.0 449.46341754136216 577.079614725833 321.1101927292791 # Ar
488 488 1 0.0 218.73656933117482 262.15588781555203 556.0078522841595 # Ar
489 489 1 0.0 345.5407036372717 417.4556074973417 164.489261352372 # Ar
490 490 1 0.0 423.9142923300042 318.02980865180626 41.34142044283166 # Ar
491 491 1 0.0 294.4004078130476 154.14960495346213 245.3241827226647 # Ar
492 492 1 0.0 38.22296477685501 417.323518764896 332.2832555440041 # Ar
493 493 1 0.0 319.8984804358214 51.193638792368745 583.1578886590192 # Ar
494 494 1 0.0 61.02240979719785 365.5390953126184 242.86936850844637 # Ar
495 495 1 0.0 289.00433497843665 42.051291783431225 386.23224224738965 # Ar
496 496 1 0.0 221.1015014169641 565.4785159176662 283.01555710131004 # Ar
497 497 1 0.0 320.8027961560931 552.7740960101315 228.7236542182931 # Ar
498 498 1 0.0 169.38661044224037 374.61646436863816 402.5436645710987 # Ar
499 499 1 0.0 98.4956595097516 212.00405175838793 238.0404626798351 # Ar
500 500 1 0.0 165.9873546667465 326.57286100772546 347.9929552842865 # Ar
501 501 1 0.0 135.65311638153588 261.7686710021394 3.2277738657815767 # Ar
502 502 1 0.0 586.7737202548316 484.9085554248328 355.15631958101596 # Ar
503 503 1 0.0 528.6316919833654 86.26065660305504 288.52312671924756 # Ar
504 504 1 0.0 289.1978439878653 37.8411026139762 243.92999338065206 # Ar
505 505 1 0.0 514.4544140245495 431.27273640862654 179.11496220877646 # Ar
506 506 1 0.0 272.3517270240186 112.21950332428987 306.3458917241009 # Ar
507 507 1 0.0 560.2384206435281 483.6978742079306 521.245071127784 # Ar
508 508 1 0.0 353.84599625621064 302.5819301122039 374.0324788428135 # Ar
509 509 1 0.0 350.41802333267606 40.124962412546516 364.1611066920275 # Ar
510 510 1 0.0 182.7586611720295 263.356897073019 31.75548555212182 # Ar
511 511 1 0.0 537.770126957688 360.9773624322159 574.0002256534929 # Ar
512 512 1 0.0 245.70424324292657 19.25837927996336 352.46399836269615 # Ar
513 513 1 0.0 36.199239003917974 546.4728500604981 157.13250033898885 # Ar
514 514 1 0.0 433.70880234187524 127.05829726919423 261.98792998395834 # Ar
515 515 1 0.0 361.3849864431956 98.63858290424116 43.040058587418756 # Ar
516 516 1 0.0 466.9223067705779 303.01697282176383 383.0670389238027 # Ar
517 517 1 0.0 42.85822773124593 92.37078699278744 210.76883175570515 # Ar
518 518 1 0.0 376.8888486596363 414.2539836552352 7.05737160242809 # Ar
519 519 1 0.0 316.2411122805455 346.5551596110227 28.240470630601784 # Ar
520 520 1 0.0 447.47011906160907 264.0424535673388 206.3175452575865 # Ar
521 521 1 0.0 285.42277378899973 428.2634039991263 3.5295331393125067 # Ar
522 522 1 0.0 283.056619578816 98.61401896022284 73.94231749201532 # Ar
523 523 1 0.0 426.5004399531483 87.43694207980415 245.53348340999514 # Ar
524 524 1 0.0 306.95211489925276 549.9574105557577 34.74911344517956 # Ar
525 525 1 0.0 157.2158352744771 126.57430192553387 14.074216338697601 # Ar
526 526 1 0.0 460.53361733057596 424.0871698601419 37.84048599094582 # Ar
527 527 1 0.0 138.88958514636025 51.49214833392309 530.4254535338293 # Ar
528 528 1 0.0 238.6895975264785 485.7162291046076 131.3686662360907 # Ar
529 529 1 0.0 62.61333081277943 174.86160949764562 410.84825531440896 # Ar
530 530 1 0.0 212.82488053042113 494.4960435025389 48.37315435674645 # Ar
531 531 1 0.0 401.5240141684207 363.87987437987164 237.9102019062292 # Ar
532 532 1 0.0 453.43836026498053 555.0650951873363 547.6089049283217 # Ar
533 533 1 0.0 547.357160551026 402.67276147526286 51.01463350995611 # Ar
534 534 1 0.0 13.247853365472352 377.3303973779619 100.99893214769719 # Ar
535 535 1 0.0 305.16553439719604 57.95782661864344 398.1163435967269 # Ar
536 536 1 0.0 513.4644253732943 134.63064792785462 583.1113779665674 # Ar
537 537 1 0.0 437.637938136902 157.8353769378092 226.7782940598856 # Ar
538 538 1 0.0 194.05384490199984 284.6627344413683 405.8983662169197 # Ar
539 539 1 0.0 181.049929491156 522.7195357964868 172.1864585930863 # Ar
540 540 1 0.0 77.40220316009017 524.1481713583058 471.5478662361362 # Ar
541 541 1 0.0 65.72982083165527 221.27562515189535 439.9878037599593 # Ar
542 542 1 0.0 516.0266444073669 9.50418667095064 430.6177006612411 # Ar
543 543 1 0.0 102.10379244927894 325.2742785805206 183.12745262523438 # Ar
544 544 1 0.0 241.8728691293107 475.35896575943997 318.1922889974174 # Ar
545 545 1 0.0 419.5723262212363 84.2082205162644 95.37008653678129 # Ar
546 546 1 0.0 165.46023582761987 16.33852226617185 273.08749293656456 # Ar
547 547 1 0.0 171.2222371992615 130.18573906254292 203.289405475579 # Ar
548 548 1 0.0 117.5558834585556 295.14351374562295 161.63532555127 # Ar
549 549 1 0.0 10.349690965271948 100.0729320685807 463.2556938476195 # Ar
550 550 1 0.0 314.91101574741083 494.22591777662655 254.29615079853926 # Ar
551 551 1 0.0 130.38200019785629 110.62454422717533 82.9794968138379 # Ar
552 552 1 0.0 428.61510586210665 367.41123301199315 24.84172004994127 # Ar
553 553 1 0.0 291.5845079563665 420.95372982439403 223.87949674179944 # Ar
554 554 1 0.0 94.81819000322658 130.65342155246603 186.81170700132841 # Ar
555 555 1 0.0 347.51652901440735 332.4577215437348 67.56306574714996 # Ar
556 556 1 0.0 553.9231721621318 455.79312657046063 121.1132831239615 # Ar
557 557 1 0.0 374.45978051873806 359.1016653211853 301.2261572725185 # Ar
558 558 1 0.0 357.06263057773396 295.41221758803874 207.05956520945583 # Ar
559 559 1 0.0 80.62094369528498 342.096229370511 373.3039344632879 # Ar
560 560 1 0.0 561.7083419377176 411.8540156645821 96.76692945941097 # Ar
561 561 1 0.0 51.4316558546119 187.47643453833516 356.2280251183698 # Ar
562 562 1 0.0 305.4418916563474 571.9655361190585 474.0868382015242 # Ar
563 563 1 0.0 409.18367865676737 389.10933154284044 9.987419389199406 # Ar
564 564 1 0.0 203.6638105603899 395.84559542016007 242.3805411266842 # Ar
565 565 1 0.0 214.93063439398028 42.512837891983715 394.37943222070203 # Ar
566 566 1 0.0 108.65669458097585 273.45682838402814 422.31886821601677 # Ar
567 567 1 0.0 247.0589147866679 125.40799692007917 278.4468926652845 # Ar
568 568 1 0.0 178.20044682166997 74.38769728374763 9.67159443561429 # Ar
569 569 1 0.0 517.5613212439448 514.4325195798879 359.09082059937407 # Ar
570 570 1 0.0 288.4493157714491 236.08202278167937 235.62682557885245 # Ar
571 571 1 0.0 30.04256031495416 54.17807905121957 445.2678039650822 # Ar
572 572 1 0.0 139.40657830063392 439.4637773719974 269.70301516106326 # Ar
573 573 1 0.0 293.5600824923028 381.5503990565163 100.05359166763428 # Ar
574 574 1 0.0 6.028839317998906 210.32435176121837 560.6662098689094 # Ar
575 575 1 0.0 37.95940241221873 64.01906718387164 250.25404380941663 # Ar
576 576 1 0.0 119.75104092016106 502.8320005077751 540.7759932247602 # Ar
577 577 1 0.0 90.97151852939136 422.4977411983992 35.85289552659995 # Ar
578 578 1 0.0 311.8720259893529 143.1853967894943 115.40601643896507 # Ar
579 579 1 0.0 32.33623847924523 363.4113314215328 172.08101074556754 # Ar
580 580 1 0.0 178.66780577404276 288.411660320194 138.07414426613323 # Ar
581 581 1 0.0 296.62476878197015 565.4952620859608 70.48471234713784 # Ar
582 582 1 0.0 369.39820649488695 481.4625596144293 197.14126841924397 # Ar
583 583 1 0.0 291.0152452155718 168.69685919495726 227.44473079004794 # Ar
584 584 1 0.0 570.4506091327792 527.9722114137439 532.2988713728975 # Ar
585 585 1 0.0 275.888842797884 181.1502087503469 203.84631274727994 # Ar
586 586 1 0.0 208.3098281127892 420.4933310186491 348.4787655967397 # Ar
587 587 1 0.0 200.98245053946297 147.41602884059466 559.2242553867505 # Ar
588 588 1 0.0 545.6669238553671 446.04636875302856 485.5213170893163 # Ar
589 589 1 0.0 399.06928462568516 405.43085540202406 87.13225805674936 # Ar
590 590 1 0.0 363.6554880509208 24.517259077221226 390.61987101070656 # Ar
591 591 1 0.0 70.81318294174785 503.8583116376475 403.54765402612014 # Ar
592 592 1 0.0 214.99172127542553 347.4473009002458 335.06296791636225 # Ar
593 593 1 0.0 353.63771851464617 424.50665915709635 80.93583897046142 # Ar
594 594 1 0.0 572.1711518658776 281.46205808928545 122.94392120041078 # Ar
595 595 1 0.0 424.16741014762476 100.20083766512167 232.2224698754928 # Ar
596 596 1 0.0 127.5606906524483 213.2423255684914 11.054764911557456 # Ar
597 597 1 0.0 334.24944865917826 566.3168430381323 159.83466099474 # Ar
598 598 1 0.0 377.8611428767451 570.1886574684853 145.65045408891348 # Ar
599 599 1 0.0 123.07350806884801 172.4988569455199 418.8839547479504 # Ar
600 600 1 0.0 144.81735871389947 253.37243682704107 286.47002032058265 # Ar
601 601 1 0.0 463.3924288768776 60.10065341245246 453.6150206053495 # Ar
602 602 1 0.0 249.2613424052887 469.63048049806605 582.9712610328783 # Ar
603 603 1 0.0 170.1937339049081 307.10812243536515 171.77386415118616 # Ar
604 604 1 0.0 38.187319270163115 352.5368873365399 107.96631047928605 # Ar
605 605 1 0.0 493.68843192148006 311.9513707775329 211.75976870456978 # Ar
606 606 1 0.0 395.42812515323607 218.0893300481433 184.83503431948094 # Ar
607 607 1 0.0 531.3068456013152 536.3902423624653 106.00168368914883 # Ar
608 608 1 0.0 435.1561745716705 347.98903111055154 117.70153300385346 # Ar
609 609 1 0.0 111.22595870481649 91.96133204860266 326.8166961454052 # Ar
610 610 1 0.0 269.9898429973379 99.51130163797758 260.4381402567893 # Ar
611 611 1 0.0 95.37804313723284 132.31657254754538 507.4073549749847 # Ar
612 612 1 0.0 30.389706317314104 468.9298347441565 426.86760542795554 # Ar
613 613 1 0.0 43.985328235161504 538.864161313353 381.961141002734 # Ar
614 614 1 0.0 180.70627955066578 1.5298677798491547 449.3440212875432 # Ar
615 615 1 0.0 197.60864540778653 268.54721621847085 444.89820832967183 # Ar
616 616 1 0.0 43.85844607238595 185.3519970799812 466.82820341507613 # Ar
617 617 1 0.0 335.16392843992367 36.14795395529362 523.4508480915381 # Ar
618 618 1 0.0 45.68568227017466 5.674624314366246 31.69581871137161 # Ar
619 619 1 0.0 498.0298422613373 227.60132217894963 1.4220443784365497 # Ar
620 620 1 0.0 185.244988727218 116.36181018108621 406.3681878702887 # Ar
621 621 1 0.0 485.0448623546767 577.5938665030396 59.70346499364628 # Ar
622 622 1 0.0 475.3182808832149 158.43161719460005 501.8952188938178 # Ar
623 623 1 0.0 304.7148193755006 192.21737784237268 250.27190374369619 # Ar
624 624 1 0.0 80.41969967393976 454.7697524240255 113.5397020683808 # Ar
625 625 1 0.0 408.339268893549 469.70241357747796 181.90415024596118 # Ar
626 626 1 0.0 11.546266348439946 584.3766446546678 320.6680557379777 # Ar
627 627 1 0.0 396.88594756099013 311.6271514452875 352.6960076063277 # Ar
628 628 1 0.0 280.6090083028255 519.5481179306253 513.4581227865144 # Ar
629 629 1 0.0 47.40622132083846 145.92772038160356 501.10254902906956 # Ar
630 630 1 0.0 202.5904276840188 553.6025070344891 583.5271059366584 # Ar
631 631 1 0.0 65.88478499360242 430.5146777565434 306.30589907549216 # Ar
632 632 1 0.0 374.47615816187454 314.88902318654243 213.54630325159175 # Ar
633 633 1 0.0 485.174872917966 368.40181715123015 178.70914815611957 # Ar
634 634 1 0.0 37.197616582355394 155.03278432387148 420.8962043500071 # Ar
635 635 1 0.0 171.52050889136657 270.58127554296647 539.0006274229695 # Ar
636 636 1 0.0 265.12976772544215 285.8027018139169 89.58460967894636 # Ar
637 637 1 0.0 249.18271195403756 125.27893945643244 328.05885349594195 # Ar
638 638 1 0.0 529.6656248464549 247.8493451292908 503.99717457353336 # Ar
639 639 1 0.0 192.83441061290887 334.6934704378061 3.6891812016592045 # Ar
640 640 1 0.0 402.2047816745198 286.82791696549384 462.1908330134993 # Ar
641 641 1 0.0 501.7813414069051 502.65154338676217 86.19361568978321 # Ar
642 642 1 0.0 59.729073274957734 115.57479190975207 196.44203303998577 # Ar
643 643 1 0.0 557.6780765311764 227.89105731307706 53.74098545288345 # Ar
644 644 1 0.0 446.83872736660027 516.7783564729328 261.5389019968095 # Ar
645 645 1 0.0 12.434515221918097 451.52544203222874 111.29361815581292 # Ar
646 646 1 0.0 151.13612103624968 476.1701456496333 127.74751309610488 # Ar
647 647 1 0.0 176.98607851114866 429.6642140415748 545.7536028668786 # Ar
648 648 1 0.0 517.657956851061 424.7177142694357 126.48837092314973 # Ar
649 649 1 0.0 171.6400011465102 153.29792612991307 305.4463495231548 # Ar
650 650 1 0.0 340.8540192090767 149.91224466682593 291.9410288088191 # Ar
651 651 1 0.0 259.9359290382961 248.20159473387028 232.56331124546313 # Ar
652 652 1 0.0 462.6771429379696 64.97120387559919 387.04649557553466 # Ar
653 653 1 0.0 331.4212594522598 143.8116996252899 204.69006793353316 # Ar
654 654 1 0.0 151.21695187375954 415.76995362123455 557.3483452002607 # Ar
655 655 1 0.0 407.5743570100041 331.21156896060916 588.4570564482207 # Ar
656 656 1 0.0 526.109813915401 133.61104957077146 165.30959182532044 # Ar
657 657 1 0.0 54.28147458472939 526.1154598444859 243.75113863034522 # Ar
658 658 1 0.0 378.1940221757093 470.2244220726638 334.742026811765 # Ar
659 659 1 0.0 450.79747665223283 42.206800020970206 457.88188437580936 # Ar
660 660 1 0.0 417.8953134449858 308.068606852593 53.948079101373736 # Ar
661 661 1 0.0 69.28156333160275 497.1887322683671 238.1375942607622 # Ar
662 662 1 0.0 344.58873325635767 66.88803498051114 450.2019000755507 # Ar
663 663 1 0.0 469.87910886263455 285.05358745677086 291.9192917369639 # Ar
664 664 1 0.0 84.54711193156936 455.7492247892827 52.898512210328995 # Ar
665 665 1 0.0 472.95883414892864 321.507413880778 14.957354996909759 # Ar
666 666 1 0.0 535.5733333209622 435.7445415269618 232.6311721582183 # Ar
667 667 1 0.0 264.3299464007502 93.30090892509676 235.94863421011493 # Ar
668 668 1 0.0 250.43839876124252 210.81788331456312 543.9278084276633 # Ar
669 669 1 0.0 519.461317314191 178.83985764100623 410.1346064281861 # Ar
670 670 1 0.0 490.4817983453031 348.7223084337676 86.97315393538688 # Ar
671 671 1 0.0 375.8815328842578 251.71729670144197 216.67586312092658 # Ar
672 672 1 0.0 123.40972343915345 556.336844096236 192.80524812613706 # Ar
673 673 1 0.0 583.5889678095315 113.69473405932257 224.3268854836416 # Ar
674 674 1 0.0 244.48611421967053 43.612768391667544 462.96561323966966 # Ar
675 675 1 0.0 177.0137302016308 292.12818394764076 184.30008289467568 # Ar
676 676 1 0.0 382.7989457336317 279.7357632554477 473.8107661640503 # Ar
677 677 1 0.0 312.97044928644414 461.59606226804755 583.5274255351533 # Ar
678 678 1 0.0 568.8727606157521 175.0748314600165 126.83157958113729 # Ar
679 679 1 0.0 567.9461060094463 103.47572706422906 572.9181457175567 # Ar
680 680 1 0.0 255.42203486710102 448.5534442576018 432.2997640804177 # Ar
681 681 1 0.0 53.51307811782655 319.0455997672262 160.31118407789936 # Ar
682 682 1 0.0 547.6086529515744 262.18532180082343 485.7337088934729 # Ar
683 683 1 0.0 329.5128072112243 6.300463535634728 313.0933058924589 # Ar
684 684 1 0.0 293.15717306791913 59.39925645914221 315.00810546451714 # Ar
685 685 1 0.0 372.0629748908971 166.98306851705007 349.744446825109 # Ar
686 686 1 0.0 204.23778748125181 209.8855987174248 239.41460400617493 # Ar
687 687 1 0.0 370.9125147219118 9.3874128651998 488.36748348010366 # Ar
688 688 1 0.0 460.55267307337476 8.943801860278539 54.38551565016822 # Ar
689 689 1 0.0 340.5252055829694 159.96505337294272 169.1800973076537 # Ar
690 690 1 0.0 143.36336307774334 154.7805224726196 466.12527714280094 # Ar
691 691 1 0.0 9.872641458802503 66.51988261876093 584.7471867821274 # Ar
692 692 1 0.0 483.33207178154817 32.17427201598468 257.9003161877056 # Ar
693 693 1 0.0 246.9278503216021 449.36735191008046 352.500916938749 # Ar
694 694 1 0.0 351.52019306755915 179.2200114153345 522.352879050479 # Ar
695 695 1 0.0 164.42018398876243 385.3554713388846 533.0722307697182 # Ar
696 696 1 0.0 374.6192307383857 181.69280782958148 467.87861753729146 # Ar
697 697 1 0.0 371.6755389366052 563.8623977956854 316.14606415956877 # Ar
698 698 1 0.0 99.30616893081597 483.551079653495 214.12170678095765 # Ar
699 699 1 0.0 469.01009559702163 228.99393282085308 355.79138257858364 # Ar
700 700 1 0.0 338.71587378688525 58.13996119501206 302.77626467383413 # Ar
701 701 1 0.0 285.3699660666342 222.69903699226285 109.46287093800292 # Ar
702 702 1 0.0 350.5654376576602 471.25248802151975 502.2553209678356 # Ar
703 703 1 0.0 146.96164506544747 502.9944613496976 582.2084421489782 # Ar
704 704 1 0.0 61.35332874791341 450.731590801389 45.607701174507106 # Ar
705 705 1 0.0 582.0792451215289 263.7999224068907 84.55533999043104 # Ar
706 706 1 0.0 120.86804679806514 23.975993673448194 333.38456044987674 # Ar
707 707 1 0.0 430.80819664602177 60.88354601486703 360.78232186630396 # Ar
708 708 1 0.0 383.4602643239277 392.89534539763275 365.168408478667 # Ar
709 709 1 0.0 544.7384939094885 398.40208788876765 114.13462753452303 # Ar
710 710 1 0.0 136.57544572285835 399.1309227923151 152.8479125539679 # Ar
711 711 1 0.0 222.0715359238219 77.28433361383632 476.28828010381187 # Ar
712 712 1 0.0 104.96484048871744 305.3784537131242 161.8724817372354 # Ar
713 713 1 0.0 475.029102969729 425.8575980522835 460.6749284720803 # Ar
714 714 1 0.0 75.86665540270751 213.50174989860167 484.2578041176594 # Ar
715 715 1 0.0 284.57967938176296 141.39910710027027 337.8950774181119 # Ar
716 716 1 0.0 234.08283611074668 561.6009661676023 413.3242456599477 # Ar
717 717 1 0.0 383.25374381468595 47.61897710910637 183.7244108183532 # Ar
718 718 1 0.0 522.3601194022995 328.6038836413911 235.63537424415813 # Ar
719 719 1 0.0 528.7924424233148 438.5461426884949 462.65624887916005 # Ar
720 720 1 0.0 400.10781480952784 219.97359556809954 65.18163560552564 # Ar
721 721 1 0.0 264.91881975507016 113.54262948377169 267.0743849960193 # Ar
722 722 1 0.0 3.397198732179729 493.8014284145125 228.81303040963252 # Ar
723 723 1 0.0 274.6502404127321 71.40799924141913 132.06989161274436 # Ar
724 724 1 0.0 498.1114940073688 57.769960412571415 69.75721850063798 # Ar
725 725 1 0.0 325.21686498490624 339.0347626149987 533.4303973327837 # Ar
726 726 1 0.0 201.89410367459618 510.337440090835 361.0740116597952 # Ar
727 727 1 0.0 163.1160358670092 365.9574853223308 548.6834523129656 # Ar
728 728 1 0.0 180.7637342356421 162.29368871205622 250.57786782132519 # Ar
729 729 1 0.0 5.604210804820719 92.57192218099787 284.6942237859698 # Ar
730 730 1 0.0 182.27969840456643 146.36109419736775 354.35280497548644 # Ar
731 731 1 0.0 383.96450615832293 28.309058026902306 448.15663856654436 # Ar
732 732 1 0.0 241.43510359356125 250.89071352483515 531.1670063657277 # Ar
733 733 1 0.0 317.65287909325747 542.5302950336547 538.7459513995685 # Ar
734 734 1 0.0 422.9665686632249 239.8822162905897 328.81830152302393 # Ar
735 735 1 0.0 92.18056698555658 316.878006094885 224.73734271115146 # Ar
736 736 1 0.0 27.893945050627277 373.743082394595 185.8117709985334 # Ar
737 737 1 0.0 91.88103530974682 408.4363189693399 544.0710443285161 # Ar
738 738 1 0.0 393.66644837948985 71.86746487879306 535.3691762443244 # Ar
739 739 1 0.0 531.431918680709 482.6033102398214 545.6383689329688 # Ar
740 740 1 0.0 128.0280045172733 331.4193594529025 273.90696800417044 # Ar
741 741 1 0.0 581.9047499832935 168.24048848237842 131.55388692624481 # Ar
742 742 1 0.0 487.21123033782317 394.60732798919713 454.17161685568897 # Ar
743 743 1 0.0 516.737173429655 54.52142076326316 139.97476823994714 # Ar
744 744 1 0.0 69.95113620610137 433.123529507631 76.45597556576679 # Ar
745 745 1 0.0 229.56709042078123 547.2118362984269 424.13190613405607 # Ar
746 746 1 0.0 525.9954499011742 267.37740299230995 135.60136338326672 # Ar
747 747 1 0.0 463.5281125068282 542.0031611772897 348.50585266163256 # Ar
748 748 1 0.0 396.1216895525743 228.7777637494739 514.36679562267 # Ar
749 749 1 0.0 131.5565550413567 330.16121809869145 262.7204479018116 # Ar
750 750 1 0.0 362.1577886346737 416.6786072806799 505.33770959275324 # Ar
751 751 1 0.0 53.300207797702356 138.4225732956792 13.91580780699643 # Ar
752 752 1 0.0 121.37721413507938 76.10956560818617 265.22260036243597 # Ar
753 753 1 0.0 11.784549915700767 577.5992483178453 374.739623051906 # Ar
754 754 1 0.0 80.05242332992468 460.3526550563546 218.9970300663345 # Ar
755 755 1 0.0 448.86445026603263 279.7176914622473 380.8181680188376 # Ar
756 756 1 0.0 173.8243917503584 295.64263138226966 467.5620562834411 # Ar
757 757 1 0.0 473.5881445159524 465.34264202699944 352.2733198612237 # Ar
758 758 1 0.0 434.7306196061003 333.939695298256 421.53287967734207 # Ar
759 759 1 0.0 392.26911702994533 410.0584171864883 236.14500739408044 # Ar
760 760 1 0.0 60.37907885580945 533.5030020252894 77.99995509861418 # Ar
761 761 1 0.0 477.1900393271047 16.692895588581553 400.0228982811226 # Ar
762 762 1 0.0 204.5982396430834 183.8335782389021 483.98013448931704 # Ar
763 763 1 0.0 345.10439061595343 556.8137834397627 176.01582011502498 # Ar
764 764 1 0.0 162.85339884789263 133.00454600105505 354.8137420387152 # Ar
765 765 1 0.0 372.8011679297738 184.80423085569336 440.3543700933279 # Ar
766 766 1 0.0 294.5539611926105 136.83407854924582 229.9811672249021 # Ar
767 767 1 0.0 51.764995414883465 33.26665331266251 200.39940599653698 # Ar
768 768 1 0.0 416.9223206498611 190.50053283879578 505.0253496308097 # Ar
769 769 1 0.0 450.76088943674347 176.30696139815203 355.82469280423913 # Ar
770 770 1 0.0 555.4553034807402 218.48600212365025 32.106095163695194 # Ar
771 771 1 0.0 241.82301978504657 367.2623589113971 360.9218271488435 # Ar
772 772 1 0.0 442.8198809042905 441.030484025482 568.4280486323527 # Ar
773 773 1 0.0 379.7073195046261 336.03727090982323 6.36357038121523 # Ar
774 774 1 0.0 124.74696094533914 358.2594819575883 326.85314449286307 # Ar
775 775 1 0.0 400.18567981559033 335.38856334671596 26.027371245292734 # Ar
776 776 1 0.0 262.99617495190756 247.11111295823721 211.02482821054022 # Ar
777 777 1 0.0 205.81197718949542 46.35701287458923 573.0054814158967 # Ar
778 778 1 0.0 553.5144013512946 446.737214223971 268.09595344816955 # Ar
779 779 1 0.0 26.986988879639075 128.25837001018883 260.91465902527045 # Ar
780 780 1 0.0 395.25839316021074 66.96338009134217 507.9463299599535 # Ar
781 781 1 0.0 240.2324901253519 346.3363904175502 306.45155354853296 # Ar
782 782 1 0.0 505.0726339794265 418.3724368800437 313.13490345431876 # Ar
783 783 1 0.0 227.01957914084196 470.7381999321263 508.02994871237416 # Ar
784 784 1 0.0 424.2716200114007 5.432653437797424 123.8537167150942 # Ar
785 785 1 0.0 260.6265378132645 502.3285973800289 480.3741866361106 # Ar
786 786 1 0.0 213.23282704454846 244.52489481482866 420.80828349319654 # Ar
787 787 1 0.0 160.70219384205396 73.74419871832266 411.96235640466085 # Ar
788 788 1 0.0 534.0389547219971 372.2117113136455 72.10631961032274 # Ar
789 789 1 0.0 390.63514238067285 232.22201051439217 420.3040072617312 # Ar
790 790 1 0.0 374.16729063891086 527.0905341621855 149.66821565688653 # Ar
791 791 1 0.0 113.90356418535029 515.4172895309993 383.20362111032205 # Ar
792 792 1 0.0 335.09930795522774 466.0565917775106 410.3011216711958 # Ar
793 793 1 0.0 556.5045048932734 176.5964977074987 288.7725883562372 # Ar
794 794 1 0.0 288.1066641507887 74.56366262911858 465.5659928617264 # Ar
795 795 1 0.0 251.82146584170238 61.40479803846668 513.5818945595835 # Ar
796 796 1 0.0 453.5814426302502 443.5247983742772 397.5524253566759 # Ar
797 797 1 0.0 66.9372847851122 431.39344725257985 271.77138598482475 # Ar
798 798 1 0.0 569.4016369136697 552.562357723707 101.03653493505205 # Ar
799 799 1 0.0 418.95736467858757 40.29755695109691 144.5353608072202 # Ar
800 800 1 0.0 36.136954970181584 23.004858592805334 10.133304713896985 # Ar
801 801 1 0.0 578.9692731553857 215.07666913838312 150.5515170486693 # Ar
802 802 1 0.0 14.489904065111846 366.86548452084406 421.2779385141255 # Ar
803 803 1 0.0 235.9086411619247 37.63715859690923 156.30416663314867 # Ar
804 804 1 0.0 29.514710144626967 371.75284549149615 453.4101115752995 # Ar
805 805 1 0.0 428.5641050829662 115.69238237170948 490.3591474273131 # Ar
806 806 1 0.0 122.22764548300596 298.8760804569755 423.87310371734986 # Ar
807 807 1 0.0 305.38640050096933 16.042806768185436 423.9108321259372 # Ar
808 808 1 0.0 198.57040727656116 126.09577879335379 246.62749897083282 # Ar
809 809 1 0.0 399.5385315825636 29.05067520005112 207.8868532602499 # Ar
810 810 1 0.0 136.1708325678405 287.5779438278172 299.28541176630716 # Ar
811 811 1 0.0 475.9307578216338 311.0604857522199 429.4128621099304 # Ar
812 812 1 0.0 32.687055928759946 303.13085457392515 40.639724199523684 # Ar
813 813 1 0.0 138.9208698646386 22.126295844583204 547.0733699116798 # Ar
814 814 1 0.0 309.82613973765655 495.47518869472816 156.5636372095371 # Ar
815 815 1 0.0 531.9475505626891 501.8816001453981 344.4560671121436 # Ar
816 816 1 0.0 421.71470015985886 175.18272688694807 99.7752415190261 # Ar
817 817 1 0.0 535.672207196759 331.07606177740934 96.54943356835274 # Ar
818 818 1 0.0 55.207035264121714 481.1831233921841 97.76901852419587 # Ar
819 819 1 0.0 588.4105048470086 413.1303278649384 60.69798437777847 # Ar
820 820 1 0.0 331.4500351178962 102.96223784514032 184.12145475876335 # Ar
821 821 1 0.0 403.0166085426203 417.79907175469486 275.50627120257616 # Ar
822 822 1 0.0 402.792075414196 404.7206763315312 167.54978674013827 # Ar
823 823 1 0.0 537.2075478023753 445.097278714464 302.28158828434334 # Ar
824 824 1 0.0 128.61565894315498 275.23146711835886 52.23791821926331 # Ar
825 825 1 0.0 536.0878587976915 460.1752091087043 67.61680054059612 # Ar
826 826 1 0.0 308.8740120414299 313.68862926711967 478.4841889493599 # Ar
827 827 1 0.0 141.45325983436 491.5826696599687 45.53175067821034 # Ar
828 828 1 0.0 249.31139707754858 208.9225826265011 453.77209445566587 # Ar
829 829 1 0.0 41.808870854036655 328.55209787294746 126.57137629052532 # Ar
830 830 1 0.0 443.0631197435502 492.9626447996077 499.3371534133984 # Ar
831 831 1 0.0 166.19403259555529 301.9023178536893 509.63555389021 # Ar
832 832 1 0.0 250.2666351831212 40.239131213774286 104.13494266847653 # Ar
833 833 1 0.0 330.6802658190549 303.28518864197173 570.6756058385408 # Ar
834 834 1 0.0 470.98141617581894 284.2305505607333 352.05609847023607 # Ar
835 835 1 0.0 221.05451085660536 479.23802876106913 98.72410728782427 # Ar
836 836 1 0.0 336.6457449893777 457.94930764779673 555.6032446652713 # Ar
837 837 1 0.0 373.87579341781924 404.89626439765783 520.5108546863772 # Ar
838 838 1 0.0 475.61920347214436 527.3554354483277 461.0636339530265 # Ar
839 839 1 0.0 163.2003445930988 324.3299378682521 227.3747659320854 # Ar
840 840 1 0.0 256.8701527738409 533.6805049076484 373.1644305131237 # Ar
841 841 1 0.0 119.19123134320085 139.81966507450312 240.0999220108401 # Ar
842 842 1 0.0 288.37489602067416 410.4937858597094 516.4541199665182 # Ar
843 843 1 0.0 228.9243214721678 328.0472034682038 548.3940948704993 # Ar
844 844 1 0.0 186.58332199445346 218.02452358852153 539.0830599541736 # Ar
845 845 1 0.0 271.6907207771725 555.8308524205961 276.09184760002245 # Ar
846 846 1 0.0 7.711523141309645 61.45543259035909 578.2773856496101 # Ar
847 847 1 0.0 101.50687446493498 253.59482676934218 149.5811989104809 # Ar
848 848 1 0.0 413.1523346316435 75.17070332214456 25.848352804728634 # Ar
849 849 1 0.0 563.2475118037464 148.8973142419182 278.4360594467609 # Ar
850 850 1 0.0 293.9571066748906 182.46439752264934 333.74093834387844 # Ar
851 851 1 0.0 558.1471715787644 493.1601618869829 501.4805247872672 # Ar
852 852 1 0.0 156.31441787221047 258.28403622401976 415.15359402405323 # Ar
853 853 1 0.0 470.83031574110936 482.4622943164821 272.4737477555992 # Ar
854 854 1 0.0 285.8002709627098 142.46013446482965 9.267903697184705 # Ar
855 855 1 0.0 559.7317250686184 433.83362224641354 115.47488396715113 # Ar
856 856 1 0.0 45.98656708574772 475.9699244639416 78.21357044970796 # Ar
857 857 1 0.0 41.8488840233564 459.186667306178 174.921423023705 # Ar
858 858 1 0.0 131.7428231351341 355.91656139597785 109.32531075517593 # Ar
859 859 1 0.0 188.54184095977723 63.43526151041059 250.56919878837695 # Ar
860 860 1 0.0 523.1799268386321 314.27245448165127 231.83210892082303 # Ar
861 861 1 0.0 498.62078186795526 176.21409207675887 579.3138970473555 # Ar
862 862 1 0.0 57.774957326153526 243.14228652491687 63.188576551564616 # Ar
863 863 1 0.0 413.3474080535216 139.01309075363193 416.688779888478 # Ar
864 864 1 0.0 359.36375236382924 111.39681428347592 349.68124690446143 # Ar
865 865 1 0.0 250.0743603003906 489.12910087348615 290.17857935836594 # Ar
866 866 1 0.0 6.577702577910751 240.6407702084648 173.39225882657158 # Ar
867 867 1 0.0 361.9884071804087 240.36762769183062 388.3698004404157 # Ar
868 868 1 0.0 145.0204964608924 354.09046273477105 514.8487157409386 # Ar
869 869 1 0.0 346.71308731898614 233.16957782892055 480.67972644355416 # Ar
870 870 1 0.0 569.0402323953572 471.8795161553184 300.30314612395426 # Ar
871 871 1 0.0 251.6402070631069 315.02342890935046 310.8304377046199 # Ar
872 872 1 0.0 508.1722131215904 414.70878884536273 111.89440810068993 # Ar
873 873 1 0.0 566.4266747668147 516.5527991766227 113.94591726185418 # Ar
874 874 1 0.0 411.2830948438833 118.52650350109833 314.2370610482463 # Ar
875 875 1 0.0 458.65511141847384 393.2295954290877 106.1614517306744 # Ar
876 876 1 0.0 256.8268280865328 143.8251377446295 281.69360436629233 # Ar
877 877 1 0.0 525.5687144716936 43.89959733701319 298.88782759308066 # Ar
878 878 1 0.0 405.8455038561191 285.25066477997984 483.415077846846 # Ar
879 879 1 0.0 528.1272616342335 361.24171383860966 212.35037648217178 # Ar
880 880 1 0.0 377.48284212377644 322.0917025415089 404.68303308764075 # Ar
881 881 1 0.0 531.1955628844644 358.01205886923134 216.19174102414863 # Ar
882 882 1 0.0 114.77913986346273 518.1002325920688 458.63900898447633 # Ar
883 883 1 0.0 111.14166467461015 374.31564941153675 133.51401740982251 # Ar
884 884 1 0.0 506.597501191786 497.1179535372581 340.7960936743046 # Ar
885 885 1 0.0 493.7536538395392 69.0807881241923 264.7382465135023 # Ar
886 886 1 0.0 510.7940669931903 69.21604827735182 166.2531865418561 # Ar
887 887 1 0.0 442.9261619600411 553.8522410311659 463.6840936676853 # Ar
888 888 1 0.0 100.47836289684375 260.2927950014674 7.591522448868698 # Ar
889 889 1 0.0 229.0543015482257 351.8527845935971 182.6985618517775 # Ar
890 890 1 0.0 94.50275350011817 272.4648385507456 495.9697073950643 # Ar
891 891 1 0.0 479.57581700882685 334.9655150744844 217.83319122236546 # Ar
892 892 1 0.0 179.8021054583119 133.91396847474542 321.23073779501146 # Ar
893 893 1 0.0 555.5972693817456 482.6468621605017 141.01827064832338 # Ar
894 894 1 0.0 300.4997963823999 63.86660285470792 88.4557978346977 # Ar
895 895 1 0.0 505.63300532330885 102.39904723882047 334.0334563089882 # Ar
896 896 1 0.0 390.28466435948917 209.6737582364731 364.2002326317079 # Ar
897 897 1 0.0 31.168253933108865 349.67952862185786 362.9651606924141 # Ar
898 898 1 0.0 71.129847625581 159.19633148886345 196.54027982998198 # Ar
899 899 1 0.0 467.11324289060184 82.04249285010219 313.36722257486895 # Ar
900 900 1 0.0 308.7982683090637 22.71409967022226 434.39137127060013 # Ar
901 901 1 0.0 321.65295939227826 448.6185412829344 291.6491802275454 # Ar
902 902 1 0.0 535.5245282961872 150.63153286267712 287.8320636799788 # Ar
903 903 1 0.0 213.75410181995485 533.7041488318331 43.907123919895625 # Ar
904 904 1 0.0 208.82484733581873 227.44483048320186 95.2059578627787 # Ar
905 905 1 0.0 206.99774691202455 412.0085242714861 129.25555756453775 # Ar
906 906 1 0.0 294.3741759380401 297.8510010768067 6.105414852195775 # Ar
907 907 1 0.0 477.9487751311775 342.9322856752384 50.25810893979851 # Ar
908 908 1 0.0 295.8856182979658 54.53835007853878 420.1500549426953 # Ar
909 909 1 0.0 221.38630059477103 390.1604633566088 131.1726743303924 # Ar
910 910 1 0.0 450.1023348891908 533.8378292021869 351.9946609288686 # Ar
911 911 1 0.0 540.0170129628809 324.1072807579806 27.590667509286828 # Ar
912 912 1 0.0 524.9838531689775 194.31196285661224 539.2295075536837 # Ar
913 913 1 0.0 139.57331333021241 227.82894236000206 278.13810724451224 # Ar
914 914 1 0.0 347.8611312773229 185.2261779348384 437.57347688507747 # Ar
915 915 1 0.0 132.7950505512653 518.5049615755073 135.08983016368921 # Ar
916 916 1 0.0 362.18808250977855 404.63833198867627 134.38859289017978 # Ar
917 917 1 0.0 439.37250751966343 166.675131275079 30.491063169485287 # Ar
918 918 1 0.0 352.9960292744907 410.4182516414955 24.426837416829237 # Ar
919 919 1 0.0 97.58655463618624 162.06232534313247 289.0177021714151 # Ar
920 920 1 0.0 375.00785796167764 332.37927526462266 265.9831041012614 # Ar
921 921 1 0.0 490.9906083359427 511.2202579839541 157.95221662625465 # Ar
922 922 1 0.0 546.4084736356077 420.6001291934372 180.65245350061355 # Ar
923 923 1 0.0 358.41475950622237 324.1466422940929 481.3498059787098 # Ar
924 924 1 0.0 116.43390754072738 276.74002050228006 58.166031402062885 # Ar
925 925 1 0.0 270.35356390405445 429.55460581405384 246.16053362763478 # Ar
926 926 1 0.0 252.91377739798102 554.4357493638381 19.13634653660323 # Ar
927 927 1 0.0 21.465207298528338 103.77270182273455 183.30306448524416 # Ar
928 928 1 0.0 264.84210784568364 216.77466952975934 369.7897099102753 # Ar
929 929 1 0.0 499.0773824011795 118.17211593448584 226.1564792526586 # Ar
930 930 1 0.0 108.79831159885785 514.4123107025723 407.8433951370501 # Ar
931 931 1 0.0 541.6053343363651 104.77350399862381 327.3455716661487 # Ar
932 932 1 0.0 493.02240943314035 586.581509684706 129.5952208138178 # Ar
933 933 1 0.0 539.1575627241315 223.01320634957574 422.9912174095883 # Ar
934 934 1 0.0 448.02015228097366 359.34204572703146 253.1949256389383 # Ar
935 935 1 0.0 226.77966538239576 55.01792684972918 153.25794945380747 # Ar
936 936 1 0.0 253.25802505811617 515.6415740915444 180.55587238065465 # Ar
937 937 1 0.0 499.9212077479153 410.2413609653727 235.1304811723204 # Ar
938 938 1 0.0 151.695029652236 324.03624393369586 254.59378297148606 # Ar
939 939 1 0.0 70.00915778426977 588.251860490904 548.3809306825401 # Ar
940 940 1 0.0 428.0879353699636 251.54666020966476 289.7750674065246 # Ar
941 941 1 0.0 22.130144010663038 175.5816078523497 351.9622164021797 # Ar
942 942 1 0.0 32.346770060912 278.6660614384404 557.2689934496481 # Ar
943 943 1 0.0 545.1892124296235 84.93937014692466 441.3242720057587 # Ar
944 944 1 0.0 24.37852756821136 427.98371963592746 578.7376561572514 # Ar
945 945 1 0.0 108.34524842551386 516.2535084154957 174.93091458757095 # Ar
946 946 1 0.0 500.39624920402264 251.75073549196847 95.89324824126913 # Ar
947 947 1 0.0 538.5548274412164 534.3832519814807 267.7505535939636 # Ar
948 948 1 0.0 587.1708681651239 98.9452303680558 95.20696183624904 # Ar
949 949 1 0.0 215.52835573116894 426.96171828918466 130.1208098905202 # Ar
950 950 1 0.0 401.3491128127894 567.2227330697242 47.887513779447914 # Ar
951 951 1 0.0 45.01351269113368 413.70680049947134 350.49569413519237 # Ar
952 952 1 0.0 123.41758138875423 300.94295738408687 241.71470374129933 # Ar
953 953 1 0.0 453.0130053871338 380.4090305723146 181.56290688460527 # Ar
954 954 1 0.0 175.49537111127344 189.67814105958084 39.70645731921572 # Ar
955 955 1 0.0 357.24542203488875 17.476341826993348 211.44866959676943 # Ar
956 956 1 0.0 247.9334010577102 295.80779294507056 576.6456709353229 # Ar
957 957 1 0.0 457.6476601243289 273.6730987509522 181.09903460651006 # Ar
958 958 1 0.0 213.7544709294163 93.53473619303927 460.04727892039006 # Ar
959 959 1 0.0 228.91465496365126 31.463865788736857 362.609159068425 # Ar
960 960 1 0.0 417.9600072817228 231.84156840212543 539.6317313444324 # Ar
961 961 1 0.0 559.2718725500227 517.1051656518872 514.6777778311244 # Ar
962 962 1 0.0 79.1712880432036 508.04782063030075 454.6515701835309 # Ar
963 963 1 0.0 560.3568163418527 38.297258769322205 500.22708432627144 # Ar
964 964 1 0.0 198.38240905053533 148.74730518593114 143.73564504955283 # Ar
965 965 1 0.0 531.7457967828997 60.23290415925923 267.171502222531 # Ar
966 966 1 0.0 244.985327970981 133.87146672092342 193.83673784720105 # Ar
967 967 1 0.0 120.35515920040382 222.92850107605986 266.2691806827972 # Ar
968 968 1 0.0 54.24315602098922 514.0822322232488 149.71264221083837 # Ar
969 969 1 0.0 89.56690190019194 495.11212162345583 3.6124879533616356 # Ar
970 970 1 0.0 326.1936338838202 314.99282582130627 335.11510795046894 # Ar
971 971 1 0.0 326.93812292059357 276.3497212488915 240.15079765507863 # Ar
972 972 1 0.0 54.87619929338162 446.382093976791 146.589200858305 # Ar
973 973 1 0.0 327.9655808532713 217.2474588327271 215.437744350804 # Ar
974 974 1 0.0 420.2065927627796 198.3718134261025 428.8975720104768 # Ar
975 975 1 0.0 258.1083790825792 350.19993151871745 140.03339307254097 # Ar
976 976 1 0.0 370.75917111403646 568.3162394012551 548.2711493455463 # Ar
977 977 1 0.0 332.39644736718253 485.0982917930007 237.20674853460076 # Ar
978 978 1 0.0 415.83406820433345 138.00103439282577 121.3791205571222 # Ar
979 979 1 0.0 117.59569663052436 332.7162567675003 415.6052610556911 # Ar
980 980 1 0.0 533.0475248242476 345.7244921496047 40.83983519254774 # Ar
981 981 1 0.0 64.04257355766335 10.62086017619412 392.1993657742388 # Ar
982 982 1 0.0 73.47927575486406 567.5492996758871 415.8383244069418 # Ar
983 983 1 0.0 460.98501640940276 59.03816895054896 464.382724630842 # Ar
984 984 1 0.0 450.50932621631915 120.49969135051431 103.94213410644056 # Ar
985 985 1 0.0 147.30799936335677 12.725139786835886 126.60896146119745 # Ar
986 986 1 0.0 336.68899771888624 171.26351320633268 414.21163242468856 # Ar
987 987 1 0.0 226.03051413955905 119.9027578207539 386.17205838042423 # Ar
988 988 1 0.0 28.207671009883672 359.6842932613205 463.838807138322 # Ar
989 989 1 0.0 547.2083055512489 153.49373227042042 40.32527918372189 # Ar
990 990 1 0.0 189.07416031304604 295.33472423334115 194.63378382345752 # Ar
991 991 1 0.0 277.0263012933699 305.2367266170372 217.04503299401094 # Ar
992 992 1 0.0 409.1412642282041 80.31730878962583 67.59135199955794 # Ar
993 993 1 0.0 448.68050472800525 323.6611900507973 143.07061268407531 # Ar
994 994 1 0.0 31.515169687465374 265.36156272349643 462.5262096241535 # Ar
995 995 1 0.0 190.282063786041 159.25818559781118 99.15520795988388 # Ar
996 996 1 0.0 24.712415795395053 186.64143068378573 80.80800690270561 # Ar
997 997 1 0.0 36.39481733258942 487.78068471956965 101.61838069545746 # Ar
998 998 1 0.0 208.88271399024455 404.5304984287361 162.81194749292317 # Ar
999 999 1 0.0 53.04846017689265 541.4629236974334 298.15820021738944 # Ar
1000 1000 1 0.0 90.22805533580731 75.74822092603134 67.78565519869481 # Ar
1001 1001 1 0.0 307.9405748318392 68.18218182355729 91.84449920146322 # Ar
1002 1002 1 0.0 143.98712989469445 377.1977870685231 442.26617013483184 # Ar
1003 1003 1 0.0 523.8341908862081 306.584778863225 365.8771295255109 # Ar
1004 1004 1 0.0 131.6245529752277 451.3105556340039 394.40917572491065 # Ar
1005 1005 1 0.0 383.82920661392865 173.1933853364994 16.99344119215776 # Ar
1006 1006 1 0.0 510.4125681061828 364.12994473429063 505.5596478860037 # Ar
1007 1007 1 0.0 573.8604799622352 257.4084552946878 186.44999298836504 # Ar
1008 1008 1 0.0 372.4201435636051 103.23847680621789 481.94746642088734 # Ar
1009 1009 1 0.0 58.896845914582435 12.637329352914433 19.084097681449375 # Ar
1010 1010 1 0.0 163.61633335319155 249.35048478824336 96.6906642871641 # Ar
1011 1011 1 0.0 224.07709036244114 179.28504723182058 111.44287492997307 # Ar
1012 1012 1 0.0 91.02590995353991 140.59811455963344 14.755793783721339 # Ar
1013 1013 1 0.0 389.2551096826826 60.30678229625365 192.3662550781492 # Ar
1014 1014 1 0.0 293.62350321520427 331.3369150734821 196.71851778485583 # Ar
1015 1015 1 0.0 183.23308557636503 418.0612937015078 294.3199946529971 # Ar
1016 1016 1 0.0 50.27155002618552 562.6720271714831 438.44304336310165 # Ar
1017 1017 1 0.0 290.8100313000871 387.97558749297497 332.6200250698275 # Ar
1018 1018 1 0.0 485.1013409725778 269.38785023070994 67.54002728545383 # Ar
1019 1019 1 0.0 505.2518328272294 320.6935341254035 380.95460028981216 # Ar
1020 1020 1 0.0 117.23144382683198 547.9327625924388 456.3660533850469 # Ar
1021 1021 1 0.0 517.580791759146 249.62642331520632 334.61825289419784 # Ar
1022 1022 1 0.0 143.37847209577882 67.64672385435547 401.20264187867394 # Ar
1023 1023 1 0.0 320.5703217222953 358.7270603736321 576.3403439817483 # Ar
1024 1024 1 0.0 80.74643608082205 223.6024138126943 518.0319962033884 # Ar
1025 1025 1 0.0 393.8499616151678 564.394637375554 225.93927182143685 # Ar
1026 1026 1 0.0 538.0252832886365 571.8420611493627 302.10520708111824 # Ar
1027 1027 1 0.0 10.848950248286576 402.62672817954433 561.2269887705755 # Ar
1028 1028 1 0.0 91.43453791004272 177.26795007847767 32.87341360426699 # Ar
1029 1029 1 0.0 289.8966677084913 236.22342313814772 271.8127405860744 # Ar
1030 1030 1 0.0 556.4953719615767 587.8052552790201 53.292305420522865 # Ar
1031 1031 1 0.0 8.2247538815966 191.20483951174268 576.6237784618654 # Ar
1032 1032 1 0.0 272.26678105922645 122.59103912431341 74.9740924252719 # Ar
1033 1033 1 0.0 312.8442106989842 171.00456574730967 16.61201660287301 # Ar
1034 1034 1 0.0 260.23739022511296 469.64741294737814 76.60157556286447 # Ar
1035 1035 1 0.0 166.34062048404596 282.89728412278697 292.2437996920934 # Ar
1036 1036 1 0.0 114.01440501333232 284.24861765324397 60.345906434672465 # Ar
1037 1037 1 0.0 65.97347791007974 482.13897212170104 482.7723222346998 # Ar
1038 1038 1 0.0 443.0910290855112 473.14211524155473 567.3041885103702 # Ar
1039 1039 1 0.0 167.03622425356025 164.1831202571006 64.35632986564072 # Ar
1040 1040 1 0.0 512.1558640668477 116.7227340182966 292.86266216859957 # Ar
1041 1041 1 0.0 559.8930614975161 212.83675077618867 224.94897813718404 # Ar
1042 1042 1 0.0 191.01051109596685 462.2293362720331 14.94062259424466 # Ar
1043 1043 1 0.0 115.1605473593149 315.46213339372036 437.88048957292057 # Ar
1044 1044 1 0.0 447.8228774127221 307.22165278207433 216.10263350269813 # Ar
1045 1045 1 0.0 544.2491612697692 37.13178999497488 187.14405615557823 # Ar
1046 1046 1 0.0 167.61998724151215 243.02496249256558 448.48313283046286 # Ar
1047 1047 1 0.0 387.3020578416045 208.06328733261398 503.23676066840017 # Ar
1048 1048 1 0.0 56.2724337498633 438.4101974522992 570.3756783125698 # Ar
1049 1049 1 0.0 21.753458415293625 242.74731836036904 404.6174497836184 # Ar
1050 1050 1 0.0 477.6802592501509 380.8219875554859 327.94114289940154 # Ar
1051 1051 1 0.0 347.5606436137726 0.43233419154486163 480.9851155593669 # Ar
1052 1052 1 0.0 120.39890999466176 530.7135343211157 27.477280465696555 # Ar
1053 1053 1 0.0 197.445043997574 296.2566634987242 432.3777826451205 # Ar
1054 1054 1 0.0 555.1403062727621 178.68587100118566 232.81687750221178 # Ar
1055 1055 1 0.0 404.36622278522435 478.4086058861166 302.1769590512407 # Ar
1056 1056 1 0.0 407.53675099017653 130.93608116523802 548.7996351448202 # Ar
1057 1057 1 0.0 41.05460905533914 349.324476866397 110.39740736957269 # Ar
1058 1058 1 0.0 491.3423183740145 376.46797161866914 363.0348278145332 # Ar
1059 1059 1 0.0 519.9445198152645 366.57988521398096 8.92216954699988 # Ar
1060 1060 1 0.0 260.62939792065765 428.5373468135022 284.3919108732265 # Ar
1061 1061 1 0.0 390.5119363415755 243.61926223908688 263.20331558525135 # Ar
1062 1062 1 0.0 558.3633359879173 137.92193994007198 588.1029102257355 # Ar
1063 1063 1 0.0 400.6527491508535 28.660291001079596 386.47152604180326 # Ar
1064 1064 1 0.0 50.337648348563555 327.34510409316556 526.7408199785983 # Ar
1065 1065 1 0.0 578.4733593271401 280.9456184872101 210.61875030076976 # Ar
1066 1066 1 0.0 365.3284660047601 126.33849666926947 40.83941558665404 # Ar
1067 1067 1 0.0 491.97383138183653 490.95231610504703 128.7222369787914 # Ar
1068 1068 1 0.0 285.55365560819564 262.4304013800782 9.92509760479331 # Ar
1069 1069 1 0.0 163.2968932632883 212.70241867554168 82.34657014898903 # Ar
1070 1070 1 0.0 29.223739685045555 99.24893093952215 132.74982612869917 # Ar
1071 1071 1 0.0 130.55667069050878 237.7378862357954 273.64587844160695 # Ar
1072 1072 1 0.0 82.93436606674652 562.7651978841216 536.7230462660276 # Ar
1073 1073 1 0.0 466.8615824944343 514.1873621326805 489.5166758495139 # Ar
1074 1074 1 0.0 14.95653415099366 476.48769970687607 326.9511745454894 # Ar
1075 1075 1 0.0 561.085730073081 87.75377475303392 33.81358860843244 # Ar
1076 1076 1 0.0 285.8187342370975 159.4558851181335 526.0437330633841 # Ar
1077 1077 1 0.0 352.88768137967776 586.3929685811153 239.44491443077328 # Ar
1078 1078 1 0.0 116.5742459858853 295.93759277318486 424.0679041032653 # Ar
1079 1079 1 0.0 497.95305267147455 276.01432073770593 428.7229175703292 # Ar
1080 1080 1 0.0 141.64377739430992 586.0784392090641 143.06736402755624 # Ar
1081 1081 1 0.0 253.08049487254544 36.66439543211042 271.10533298444795 # Ar
1082 1082 1 0.0 483.97717155796687 73.50264797942236 472.12372042479313 # Ar
1083 1083 1 0.0 503.45543969785183 85.92271400531077 408.5600072267199 # Ar
1084 1084 1 0.0 253.70269149894315 118.61400047356794 417.55906221192475 # Ar
1085 1085 1 0.0 281.0784690981893 398.1171868071415 363.7885296313364 # Ar
1086 1086 1 0.0 480.8507988910651 325.08941076491425 151.5643361461744 # Ar
1087 1087 1 0.0 546.8614109774072 86.41135031223598 343.95179902136505 # Ar
1088 1088 1 0.0 444.80633216256047 77.25399917661895 391.6977288268342 # Ar
1089 1089 1 0.0 504.35695101231835 343.0827385924768 393.284321795225 # Ar
1090 1090 1 0.0 287.922531652388 462.50439522733245 504.37734355785545 # Ar
1091 1091 1 0.0 332.25481462036134 209.2965781089646 327.3332658699887 # Ar
1092 1092 1 0.0 472.16427959496986 532.9232186003198 78.1849050616954 # Ar
1093 1093 1 0.0 130.19527365277258 212.29335560223308 247.09519504590278 # Ar
1094 1094 1 0.0 181.20618285755953 399.99075616635696 11.565588853436243 # Ar
1095 1095 1 0.0 184.89755682318312 583.2293169967886 525.3065189285816 # Ar
1096 1096 1 0.0 46.070994844225936 263.4125182454325 489.0125748940713 # Ar
1097 1097 1 0.0 558.3569792889915 257.27941312660084 288.40223923014224 # Ar
1098 1098 1 0.0 530.195707524602 395.94157299370204 365.5563092785207 # Ar
1099 1099 1 0.0 134.68237521918803 545.5859341908332 16.54133660559732 # Ar
1100 1100 1 0.0 221.72663663225117 216.7464406917891 283.5686205045986 # Ar
1101 1101 1 0.0 465.88287769705136 66.89715864788717 156.47823163515426 # Ar
1102 1102 1 0.0 35.988396815329786 461.3894719783664 178.0951891539115 # Ar
1103 1103 1 0.0 496.3598093253281 276.3777035560014 364.68709031623627 # Ar
1104 1104 1 0.0 427.748692365896 183.2344231747976 399.76640472368035 # Ar
1105 1105 1 0.0 440.0530050557209 156.8360029290412 42.767371805782716 # Ar
1106 1106 1 0.0 109.79474727974925 266.47448353224166 42.72480551560513 # Ar
1107 1107 1 0.0 2.6848960206944437 397.76799182619175 25.995385308603492 # Ar
1108 1108 1 0.0 421.16845738051416 348.1649285427503 305.05054091644746 # Ar
1109 1109 1 0.0 458.28522379742117 89.28376439743816 240.42110487878358 # Ar
1110 1110 1 0.0 201.06255619637565 400.39538865634466 242.29712593911717 # Ar
1111 1111 1 0.0 411.2366615588253 553.6072782053157 580.128218080312 # Ar
1112 1112 1 0.0 120.84434185010319 443.0915127703801 228.56050562252045 # Ar
1113 1113 1 0.0 4.7553377889480295 505.1477310712944 346.0806269251087 # Ar
1114 1114 1 0.0 178.68963692753132 308.1567407505796 346.9722647159611 # Ar
1115 1115 1 0.0 540.4815517384603 51.807041506538845 334.23737638820097 # Ar
1116 1116 1 0.0 467.96956565982197 13.322604173254474 454.78241056317523 # Ar
1117 1117 1 0.0 15.235246626532836 295.38287129332605 51.01067523579037 # Ar
1118 1118 1 0.0 35.60484680989756 441.2502446533924 4.773665167196523 # Ar
1119 1119 1 0.0 115.08471958470902 156.3483054118793 372.87010903570336 # Ar
1120 1120 1 0.0 86.14122289777697 345.79417521738645 271.01715533293617 # Ar
1121 1121 1 0.0 387.44874282640956 247.52347039166426 562.9489005425258 # Ar
1122 1122 1 0.0 474.8522959802252 292.24989841434234 523.3654570221215 # Ar
1123 1123 1 0.0 232.80530066114798 531.0968684534595 45.75009552456203 # Ar
1124 1124 1 0.0 485.9343083428408 141.62497238841252 420.4612498147342 # Ar
1125 1125 1 0.0 73.3382748780858 319.78045822715626 515.0918987227429 # Ar
1126 1126 1 0.0 138.96657328915575 522.2152203106479 1.3022414192015865 # Ar
1127 1127 1 0.0 90.5327064844323 208.8234971606823 259.55790461629744 # Ar
1128 1128 1 0.0 582.6590070365963 412.10593375924697 342.9384713444273 # Ar
1129 1129 1 0.0 106.03657276280447 168.3349962428325 304.87546389740606 # Ar
1130 1130 1 0.0 568.128688967592 14.7983637265281 387.36934936049283 # Ar
1131 1131 1 0.0 386.87416814364514 341.3147755061245 380.87357474141805 # Ar
1132 1132 1 0.0 65.2545676925485 412.6396338018229 550.1278420890069 # Ar
1133 1133 1 0.0 135.35564245419812 435.5642649283816 482.02652977797925 # Ar
1134 1134 1 0.0 495.87227808246763 355.8193903634976 163.9074713807099 # Ar
1135 1135 1 0.0 376.667141271741 215.98872636207147 502.57839970122683 # Ar
1136 1136 1 0.0 56.934145490872055 181.26428771781298 493.6258109984177 # Ar
1137 1137 1 0.0 398.54239769083404 446.6641324706479 142.40563075831278 # Ar
1138 1138 1 0.0 245.525590934991 144.77409350033315 122.67994759132841 # Ar
1139 1139 1 0.0 224.51902851670357 431.7388940051785 189.9516264733113 # Ar
1140 1140 1 0.0 405.00511045738403 203.1592301947414 4.382489330034035 # Ar
1141 1141 1 0.0 450.01624470794377 296.545612596406 585.1124784988525 # Ar
1142 1142 1 0.0 281.77626766255196 226.68030519475903 158.433112963532 # Ar
1143 1143 1 0.0 203.47896735804926 530.5936752909535 153.18953326613664 # Ar
1144 1144 1 0.0 279.67985760562664 584.7551063569182 97.32310186274269 # Ar
1145 1145 1 0.0 469.76022251880914 207.77584782509126 56.04199028769095 # Ar
1146 1146 1 0.0 454.1494730509893 39.598029914602094 24.964737384156948 # Ar
1147 1147 1 0.0 132.30248336713157 582.747358962957 408.09403713343255 # Ar
1148 1148 1 0.0 286.36391067832994 36.91355937734818 77.55362654232391 # Ar
1149 1149 1 0.0 83.8141137423152 226.55681853349583 329.2984700529119 # Ar
1150 1150 1 0.0 505.9990400896474 20.461101762950967 143.9917427409766 # Ar
1151 1151 1 0.0 116.96099963671614 208.63116826798432 220.26936470410973 # Ar
1152 1152 1 0.0 76.38032584389481 352.857980694631 43.36016729831399 # Ar
1153 1153 1 0.0 471.72527970054307 525.7159160025119 573.4912343512667 # Ar
1154 1154 1 0.0 411.5906720077223 142.54257931231646 177.73811004594742 # Ar
1155 1155 1 0.0 543.271993074242 258.8512642650433 467.92127562800454 # Ar
1156 1156 1 0.0 471.4698845966362 173.9684034410784 537.827481611666 # Ar
1157 1157 1 0.0 357.9513587095828 194.73323384113087 524.3669575857454 # Ar
1158 1158 1 0.0 201.31485258261404 186.6522966297449 468.03920809516177 # Ar
1159 1159 1 0.0 235.39998470952293 17.089408873451998 560.6505723912212 # Ar
1160 1160 1 0.0 0.9407360362609368 306.7166612093704 534.8245996984925 # Ar
1161 1161 1 0.0 407.30117582446553 28.43563438393742 382.7006034439312 # Ar
1162 1162 1 0.0 404.1583112851907 248.30516118252817 482.5783445172768 # Ar
1163 1163 1 0.0 291.3369349290455 265.1630713845241 15.160564531555895 # Ar
1164 1164 1 0.0 386.8706124140801 299.3804150148616 314.8693078595034 # Ar
1165 1165 1 0.0 208.14811777442065 522.4957610175811 540.1635284356566 # Ar
1166 1166 1 0.0 440.2984697753114 513.6065382158805 132.63015001479351 # Ar
1167 1167 1 0.0 350.85643755297207 319.6553627232715 342.71728853361805 # Ar
1168 1168 1 0.0 236.78258796510443 74.0062498282614 463.4959902358706 # Ar
1169 1169 1 0.0 587.2134621904955 281.67508718736167 505.2412919865783 # Ar
1170 1170 1 0.0 55.41785653206589 121.47663314254714 441.20128208058287 # Ar
1171 1171 1 0.0 130.44162676922866 397.7660228225628 7.49824673438562 # Ar
1172 1172 1 0.0 154.40809426330807 238.98095648970593 438.15275018181313 # Ar
1173 1173 1 0.0 315.5000338304298 67.14770951640367 83.35261674262898 # Ar
1174 1174 1 0.0 457.5877558322979 0.36308668424979257 258.09204416390423 # Ar
1175 1175 1 0.0 239.99016922563126 282.3402312523299 208.65026276447077 # Ar
1176 1176 1 0.0 322.91888139858946 505.8143381605898 173.81742564234537 # Ar
1177 1177 1 0.0 199.68406327304058 361.99586094963803 8.854705857470632 # Ar
1178 1178 1 0.0 146.18140391840242 259.39215767756616 187.13460797641102 # Ar
1179 1179 1 0.0 47.11031820167288 476.0595322940215 75.80855589267122 # Ar
1180 1180 1 0.0 146.14172434852077 363.6137503305872 112.19376624233854 # Ar
1181 1181 1 0.0 501.0260524534189 539.8864105999194 472.1162961203293 # Ar
1182 1182 1 0.0 144.8780074339521 260.9886720812399 520.1926846465162 # Ar
1183 1183 1 0.0 51.82852180469699 480.9171451715798 478.1610283550046 # Ar
1184 1184 1 0.0 224.84201628367836 119.21739336243614 80.03356674934028 # Ar
1185 1185 1 0.0 582.6660852896846 293.74920343335873 577.2687373992536 # Ar
1186 1186 1 0.0 81.47436607417391 534.301992799887 249.03895428156693 # Ar
1187 1187 1 0.0 575.675358331448 53.35506878969587 567.1306446338964 # Ar
1188 1188 1 0.0 340.20667996506353 498.5637401349655 163.0375934272767 # Ar
1189 1189 1 0.0 450.9567334556493 71.98375890010234 439.3072842840936 # Ar
1190 1190 1 0.0 105.33966278789258 497.3415135165419 453.2297266444654 # Ar
1191 1191 1 0.0 495.06644575665666 339.1071864932586 147.98683179045372 # Ar
1192 1192 1 0.0 3.98360641013016 91.42861008630362 583.9378224664861 # Ar
1193 1193 1 0.0 500.3084379724629 295.9042522763857 72.38000674673843 # Ar
1194 1194 1 0.0 80.77761006844557 388.4345346697772 183.85987897683387 # Ar
1195 1195 1 0.0 329.5762359222048 452.70622634552075 538.1159185671729 # Ar
1196 1196 1 0.0 53.216500579083466 433.03105110185913 81.79007371165262 # Ar
1197 1197 1 0.0 286.70460655671303 451.8813396011183 58.09921422648143 # Ar
1198 1198 1 0.0 222.21307763596613 326.8318739151028 103.55254660711826 # Ar
1199 1199 1 0.0 321.8594122332837 24.445038229378316 11.148280790462744 # Ar
1200 1200 1 0.0 522.6754499312884 295.24717562642553 353.07575040480265 # Ar
1201 1201 1 0.0 419.7510195907431 480.8118060943378 375.87275520691486 # Ar
1202 1202 1 0.0 3.5786581457746807 25.396090408185657 66.46296657730987 # Ar
1203 1203 1 0.0 321.564765361012 130.01310200120687 497.19082634229045 # Ar
1204 1204 1 0.0 507.12906055337413 585.3594488116211 443.05003468965486 # Ar
1205 1205 1 0.0 23.32156199550134 147.85881767528454 261.1770701336316 # Ar
1206 1206 1 0.0 442.9182417966855 227.34157435966134 307.0773399221241 # Ar
1207 1207 1 0.0 6.16121555272809 502.7417182314226 158.41017470054217 # Ar
1208 1208 1 0.0 364.010613699589 173.00527315952405 211.022622845222 # Ar
1209 1209 1 0.0 400.6668220917977 529.0572645091198 183.87620968333437 # Ar
1210 1210 1 0.0 216.22831632565865 452.3548502932381 498.34692492922585 # Ar
1211 1211 1 0.0 496.2125489875528 168.55511524912959 8.887687786734194 # Ar
1212 1212 1 0.0 410.3640667233742 281.64342804332523 123.58536398537244 # Ar
1213 1213 1 0.0 100.76046145395117 366.822240163884 120.05648627315541 # Ar
1214 1214 1 0.0 391.7703470522575 180.0878124919002 538.9290192086122 # Ar
1215 1215 1 0.0 275.32006625027026 382.09509833070103 291.42500989926515 # Ar
1216 1216 1 0.0 309.26909878528585 383.72824207728814 275.1890429862025 # Ar
1217 1217 1 0.0 470.1524367847018 520.0014561632571 346.1085873756972 # Ar
1218 1218 1 0.0 407.75297512434713 507.222210020023 115.35417261511238 # Ar
1219 1219 1 0.0 133.59195068673387 275.05775198269777 174.7631414250786 # Ar
1220 1220 1 0.0 99.11825730490412 379.60768102759977 584.9928831366287 # Ar
1221 1221 1 0.0 249.2200825713403 83.1479668118936 211.68395863167171 # Ar
1222 1222 1 0.0 8.608109238494446 108.68598493793513 542.148180251244 # Ar
1223 1223 1 0.0 238.79001868231526 493.6327729287787 556.0732632866271 # Ar
1224 1224 1 0.0 538.8523342055975 270.3788078335003 287.7174543185745 # Ar
1225 1225 1 0.0 212.1883726698952 186.50938898669872 46.47277551610332 # Ar
1226 1226 1 0.0 221.1878960844992 550.7466044770235 397.8350659531802 # Ar
1227 1227 1 0.0 36.983141904933866 68.55731678821617 296.38395069813015 # Ar
1228 1228 1 0.0 538.1718699164284 38.76790568692446 341.14441219574286 # Ar
1229 1229 1 0.0 279.19691244033623 584.9396407205679 266.8315506397724 # Ar
1230 1230 1 0.0 429.8530851389192 422.7444870284254 373.7579827386554 # Ar
1231 1231 1 0.0 326.5795889779151 292.87016261799835 346.93447997081984 # Ar
1232 1232 1 0.0 217.5862879672146 500.23045191359756 164.73137070297537 # Ar
1233 1233 1 0.0 495.83388336671675 179.5871499513125 116.04214137094066 # Ar
1234 1234 1 0.0 452.43789396878793 302.72872992692 446.4515610263067 # Ar
1235 1235 1 0.0 63.899524978836396 284.5474512226566 520.5484633405434 # Ar
1236 1236 1 0.0 573.5145637848309 533.4755847970771 561.9767691897572 # Ar
1237 1237 1 0.0 270.7990169210661 344.09771685842276 198.46586306631855 # Ar
1238 1238 1 0.0 258.6415688251893 104.48119469368538 140.88855511714607 # Ar
1239 1239 1 0.0 451.8492403151308 571.4925088646073 504.1877437340715 # Ar
1240 1240 1 0.0 94.8550933445144 264.5706253240032 185.87123434078532 # Ar
1241 1241 1 0.0 395.0077125430811 336.2166630791063 454.144838582607 # Ar
1242 1242 1 0.0 490.9841661912655 502.374889075595 119.15816314512136 # Ar
1243 1243 1 0.0 27.003163850990777 253.04080672650394 121.94810630681845 # Ar
1244 1244 1 0.0 371.477453424371 74.96114114092269 246.35035783151082 # Ar
1245 1245 1 0.0 209.78459708486238 413.0382302449186 582.6354178370843 # Ar
1246 1246 1 0.0 526.960062564689 285.92986362314656 536.351592817123 # Ar
1247 1247 1 0.0 274.77530632862096 572.3016522084831 523.0516663017322 # Ar
1248 1248 1 0.0 553.4910541143227 548.1366633642443 186.8554629073941 # Ar
1249 1249 1 0.0 393.55268393252925 334.2952863934367 345.5947554174754 # Ar
1250 1250 1 0.0 541.4659501717045 2.6542037601050708 266.655372496333 # Ar
1251 1251 1 0.0 449.9670004909398 268.64265179459056 510.2126272367498 # Ar
1252 1252 1 0.0 254.44829294963623 344.83417012284656 250.00473041636062 # Ar
1253 1253 1 0.0 294.82439675063256 241.9367668227418 415.24568874266305 # Ar
1254 1254 1 0.0 369.93932565609884 55.34868345474084 220.88104250326046 # Ar
1255 1255 1 0.0 212.37843655974257 401.9118088729569 4.588441664156681 # Ar
1256 1256 1 0.0 142.65310448939601 456.1298721924187 368.8214437822384 # Ar
1257 1257 1 0.0 299.5557187688449 506.3843217992807 513.3569891360208 # Ar
1258 1258 1 0.0 464.55684377886047 213.80775326701968 189.6550056063269 # Ar
1259 1259 1 0.0 478.6120103165381 170.64583522452867 250.691170617368 # Ar
1260 1260 1 0.0 21.03209221054371 543.228213353089 435.15843853274106 # Ar
1261 1261 1 0.0 195.22861300794568 452.7418713997587 503.97431096983877 # Ar
1262 1262 1 0.0 477.6361423911483 530.0678562312546 70.67575782924838 # Ar
1263 1263 1 0.0 493.243076308737 271.0910908500916 95.73699276682652 # Ar
1264 1264 1 0.0 206.6736852693361 94.89479994148193 579.383413994511 # Ar
1265 1265 1 0.0 174.14898001057318 320.321796048362 437.6034235895009 # Ar
1266 1266 1 0.0 321.16743856738674 208.6028725272473 338.2266938169831 # Ar
1267 1267 1 0.0 13.556885147765032 97.01351479325443 475.36240939596183 # Ar
1268 1268 1 0.0 392.30604859926166 101.51627228016491 84.11755094608958 # Ar
1269 1269 1 0.0 278.63680387908556 170.11978641617512 335.9521557357464 # Ar
1270 1270 1 0.0 33.711137125997595 80.6117415911663 536.5007968526526 # Ar
1271 1271 1 0.0 177.88726672941124 472.31196953162095 368.5866628971299 # Ar
1272 1272 1 0.0 558.3885803932186 433.0013700823197 431.7238626833156 # Ar
1273 1273 1 0.0 568.3070741476463 401.50009409973063 517.9666984973403 # Ar
1274 1274 1 0.0 574.0337803103625 249.7080823008732 141.26824970761743 # Ar
1275 1275 1 0.0 398.5591074687392 356.6327702074233 18.70302171601679 # Ar
1276 1276 1 0.0 515.0464815871651 174.53385476213546 262.4305273798219 # Ar
1277 1277 1 0.0 458.42349873403094 118.27541752905584 517.2153446484064 # Ar
1278 1278 1 0.0 238.53091713696472 10.081758348951244 278.35497273680306 # Ar
1279 1279 1 0.0 389.6851562617822 530.8741252417968 41.233878105801836 # Ar
1280 1280 1 0.0 282.35562842936685 492.613430952942 333.5196116980508 # Ar
1281 1281 1 0.0 326.3870535877456 501.3167490224152 517.699690055799 # Ar
1282 1282 1 0.0 581.4788690546378 322.27903563367335 467.7704986118694 # Ar
1283 1283 1 0.0 107.06004630958212 470.6278648450289 446.02763621148745 # Ar
1284 1284 1 0.0 526.9519985336049 144.4843843105021 57.356975863466204 # Ar
1285 1285 1 0.0 278.47885827540375 328.9712350876881 48.79765663767467 # Ar
1286 1286 1 0.0 563.6293801583444 318.1209217055018 275.0354363471007 # Ar
1287 1287 1 0.0 337.1172520011177 281.7855455339931 249.2438710336561 # Ar
1288 1288 1 0.0 469.6847223328655 56.36441622005059 514.168018689147 # Ar
1289 1289 1 0.0 526.0592604354147 490.9712360298342 572.9965791936514 # Ar
1290 1290 1 0.0 167.53226865279441 255.3210021562713 391.9847066336419 # Ar
1291 1291 1 0.0 241.04263565628165 218.81410383519528 45.62310241221393 # Ar
1292 1292 1 0.0 409.4398722474164 484.4172191179588 9.409610396932154 # Ar
1293 1293 1 0.0 477.9881650830396 324.0088449453552 558.7830208580829 # Ar
1294 1294 1 0.0 304.43310221780143 15.314086287885093 29.318160740974378 # Ar
1295 1295 1 0.0 473.7662049661756 255.36177902324957 584.891660787939 # Ar
1296 1296 1 0.0 575.400385050689 508.2522102007463 339.0984554165822 # Ar
1297 1297 1 0.0 171.13383601423948 456.9183256336744 210.81770426476228 # Ar
1298 1298 1 0.0 410.2192323921647 550.1963802326135 467.07509716818487 # Ar
1299 1299 1 0.0 329.8120453085878 197.03596932149722 492.38023043128874 # Ar
1300 1300 1 0.0 15.424312184843377 312.10008486127657 378.40115117050937 # Ar
1301 1301 1 0.0 454.48413210612034 297.2047620961378 543.562481101055 # Ar
1302 1302 1 0.0 134.14885846102024 518.2581164510576 429.4549173060332 # Ar
1303 1303 1 0.0 60.59130682254988 185.13588271464133 93.53113608070286 # Ar
1304 1304 1 0.0 556.8688221648201 423.2228599248653 189.6964644408436 # Ar
1305 1305 1 0.0 354.64134658321194 190.49791201953977 143.82592055886127 # Ar
1306 1306 1 0.0 468.2470470523652 65.21791290646846 22.629052738437313 # Ar
1307 1307 1 0.0 58.86449312479808 355.4710395402184 50.7299234727406 # Ar
1308 1308 1 0.0 587.3842353764358 546.0543373988367 377.0506335629809 # Ar
1309 1309 1 0.0 78.45475337027733 341.7703903871491 213.41288366725624 # Ar
1310 1310 1 0.0 216.97458841192164 374.238223424415 50.83362924935992 # Ar
1311 1311 1 0.0 131.9364739636881 79.94680340294255 168.91700391494376 # Ar
1312 1312 1 0.0 499.9701869811157 322.9340709980268 34.45119702619094 # Ar
1313 1313 1 0.0 28.053404130215792 309.6130450631036 582.5773492609061 # Ar
1314 1314 1 0.0 90.89415053487599 108.4028533845662 459.8034503639578 # Ar
1315 1315 1 0.0 71.17928821146981 44.72098333903362 525.1493357803091 # Ar
1316 1316 1 0.0 47.43869813262849 381.18366679911304 197.50420452614452 # Ar
1317 1317 1 0.0 33.634156438228366 119.3935963508751 258.13633943150904 # Ar
1318 1318 1 0.0 97.53449089863273 37.85797328341484 320.4231454764976 # Ar
1319 1319 1 0.0 65.39258562464852 251.34830496652643 468.1574067394724 # Ar
1320 1320 1 0.0 257.9096391863546 382.20710039300695 533.5080430657891 # Ar
1321 1321 1 0.0 342.5981652429121 388.86321034554345 42.6881512474408 # Ar
1322 1322 1 0.0 247.67029276648705 69.58186882269742 95.53987880504847 # Ar
1323 1323 1 0.0 260.3753664470392 400.97205253682466 20.97519122212094 # Ar
1324 1324 1 0.0 430.5332056530075 417.5285961508488 332.70900345774055 # Ar
1325 1325 1 0.0 136.59194585967012 151.45701909226787 530.133506490419 # Ar
1326 1326 1 0.0 261.0692746690436 174.58539336046547 526.8757596176489 # Ar
1327 1327 1 0.0 103.12546824953932 198.06455592523903 490.8538572022203 # Ar
1328 1328 1 0.0 452.6539149118374 131.32846648353402 338.48050494167774 # Ar
1329 1329 1 0.0 198.88709628006674 30.392653197902955 59.736652188776894 # Ar
1330 1330 1 0.0 178.76432696598022 428.94084290920046 451.6762694557007 # Ar
1331 1331 1 0.0 142.05272594523254 6.772097665120431 111.15307888997204 # Ar
1332 1332 1 0.0 14.501863451146539 153.46534915863344 119.15233458045347 # Ar
1333 1333 1 0.0 28.065840948015797 306.0660515405107 317.5167255298871 # Ar
1334 1334 1 0.0 572.6423255505103 333.40270755951354 432.40170590958877 # Ar
1335 1335 1 0.0 454.71033637180676 495.54368072087794 179.93128433141476 # Ar
1336 1336 1 0.0 383.954441219567 147.90386579350297 174.23454887513049 # Ar
1337 1337 1 0.0 478.497277463802 194.67438283107046 579.3032336784806 # Ar
1338 1338 1 0.0 188.33098937720132 421.05816856632464 574.3135041861419 # Ar
1339 1339 1 0.0 122.72912805567 195.86890745872356 262.32630367710505 # Ar
1340 1340 1 0.0 195.28173859659398 361.15527701067055 431.89550463287395 # Ar
1341 1341 1 0.0 456.63624307244993 252.30688658249352 206.46996867534338 # Ar
1342 1342 1 0.0 118.95978349718729 319.1052339290221 306.8244725069686 # Ar
1343 1343 1 0.0 583.3643363339395 429.70706930515814 356.93329813561377 # Ar
1344 1344 1 0.0 73.54896740035869 10.450757940091375 180.67552226012845 # Ar
1345 1345 1 0.0 242.01775117074268 548.7850114437877 92.20994327763475 # Ar
1346 1346 1 0.0 361.0504775279628 142.88180631825114 389.43664287513343 # Ar
1347 1347 1 0.0 202.26657464664316 319.171291551558 189.4011651059909 # Ar
1348 1348 1 0.0 547.0693919299682 309.9668563310027 178.42800746126767 # Ar
1349 1349 1 0.0 558.2964034409482 520.4376067808673 95.00790487927503 # Ar
1350 1350 1 0.0 162.33743014277414 21.052395016653357 210.97411350555993 # Ar
1351 1351 1 0.0 133.8591194873666 525.7736504825855 246.34153297136808 # Ar
1352 1352 1 0.0 529.6673238149182 401.6460152665868 246.3081203193582 # Ar
1353 1353 1 0.0 389.08306849170714 399.4096404910943 382.661407579916 # Ar
1354 1354 1 0.0 525.8491929583582 448.182458564548 101.28992034278167 # Ar
1355 1355 1 0.0 500.0953134405484 327.3180478653749 418.13632513143654 # Ar
1356 1356 1 0.0 130.34126682907805 410.18467042063514 541.1253722308779 # Ar
1357 1357 1 0.0 472.0505491142133 383.9001754436278 151.3441793031066 # Ar
1358 1358 1 0.0 503.6920797148638 565.5230536886653 69.55603473267534 # Ar
1359 1359 1 0.0 429.514915941357 437.0088383619455 83.27809794691171 # Ar
1360 1360 1 0.0 303.115656596947 137.21217800984329 52.62419295640852 # Ar
1361 1361 1 0.0 22.444193468553618 76.60811103585415 557.2382586365925 # Ar
1362 1362 1 0.0 385.5222189984763 105.19473439147691 169.41074412811724 # Ar
1363 1363 1 0.0 85.37042580316447 74.22205567911742 236.83252435389102 # Ar
1364 1364 1 0.0 438.7882921498791 202.12188840606407 525.7369458595721 # Ar
1365 1365 1 0.0 52.30913102817224 386.08860883156063 116.9438448731017 # Ar
1366 1366 1 0.0 95.39764321895113 171.38926568658886 154.48543383976278 # Ar
1367 1367 1 0.0 81.22469627539945 354.60047712110713 47.9614082391043 # Ar
1368 1368 1 0.0 458.80795857264116 481.0052347181372 291.7928944896865 # Ar
1369 1369 1 0.0 522.4481877196672 185.56576383789195 471.55029113101034 # Ar
1370 1370 1 0.0 105.03785649407166 267.48946713843617 403.7256839594634 # Ar
1371 1371 1 0.0 89.6718283006553 91.2200454255266 385.3184414386662 # Ar
1372 1372 1 0.0 490.9022358701441 457.46645042859944 278.3775815795572 # Ar
1373 1373 1 0.0 388.15332940788426 417.8341915882655 240.25356947895185 # Ar
1374 1374 1 0.0 564.4556054917846 21.10810186595589 108.59584428114982 # Ar
1375 1375 1 0.0 347.0027586615526 446.37235969868044 534.8903466020131 # Ar
1376 1376 1 0.0 59.945508876693076 263.8996524340803 137.5851930213631 # Ar
1377 1377 1 0.0 370.37977189853996 526.4767468253586 389.26945769828257 # Ar
1378 1378 1 0.0 88.35136178563769 518.3695312754639 504.823624269207 # Ar
1379 1379 1 0.0 176.577178102096 351.2702228509005 468.41698270845797 # Ar
1380 1380 1 0.0 151.14852367265075 135.06748907004206 294.71595635229477 # Ar
1381 1381 1 0.0 301.2615315846119 534.0152602253818 319.8045062889802 # Ar
1382 1382 1 0.0 250.70752550237327 175.27037968307903 193.4342101139446 # Ar
1383 1383 1 0.0 54.81511600273459 157.70852913025976 80.52980550582858 # Ar
1384 1384 1 0.0 438.52348374900436 309.9344295123914 288.8937766637903 # Ar
1385 1385 1 0.0 338.3466971176648 339.5030211475964 329.76800352585053 # Ar
1386 1386 1 0.0 72.2712625254781 118.43839959944388 580.0076990324161 # Ar
1387 1387 1 0.0 463.0827467008403 400.528665469865 91.60326689280616 # Ar
1388 1388 1 0.0 453.6240670681767 329.346529313106 208.69726302724982 # Ar
1389 1389 1 0.0 452.90033108780045 298.73205666261435 410.63519267872374 # Ar
1390 1390 1 0.0 25.945882215316622 346.89567323030275 305.11377897768824 # Ar
1391 1391 1 0.0 162.92038487628284 274.2662271164416 178.22882416441826 # Ar
1392 1392 1 0.0 281.0546797179114 286.39752563993005 411.7705273626504 # Ar
1393 1393 1 0.0 351.27019574227046 353.5399351873481 418.56624173422875 # Ar
1394 1394 1 0.0 581.2505301947198 340.6196895492912 375.6540365907151 # Ar
1395 1395 1 0.0 393.9434183254579 167.11900423605044 258.5606487779173 # Ar
1396 1396 1 0.0 507.5036244729786 259.07147492253927 93.34033010017947 # Ar
1397 1397 1 0.0 333.70744696972474 177.25963407829246 217.6335117137057 # Ar
1398 1398 1 0.0 579.8034707086222 124.98848918792973 408.4624540320483 # Ar
1399 1399 1 0.0 307.6427078163977 219.0387438311777 463.3574942685774 # Ar
1400 1400 1 0.0 472.49110092404334 315.4893839227863 501.2475098088357 # Ar
1401 1401 1 0.0 561.3468244202195 510.4884235330766 146.62264471236097 # Ar
1402 1402 1 0.0 218.39381118307978 308.56184248773974 101.45927010335998 # Ar
1403 1403 1 0.0 300.54574246559315 53.612990763881356 382.5268962587094 # Ar
1404 1404 1 0.0 350.6465699695138 555.5331037044291 432.60760280140636 # Ar
1405 1405 1 0.0 532.1123990046224 253.3498256339467 415.26019380110614 # Ar
1406 1406 1 0.0 379.32626363944007 547.4722111632504 168.5042152924301 # Ar
1407 1407 1 0.0 477.4976827333812 418.78020326050995 128.99783573495012 # Ar
1408 1408 1 0.0 407.77813383401576 399.76075449113307 94.45310792657176 # Ar
1409 1409 1 0.0 69.79781688237728 57.53380669725282 1.1784076777204158 # Ar
1410 1410 1 0.0 371.3249152290925 466.36742059187304 182.96647582825045 # Ar
1411 1411 1 0.0 145.7540730692368 274.4656492356071 41.3327081558751 # Ar
1412 1412 1 0.0 190.6695915319848 224.66929082040343 346.1341834519496 # Ar
1413 1413 1 0.0 553.2695565674657 211.3333479013611 385.11051817756515 # Ar
1414 1414 1 0.0 470.75611614659607 137.3812383031727 568.2955273674672 # Ar
1415 1415 1 0.0 73.18761483680629 288.9701288643027 54.833328366446985 # Ar
1416 1416 1 0.0 362.9553330607804 358.89988409394573 278.56663188136275 # Ar
1417 1417 1 0.0 342.60189424598144 321.4419761784309 271.16173478968227 # Ar
1418 1418 1 0.0 524.2063021508907 167.3986364938616 190.04840100462454 # Ar
1419 1419 1 0.0 217.89763833466193 169.39674760368555 525.100160311227 # Ar
1420 1420 1 0.0 474.1072515772864 120.06296958790503 249.89373183412442 # Ar
1421 1421 1 0.0 359.0765603390364 439.8371680877897 115.1101195962153 # Ar
1422 1422 1 0.0 187.5465838018537 388.38349709662225 305.0999181731184 # Ar
1423 1423 1 0.0 51.4445326569898 320.695154407853 194.61145564790053 # Ar
1424 1424 1 0.0 509.37897140881665 554.6646014177174 404.04830305018066 # Ar
1425 1425 1 0.0 143.90385904027602 352.1448319041274 341.84386687304686 # Ar
1426 1426 1 0.0 57.903772320782174 369.1908225321704 453.09056419520863 # Ar
1427 1427 1 0.0 215.00067917214864 177.20265567163318 204.96876818902618 # Ar
1428 1428 1 0.0 40.31041441855887 244.34456793571428 397.2130186593279 # Ar
1429 1429 1 0.0 472.40794318126154 379.3785720333361 474.28491141116837 # Ar
1430 1430 1 0.0 131.79626297741052 372.53533447019356 389.75987261539393 # Ar
1431 1431 1 0.0 534.6987022925221 321.1919565970769 254.22136580153054 # Ar
1432 1432 1 0.0 8.854612003570136 483.62368691914685 241.3722914497838 # Ar
1433 1433 1 0.0 355.01613900912827 342.64575095871214 9.215808020108936 # Ar
1434 1434 1 0.0 142.40476048899814 189.97617943473884 168.9185623594218 # Ar
1435 1435 1 0.0 70.3011566722235 369.7949983209506 394.28712165367165 # Ar
1436 1436 1 0.0 33.10010437303082 200.93690252942528 154.23686130304972 # Ar
1437 1437 1 0.0 427.7519203181326 552.7413990613397 51.38540204409121 # Ar
1438 1438 1 0.0 459.5766407929295 532.4912454876688 141.7989136816229 # Ar
1439 1439 1 0.0 81.39100683895974 168.71701460961694 373.67716726373817 # Ar
1440 1440 1 0.0 41.35178363958751 335.33505196005257 360.46569219448605 # Ar
1441 1441 1 0.0 142.34809814466666 353.92305447721344 96.62820337700188 # Ar
1442 1442 1 0.0 383.1991684730938 90.33302274110206 457.3729335468156 # Ar
1443 1443 1 0.0 116.17583548364351 434.83850125197216 193.4354010848954 # Ar
1444 1444 1 0.0 95.51252643097449 391.9326411055599 17.484070477988173 # Ar
1445 1445 1 0.0 554.0241338654829 173.850880004285 21.487043434725386 # Ar
1446 1446 1 0.0 493.7772787595742 13.763398019399654 116.46461290807453 # Ar
1447 1447 1 0.0 341.92294406186136 559.8998280244423 257.0975645488992 # Ar
1448 1448 1 0.0 13.288749636201075 74.01694350108102 431.48105284135397 # Ar
1449 1449 1 0.0 57.92959208241677 279.13600451804143 20.576551488673882 # Ar
1450 1450 1 0.0 456.33456892632074 331.5160963584107 107.43841517490834 # Ar
1451 1451 1 0.0 316.0039827843976 295.63067614493326 161.7052368090532 # Ar
1452 1452 1 0.0 193.04487154956746 433.0240761473155 355.22141465636935 # Ar
1453 1453 1 0.0 515.7023160963655 251.6032393195183 463.6490830983231 # Ar
1454 1454 1 0.0 469.24107832755027 492.4367251629618 400.77857696077837 # Ar
1455 1455 1 0.0 298.0435147768267 287.9932718550051 108.98541885240346 # Ar
1456 1456 1 0.0 75.916275111621 439.50141074967235 365.35644461822596 # Ar
1457 1457 1 0.0 95.47030843044813 21.7525879883635 463.97073131755445 # Ar
1458 1458 1 0.0 53.446353301561864 209.02452638216687 165.3039378403408 # Ar
1459 1459 1 0.0 284.1978194813381 588.478485367785 548.9075749303902 # Ar
1460 1460 1 0.0 481.34330351453895 183.09930578487888 493.2871531275507 # Ar
1461 1461 1 0.0 392.3372431424459 120.11369554869393 176.8286402246344 # Ar
1462 1462 1 0.0 171.46294961438497 45.20733571615298 554.9680187724604 # Ar
1463 1463 1 0.0 138.17272353249948 534.5681170591289 57.25388302470066 # Ar
1464 1464 1 0.0 97.35214085589303 343.34522050758284 195.5749715105031 # Ar
1465 1465 1 0.0 512.5946256069554 354.67601631629077 132.40508209820214 # Ar
1466 1466 1 0.0 323.4984571878099 42.14999818978465 440.4941456995305 # Ar
1467 1467 1 0.0 327.6569021069235 407.5115389987057 467.2343341935621 # Ar
1468 1468 1 0.0 570.2957420265382 182.5410591002262 201.01035019262613 # Ar
1469 1469 1 0.0 404.46601695115396 375.4736346471041 317.6825300327669 # Ar
1470 1470 1 0.0 488.34409500874807 166.11428460220205 255.09361922198943 # Ar
1471 1471 1 0.0 441.07773080063254 441.3908806039889 371.2346277994297 # Ar
1472 1472 1 0.0 244.1262088635719 579.3605017175305 9.565310096119571 # Ar
1473 1473 1 0.0 285.41814399336556 101.55959207144781 100.52670351265807 # Ar
1474 1474 1 0.0 528.8442039169124 118.59146227247247 116.76839600256271 # Ar
1475 1475 1 0.0 580.7678903905459 87.20993722912378 94.42518955810235 # Ar
1476 1476 1 0.0 361.67143366990723 11.952491288747202 401.0925793187568 # Ar
1477 1477 1 0.0 121.50327689718132 322.5898901452472 27.363770983316297 # Ar
1478 1478 1 0.0 207.85192778550302 323.12248197685216 363.38279670658096 # Ar
1479 1479 1 0.0 51.336435802133074 562.8900799415107 235.0497418440755 # Ar
1480 1480 1 0.0 280.8395185179628 117.39851030544105 156.65138946955045 # Ar
1481 1481 1 0.0 477.74666926708653 200.01851921197456 278.64098110021706 # Ar
1482 1482 1 0.0 564.6534786708929 585.0348806781402 94.27763219211384 # Ar
1483 1483 1 0.0 82.11110400481554 118.70281653671145 448.03528987680914 # Ar
1484 1484 1 0.0 322.9562975123909 23.44373249207145 555.5304867266834 # Ar
1485 1485 1 0.0 253.94038386360316 388.6838640436057 437.50954688465396 # Ar
1486 1486 1 0.0 550.2800779745131 123.98445944303788 74.7211243408643 # Ar
1487 1487 1 0.0 13.11342207371362 33.68097649637522 58.59218952252907 # Ar
1488 1488 1 0.0 267.0453601029906 357.7417922948912 369.81217478197044 # Ar
1489 1489 1 0.0 22.081679582312322 423.6552438759384 85.08659869985806 # Ar
1490 1490 1 0.0 116.8349197155719 269.4976991669802 232.1533211071287 # Ar
1491 1491 1 0.0 392.83726405874467 209.4470115617284 455.45309589950506 # Ar
1492 1492 1 0.0 289.4031216953894 322.8932023761747 350.356883296576 # Ar
1493 1493 1 0.0 294.5102653362498 105.94337390838173 94.23721533670418 # Ar
1494 1494 1 0.0 280.56314238587305 352.8941671191577 166.17421513986622 # Ar
1495 1495 1 0.0 136.10956480361793 341.45779945671666 420.7467118655654 # Ar
1496 1496 1 0.0 521.1741140312504 474.83495757323664 266.4134251081996 # Ar
1497 1497 1 0.0 30.293896182773477 103.6829418610241 201.68208563418207 # Ar
1498 1498 1 0.0 8.343846005652813 278.3606289544118 328.11279313825696 # Ar
1499 1499 1 0.0 218.25469983619868 171.82169639838622 388.87834348155593 # Ar
1500 1500 1 0.0 378.81803208650825 218.8241925765848 173.75984011296077 # Ar
1501 1501 1 0.0 503.6678208552442 569.2353424695558 182.37462500663398 # Ar
1502 1502 1 0.0 405.78332234472424 567.8545412881035 504.4545031143897 # Ar
1503 1503 1 0.0 587.1866735387634 309.7584808225578 214.10452688210583 # Ar
1504 1504 1 0.0 436.20933174778025 331.53816325122426 269.1935851642603 # Ar
1505 1505 1 0.0 494.2678885242306 301.1850681551696 26.434086153163044 # Ar
1506 1506 1 0.0 30.628223667011675 269.4701580751203 358.4816932983616 # Ar
1507 1507 1 0.0 79.18264926347618 183.67246377816835 549.3842989872924 # Ar
1508 1508 1 0.0 117.17904857453995 295.50356055909094 543.6615039354881 # Ar
1509 1509 1 0.0 146.0206480263198 299.6097130125679 400.0404390898396 # Ar
1510 1510 1 0.0 357.7363461546552 110.13586399869396 199.02234153518708 # Ar
1511 1511 1 0.0 295.8436440320307 381.846395250013 422.82760760902397 # Ar
1512 1512 1 0.0 498.3246291889776 459.06582673671363 562.2544403452874 # Ar
1513 1513 1 0.0 306.2132057848036 247.26554109129302 243.75655977636592 # Ar
1514 1514 1 0.0 521.2254971717566 461.37810665024614 410.5869638817878 # Ar
1515 1515 1 0.0 171.65459622856523 102.35642676811258 1.4770182921525712 # Ar
1516 1516 1 0.0 191.94870057121096 570.0987735173818 92.62200756002387 # Ar
1517 1517 1 0.0 295.11332907223976 438.8271751972028 268.7121991912208 # Ar
1518 1518 1 0.0 356.15903487835004 3.7425126570014977 112.31115553472512 # Ar
1519 1519 1 0.0 299.85247210401235 194.93914372477522 369.4960696249024 # Ar
1520 1520 1 0.0 222.1813279922428 110.70326347847337 123.53126482439751 # Ar
1521 1521 1 0.0 457.27755853291467 444.8242456610145 451.91423766290933 # Ar
1522 1522 1 0.0 478.1911872072676 83.69465839187448 456.6236524067752 # Ar
1523 1523 1 0.0 298.2030764427305 38.69721514517162 525.8746829314872 # Ar
1524 1524 1 0.0 338.3923145073344 81.62064061178067 285.34223721655195 # Ar
1525 1525 1 0.0 46.61287102974805 302.1800533840557 160.2759606747926 # Ar
1526 1526 1 0.0 161.26107426380827 30.486067435716567 477.36260919955976 # Ar
1527 1527 1 0.0 572.5407404706847 352.8189142868024 481.6932926767001 # Ar
1528 1528 1 0.0 340.2502920842266 332.8135760334277 347.42293636698815 # Ar
1529 1529 1 0.0 482.32521612639084 4.7525788248520735 578.0919648851539 # Ar
1530 1530 1 0.0 110.86657784668795 572.3135811481403 29.431267486433097 # Ar
1531 1531 1 0.0 580.0071641601883 52.37982921192453 41.46737528542487 # Ar
1532 1532 1 0.0 317.4809194547992 15.208156241131151 361.64587265896864 # Ar
1533 1533 1 0.0 377.7440467102895 585.8098728487444 568.1047212410981 # Ar
1534 1534 1 0.0 113.44057707293649 581.5000702248033 5.030056844128411 # Ar
1535 1535 1 0.0 141.30701159938218 558.7619523602065 364.71148799055294 # Ar
1536 1536 1 0.0 378.7667325063665 228.6644245322036 527.6558278770251 # Ar
1537 1537 1 0.0 97.56625038999071 6.733644117200839 545.4141773553494 # Ar
1538 1538 1 0.0 118.20849687339097 224.5447431631226 239.79997767079155 # Ar
1539 1539 1 0.0 400.89066604295857 569.8960240110297 255.48539944970935 # Ar
1540 1540 1 0.0 67.90710288214767 576.5554117038356 329.436293291616 # Ar
1541 1541 1 0.0 292.8847295233771 108.47412670727505 498.75244014470564 # Ar
1542 1542 1 0.0 446.35208614608484 412.3147597745999 564.7814006591136 # Ar
1543 1543 1 0.0 530.9078609575129 503.0533447611634 131.38044694246776 # Ar
1544 1544 1 0.0 86.70612719537402 174.99269105118552 306.20499469334703 # Ar
1545 1545 1 0.0 461.28309825611996 26.01171544799765 194.31650209425692 # Ar
1546 1546 1 0.0 188.66388462954401 443.09221989531983 573.8849329722357 # Ar
1547 1547 1 0.0 516.2859043420189 63.21086332364709 230.98912221902137 # Ar
1548 1548 1 0.0 471.76079231556065 37.87976769345957 155.265756401011 # Ar
1549 1549 1 0.0 568.0555396014629 176.0120107294773 239.05215570606026 # Ar
1550 1550 1 0.0 210.23672564662095 174.43175839265186 338.3441731420935 # Ar
1551 1551 1 0.0 162.19488230641457 487.1087982428721 251.7432625646053 # Ar
1552 1552 1 0.0 267.15540616851564 54.361919028804486 483.19818302145717 # Ar
1553 1553 1 0.0 503.18143686735635 228.9648914656916 432.2719654357065 # Ar
1554 1554 1 0.0 8.944952507307999 352.52588856164766 555.4874903120157 # Ar
1555 1555 1 0.0 286.05637593601864 31.78669616062217 146.3130805003309 # Ar
1556 1556 1 0.0 105.44777220610572 290.80255584049564 178.8228446864284 # Ar
1557 1557 1 0.0 1.4218083351957702 341.681779179443 461.22708814967024 # Ar
1558 1558 1 0.0 2.2540674203865363 70.69981414859235 216.95117094382297 # Ar
1559 1559 1 0.0 353.7720931973811 160.51570524969895 212.9328651934768 # Ar
1560 1560 1 0.0 255.41523725528873 148.37298563614002 224.0010867575562 # Ar
1561 1561 1 0.0 28.130441272321338 152.72866707806344 140.35017630490236 # Ar
1562 1562 1 0.0 389.1425402671144 61.414048786062075 253.21287601177505 # Ar
1563 1563 1 0.0 178.96981530983814 434.4424308205894 402.4296719710663 # Ar
1564 1564 1 0.0 26.529264417720974 161.7356896271121 225.81312646008024 # Ar
1565 1565 1 0.0 462.8868314561762 293.98803277449 11.858874314925254 # Ar
1566 1566 1 0.0 155.0581075541087 22.077828993965447 151.48892952697594 # Ar
1567 1567 1 0.0 338.2559122375066 409.42679178438016 408.6824535916219 # Ar
1568 1568 1 0.0 539.1386545772477 157.03017741545307 42.9532808469273 # Ar
1569 1569 1 0.0 251.90462046232992 201.81999272125742 17.8732410456905 # Ar
1570 1570 1 0.0 587.7008921518309 507.01279430954384 444.3903316329624 # Ar
1571 1571 1 0.0 388.3526768282649 263.3115334940795 200.95526171889924 # Ar
1572 1572 1 0.0 552.857233402106 290.2750771657496 548.8753829942378 # Ar
1573 1573 1 0.0 522.6461038757055 365.01163654779504 130.13472447526718 # Ar
1574 1574 1 0.0 157.98596628220298 43.82713713211651 50.256947849827355 # Ar
1575 1575 1 0.0 106.17297890233465 464.88954686118836 527.8524938308802 # Ar
1576 1576 1 0.0 577.2453365546622 120.92583695834253 229.64098860976756 # Ar
1577 1577 1 0.0 73.02720644050665 93.30396202706153 521.310893920836 # Ar
1578 1578 1 0.0 54.83625290875373 472.3736144908048 355.89867547488467 # Ar
1579 1579 1 0.0 545.8525884640464 457.98836821447946 40.61034590676611 # Ar
1580 1580 1 0.0 406.8747447503614 297.7955667524685 544.5197478693974 # Ar
1581 1581 1 0.0 261.411715453433 55.61233052010865 558.6058987521243 # Ar
1582 1582 1 0.0 469.7263186615868 168.8339658135438 316.90536732200496 # Ar
1583 1583 1 0.0 121.1481484934947 276.8579876862407 190.50710927797513 # Ar
1584 1584 1 0.0 413.8051869806312 179.09249036307142 92.73858246954582 # Ar
1585 1585 1 0.0 90.7010283264823 389.444413292008 442.8398229906648 # Ar
1586 1586 1 0.0 476.9903574913885 91.33072873097647 118.43599633008137 # Ar
1587 1587 1 0.0 41.85700248589075 208.45969740273992 2.6169959056945977 # Ar
1588 1588 1 0.0 481.99533819166356 90.28933283364003 148.5852594141727 # Ar
1589 1589 1 0.0 136.09920939844466 164.6714015400376 468.83387841030094 # Ar
1590 1590 1 0.0 494.5785806326525 519.0528181725335 465.02778290748597 # Ar
1591 1591 1 0.0 184.05462227975195 236.33061822221416 334.14521293667843 # Ar
1592 1592 1 0.0 195.58820318938325 351.412833180758 519.2854965854604 # Ar
1593 1593 1 0.0 314.27113490278157 268.44324748387317 196.98030807628865 # Ar
1594 1594 1 0.0 516.5229839130958 561.3843476366318 475.48841598315784 # Ar
1595 1595 1 0.0 91.31741124252858 98.87761511860054 130.80801501326226 # Ar
1596 1596 1 0.0 555.2949195978061 494.74084529375614 543.6761020007003 # Ar
1597 1597 1 0.0 106.47863003865898 522.7547622656622 315.1432745640714 # Ar
1598 1598 1 0.0 73.8148664047873 429.5151920671963 388.95958529039234 # Ar
1599 1599 1 0.0 367.2795982343849 416.0119657772158 354.23660960511694 # Ar
1600 1600 1 0.0 334.35480273827426 246.1107314191015 94.8637670508698 # Ar
1601 1601 1 0.0 153.74208005183547 23.01452868520682 418.88892180564613 # Ar
1602 1602 1 0.0 1.7824378769776736 186.29727577966568 384.5311767737865 # Ar
1603 1603 1 0.0 575.9865150580629 246.09690044261166 544.7784174292191 # Ar
1604 1604 1 0.0 572.1482131521402 213.02451395394706 280.5238718340859 # Ar
1605 1605 1 0.0 108.16245120322927 224.36484301130395 578.4723258702808 # Ar
1606 1606 1 0.0 475.5792666525857 151.03096488181416 147.38767081559075 # Ar
1607 1607 1 0.0 378.0761210676328 231.67751121425255 159.11496184354974 # Ar
1608 1608 1 0.0 291.50124465055313 438.06215933117306 393.87469670287544 # Ar
1609 1609 1 0.0 398.8301960921705 50.83351724864532 420.51314022455665 # Ar
1610 1610 1 0.0 582.706041183929 40.7362471622156 544.8704083322428 # Ar
1611 1611 1 0.0 98.15515968496166 437.0984786643711 23.310449892645053 # Ar
1612 1612 1 0.0 162.503387947222 171.6632024672752 34.21132772895831 # Ar
1613 1613 1 0.0 323.8977837990689 375.14295600974083 71.55276954669597 # Ar
1614 1614 1 0.0 564.6258394641707 166.8137530057794 59.12799893178776 # Ar
1615 1615 1 0.0 421.22886215886825 83.49251187427782 51.78673871290513 # Ar
1616 1616 1 0.0 301.9613719763515 73.54007764188435 300.13624911910864 # Ar
1617 1617 1 0.0 245.18787332616373 520.8253578767046 426.43627893151887 # Ar
1618 1618 1 0.0 496.3740689531888 541.722842394457 168.23448670653596 # Ar
1619 1619 1 0.0 324.0603230259305 509.0458735693627 342.6707305087434 # Ar
1620 1620 1 0.0 417.9584341757512 42.2107655041059 157.79262980495838 # Ar
1621 1621 1 0.0 43.342717447223876 548.949544560415 393.49811592863784 # Ar
1622 1622 1 0.0 395.7114888299452 61.40922724586705 412.50937736337295 # Ar
1623 1623 1 0.0 199.21275232910642 354.3345306741737 218.0546835310488 # Ar
1624 1624 1 0.0 297.04240462699215 351.68460874328235 288.69809364631897 # Ar
1625 1625 1 0.0 59.989007858794785 481.7021242253462 388.8933254725073 # Ar
1626 1626 1 0.0 323.0148020421213 7.232087529533819 100.80714411912865 # Ar
1627 1627 1 0.0 435.7902848201834 502.3601042730802 268.5071377706385 # Ar
1628 1628 1 0.0 430.4100578324576 464.1502638173427 554.7548258381707 # Ar
1629 1629 1 0.0 416.73958429233875 98.9472350084487 274.44145793748777 # Ar
1630 1630 1 0.0 523.0883521781094 352.2163314311407 355.70897857160475 # Ar
1631 1631 1 0.0 485.31028853751315 385.54483805880335 323.2433364206476 # Ar
1632 1632 1 0.0 76.27682429797885 345.36422593833015 118.25505035700867 # Ar
1633 1633 1 0.0 474.99740672063893 169.94187570825721 122.72295263130506 # Ar
1634 1634 1 0.0 331.78071176913545 461.41107936694726 409.8670770920752 # Ar
1635 1635 1 0.0 245.89872418550212 228.03334519756567 350.9980726229602 # Ar
1636 1636 1 0.0 172.22363435626687 550.1807383969428 354.5054652347119 # Ar
1637 1637 1 0.0 421.34595703860896 442.2126309765513 216.36841779370323 # Ar
1638 1638 1 0.0 352.64371609825935 132.513826078668 438.8615587958879 # Ar
1639 1639 1 0.0 12.224645105299125 571.9472865168965 325.3164303643178 # Ar
1640 1640 1 0.0 441.8102318792834 303.89215735290014 319.63830297410743 # Ar
1641 1641 1 0.0 218.93953886470644 382.37183794845566 270.915331274833 # Ar
1642 1642 1 0.0 388.155145340452 462.5399934700514 332.82445893921584 # Ar
1643 1643 1 0.0 65.11447591179216 529.9204975538012 469.7625399594808 # Ar
1644 1644 1 0.0 199.88431935734587 353.7559083427493 237.80016964567602 # Ar
1645 1645 1 0.0 423.8461931962178 145.79064222627315 398.1753038084788 # Ar
1646 1646 1 0.0 520.5375392525749 133.26278676745724 419.46254076722903 # Ar
1647 1647 1 0.0 147.91902919431814 533.3743238102762 388.73134178401375 # Ar
1648 1648 1 0.0 564.5782523331881 110.72816349012129 8.544712436536383 # Ar
1649 1649 1 0.0 461.46385841711447 520.1581065795441 388.6642862843933 # Ar
1650 1650 1 0.0 111.01351317334662 358.14567239893177 581.150232575103 # Ar
1651 1651 1 0.0 84.2823456959487 363.44264465982104 82.22812201002398 # Ar
1652 1652 1 0.0 456.37513930696025 467.0359456064293 159.83287661687976 # Ar
1653 1653 1 0.0 219.46216574953735 114.24440747844481 477.21320142190297 # Ar
1654 1654 1 0.0 375.58615388930366 509.5996909302687 141.12902031764312 # Ar
1655 1655 1 0.0 103.6666014852041 539.3786093071666 486.8379973669484 # Ar
1656 1656 1 0.0 256.9345366540002 7.619875954420659 340.4964754274167 # Ar
1657 1657 1 0.0 390.5581643026346 386.3089947379754 287.7390564776428 # Ar
1658 1658 1 0.0 443.3681677497789 242.19851456819967 443.94143924148284 # Ar
1659 1659 1 0.0 436.88669111574006 4.714350775274819 420.1515974377847 # Ar
1660 1660 1 0.0 525.089218977291 172.5839830405338 66.27012318970318 # Ar
1661 1661 1 0.0 152.5319773899884 120.97156442868042 522.6033808096431 # Ar
1662 1662 1 0.0 16.5509465287717 262.711651888759 353.8776780791399 # Ar
1663 1663 1 0.0 304.16276276739364 429.1621024725723 410.5566704237962 # Ar
1664 1664 1 0.0 587.2001289195723 341.40168221332385 364.40533788086896 # Ar
1665 1665 1 0.0 384.1555417498812 91.43520115367015 37.641757718962666 # Ar
1666 1666 1 0.0 577.6697414939089 159.71709494916993 521.1290852151587 # Ar
1667 1667 1 0.0 356.54183616359984 227.050782225177 31.500613235060882 # Ar
1668 1668 1 0.0 203.05985442926723 269.5415320355325 71.66874991328329 # Ar
1669 1669 1 0.0 423.4300963032881 37.927701089862836 222.60084333046728 # Ar
1670 1670 1 0.0 215.73229790735147 251.91287299523137 105.09684791617855 # Ar
1671 1671 1 0.0 382.11884613227255 284.3834173452984 172.49257572422079 # Ar
1672 1672 1 0.0 93.92735259020539 221.93854573381284 566.0089126559619 # Ar
1673 1673 1 0.0 312.53829015547586 136.92341734340795 168.84910660096318 # Ar
1674 1674 1 0.0 263.06609496482156 457.3434067167611 534.5698364214795 # Ar
1675 1675 1 0.0 64.19140764955776 421.403261327398 425.4859021907338 # Ar
1676 1676 1 0.0 67.86741033307774 511.07417710815355 494.4648447140039 # Ar
1677 1677 1 0.0 141.12436759897943 44.3268120248027 435.95985414163755 # Ar
1678 1678 1 0.0 140.14035569290576 123.81972434146122 359.88666226832396 # Ar
1679 1679 1 0.0 261.38618796852035 253.26333461216012 481.88987234683026 # Ar
1680 1680 1 0.0 566.615403516237 530.3375648028021 0.059862528785513444 # Ar
1681 1681 1 0.0 95.86550486653442 261.19431493888254 70.97113526221007 # Ar
1682 1682 1 0.0 373.2620860248018 13.79374599907013 522.5201742737098 # Ar
1683 1683 1 0.0 572.6895726166366 113.26624026681115 363.0691313351705 # Ar
1684 1684 1 0.0 523.72052865927 109.57886242011658 209.48376268188937 # Ar
1685 1685 1 0.0 170.6280760822596 565.1967785337885 405.02107714693886 # Ar
1686 1686 1 0.0 136.15637156347873 262.2098921299565 1.1152519686814237 # Ar
1687 1687 1 0.0 455.1898248818725 316.0901090218205 192.1598559977209 # Ar
1688 1688 1 0.0 119.049988176363 284.9669882322108 470.27859687977775 # Ar
1689 1689 1 0.0 459.4620529070818 17.743200382902646 568.0158704145683 # Ar
1690 1690 1 0.0 134.36648164636173 553.3632882896072 493.045321479682 # Ar
1691 1691 1 0.0 572.4334613775098 88.42299264901091 388.8793450237 # Ar
1692 1692 1 0.0 359.7369306430874 220.83595709247948 19.820272410389258 # Ar
1693 1693 1 0.0 196.16956323229329 519.7243894033663 29.879791685332684 # Ar
1694 1694 1 0.0 64.30937978300234 147.03611785104755 88.01428069259714 # Ar
1695 1695 1 0.0 399.70032664680065 399.21304382543894 88.81295640420635 # Ar
1696 1696 1 0.0 40.52723999490469 83.72968044161789 271.22167784553875 # Ar
1697 1697 1 0.0 83.68190504687126 494.1396494306034 202.40284784288843 # Ar
1698 1698 1 0.0 72.28112887179758 106.50901026729875 392.77993883786803 # Ar
1699 1699 1 0.0 192.82256034984243 485.6657311869259 346.09142448782217 # Ar
1700 1700 1 0.0 59.19544369422588 39.2021220510795 190.55126448487817 # Ar
1701 1701 1 0.0 440.862467365203 346.97349164368796 158.87891503503857 # Ar
1702 1702 1 0.0 21.193207176151063 348.0213496512835 228.9548492165916 # Ar
1703 1703 1 0.0 222.94215899669828 104.62585195594552 250.71112298843778 # Ar
1704 1704 1 0.0 247.92328411267653 555.9811333370054 432.5876435782616 # Ar
1705 1705 1 0.0 191.8465312301921 298.58390200035745 500.5231615816439 # Ar
1706 1706 1 0.0 340.2455800519582 485.9129127356644 302.301750425081 # Ar
1707 1707 1 0.0 353.1310567205183 25.049979843764593 225.18015020569464 # Ar
1708 1708 1 0.0 489.4555887211124 428.99544680650786 89.10766385554676 # Ar
1709 1709 1 0.0 440.1972927946252 204.29834691071716 441.12197362611295 # Ar
1710 1710 1 0.0 119.20359558861053 395.71107927293224 529.0897314438996 # Ar
1711 1711 1 0.0 349.6442206090349 126.2209871501919 230.93688197916072 # Ar
1712 1712 1 0.0 380.8329036577892 333.8600549913039 139.53414096517915 # Ar
1713 1713 1 0.0 27.310348926826506 416.0699296400646 524.811955436885 # Ar
1714 1714 1 0.0 180.420662090111 578.3592852226097 326.4341425886009 # Ar
1715 1715 1 0.0 424.7441431087877 337.97978316876606 76.7853397286114 # Ar
1716 1716 1 0.0 2.815488474424101 554.6639897272096 571.6955409668433 # Ar
1717 1717 1 0.0 225.78663415483263 147.91390533345466 106.89828698889983 # Ar
1718 1718 1 0.0 0.7010438864370809 152.55278208894984 510.95874634657196 # Ar
1719 1719 1 0.0 208.38205353830156 395.7120307856059 517.1424146361584 # Ar
1720 1720 1 0.0 498.08575502227075 126.36816445981825 32.146261402664905 # Ar
1721 1721 1 0.0 121.04327829951733 93.63479445606227 169.55914987735778 # Ar
1722 1722 1 0.0 52.608400566711474 284.2644461361877 577.4539581181796 # Ar
1723 1723 1 0.0 213.5175418215056 353.15817973737325 343.8790585442045 # Ar
1724 1724 1 0.0 63.80974890778363 24.396847314571676 32.32064445852929 # Ar
1725 1725 1 0.0 501.63459859862877 526.1452139962029 521.3169909201533 # Ar
1726 1726 1 0.0 216.41361607971393 504.77814376158875 217.0569860322001 # Ar
1727 1727 1 0.0 438.7795388791215 552.2829807688938 102.29507323545671 # Ar
1728 1728 1 0.0 59.567875199960795 252.20637242208508 464.6412012387415 # Ar
1729 1729 1 0.0 571.386547900992 405.1831284202351 104.12111472955678 # Ar
1730 1730 1 0.0 384.5466353071667 121.17581966902132 104.46466997813457 # Ar
1731 1731 1 0.0 558.5333841497388 210.9899082684213 171.5211590660337 # Ar
1732 1732 1 0.0 430.35796108929634 346.8997058377392 535.1785547980462 # Ar
1733 1733 1 0.0 334.3564811256651 432.33654420776475 117.65293085435454 # Ar
1734 1734 1 0.0 407.2352099521007 68.4414744744703 351.8398825258507 # Ar
1735 1735 1 0.0 353.97655969271017 580.7252607542093 62.14855411691441 # Ar
1736 1736 1 0.0 420.41560702870237 455.51210591873013 125.49215443103081 # Ar
1737 1737 1 0.0 316.1410707636424 39.2430987898843 218.58927391848 # Ar
1738 1738 1 0.0 49.416879892531625 436.9419930443195 543.7937680568531 # Ar
1739 1739 1 0.0 208.62778447009416 146.9691427606489 44.62697887845493 # Ar
1740 1740 1 0.0 476.67811784300983 117.71161127940958 105.46035749612051 # Ar
1741 1741 1 0.0 292.6810628654646 7.9012572989493615 370.2872181378861 # Ar
1742 1742 1 0.0 38.41569585828352 37.88981604054611 264.2051199009692 # Ar
1743 1743 1 0.0 270.9312819675459 235.9725117094962 538.8578319362604 # Ar
1744 1744 1 0.0 511.68593270893285 232.43644972261907 536.6805111585334 # Ar
1745 1745 1 0.0 144.7767850067312 210.48531316982556 568.1276653286575 # Ar
1746 1746 1 0.0 379.9189245478214 466.7544059517486 251.53843422480503 # Ar
1747 1747 1 0.0 229.11867331645655 31.4448425491639 546.9557959082508 # Ar
1748 1748 1 0.0 524.7034774753581 457.5595237732573 86.58764022475086 # Ar
1749 1749 1 0.0 124.67993731018649 287.17633994382976 488.3549785344721 # Ar
1750 1750 1 0.0 340.4063793488983 365.640559938065 382.3447444854672 # Ar
1751 1751 1 0.0 110.12556781916263 367.8172519659733 436.9738186212017 # Ar
1752 1752 1 0.0 392.21631446068034 583.755971851301 398.9265986922691 # Ar
1753 1753 1 0.0 585.2475433548703 435.4050552756973 577.8576364012044 # Ar
1754 1754 1 0.0 145.1506550958685 469.1060624777048 228.19969995806127 # Ar
1755 1755 1 0.0 371.39935657304864 12.845435379653829 462.5261314827253 # Ar
1756 1756 1 0.0 196.59596970101987 487.25492753633625 398.5258876169054 # Ar
1757 1757 1 0.0 281.1803239313572 482.032615268587 321.31482690122914 # Ar
1758 1758 1 0.0 45.930241881533746 306.59708392079364 439.270941792382 # Ar
1759 1759 1 0.0 374.6780009741934 62.28412063560251 378.5177490543299 # Ar
1760 1760 1 0.0 246.18820230885134 172.9219960301159 244.89124677951935 # Ar
1761 1761 1 0.0 152.95946056081027 208.3742893293565 321.4065358405091 # Ar
1762 1762 1 0.0 457.1867638115233 487.89748642994795 145.9847715927776 # Ar
1763 1763 1 0.0 426.74771605504316 102.49692175312882 51.80593416493618 # Ar
1764 1764 1 0.0 200.16852103910665 131.19106994988448 560.6349628370234 # Ar
1765 1765 1 0.0 236.3968674653208 587.6462705045952 325.6487740026559 # Ar
1766 1766 1 0.0 361.30048407615845 514.7607600756555 290.9155314421396 # Ar
1767 1767 1 0.0 514.4469651914775 51.975987632927755 129.25849389969858 # Ar
1768 1768 1 0.0 21.55940541339953 410.0483877631273 578.3160220094632 # Ar
1769 1769 1 0.0 494.68470663763617 503.6591012765003 557.1209602885757 # Ar
1770 1770 1 0.0 548.058392563833 192.68084649993233 228.95558407402962 # Ar
1771 1771 1 0.0 539.3576666788368 430.7949002782438 338.2163629090101 # Ar
1772 1772 1 0.0 237.90909732630115 140.86144235733886 10.605072866683352 # Ar
1773 1773 1 0.0 75.341982829508 60.512544360535465 408.02768169380556 # Ar
1774 1774 1 0.0 577.598741824947 285.51151746958516 554.8607424760237 # Ar
1775 1775 1 0.0 437.16878081559844 487.2023595107993 231.46676134503963 # Ar
1776 1776 1 0.0 59.462820735212134 380.9596562227466 527.6595692253646 # Ar
1777 1777 1 0.0 65.73506032449379 348.66327374957876 472.3782489429921 # Ar
1778 1778 1 0.0 437.7746822902492 118.28199309178999 403.34186792949725 # Ar
1779 1779 1 0.0 370.9874413750323 408.77014834493247 484.2440154471548 # Ar
1780 1780 1 0.0 425.41014040599515 40.0245491169216 446.3394790068762 # Ar
1781 1781 1 0.0 405.5688019788919 307.2383986642169 97.25916079870127 # Ar
1782 1782 1 0.0 246.3811025106989 541.8578558619788 391.5485270927708 # Ar
1783 1783 1 0.0 324.52899513046407 461.32104150893804 15.660015543627717 # Ar
1784 1784 1 0.0 363.05208490994187 402.01710989075576 243.44593685803375 # Ar
1785 1785 1 0.0 549.5889742182345 577.6805410860543 55.01704502796745 # Ar
1786 1786 1 0.0 439.9675576183985 200.3381623466937 28.92945560046151 # Ar
1787 1787 1 0.0 79.26230168326548 216.37768833033354 359.8623697206141 # Ar
1788 1788 1 0.0 275.5338985939223 399.6573122122289 283.9395310408639 # Ar
1789 1789 1 0.0 303.98084938797416 556.6685999841771 466.8976839773673 # Ar
1790 1790 1 0.0 509.0152087329319 417.9459972734817 506.9200314571379 # Ar
1791 1791 1 0.0 481.4508148497429 335.60002826420043 241.60128960584885 # Ar
1792 1792 1 0.0 197.97452008560464 529.761946381676 400.9917696235809 # Ar
1793 1793 1 0.0 388.35605261562046 39.80137051735904 412.78529230627015 # Ar
1794 1794 1 0.0 150.65430596102132 421.9878313020396 209.81168247322464 # Ar
1795 1795 1 0.0 230.44527526782858 252.59199968234137 192.50920145965816 # Ar
1796 1796 1 0.0 582.776456289682 21.4786453839364 321.5458678681508 # Ar
1797 1797 1 0.0 295.5079329421223 439.94800713634413 285.0953980087889 # Ar
1798 1798 1 0.0 407.85822364702125 453.1143611002753 135.7742987510811 # Ar
1799 1799 1 0.0 353.25744615120215 487.51368535232024 557.4212949970056 # Ar
1800 1800 1 0.0 237.64637414088855 371.9364205814421 66.29025093282647 # Ar
1801 1801 1 0.0 586.844462435174 304.5779352128603 302.39683828894755 # Ar
1802 1802 1 0.0 283.00311139253074 64.42547832298523 208.62388499835586 # Ar
1803 1803 1 0.0 483.36506762191954 15.137130066651606 267.5793190850362 # Ar
1804 1804 1 0.0 533.2996194931948 66.03470672172827 363.6128976625245 # Ar
1805 1805 1 0.0 286.9326589446585 441.54229296895255 508.6995293537603 # Ar
1806 1806 1 0.0 147.42721982579093 26.449517906415416 523.6810223704014 # Ar
1807 1807 1 0.0 105.65707201297789 43.88385469884365 298.72776600664275 # Ar
1808 1808 1 0.0 557.8458095323068 426.9554668235007 191.8635943060625 # Ar
1809 1809 1 0.0 314.99465961551203 364.23869576134007 205.2020616262176 # Ar
1810 1810 1 0.0 75.18166512629314 140.82916219168484 250.62969834028337 # Ar
1811 1811 1 0.0 213.05111425836506 114.18761126801589 91.59955099850279 # Ar
1812 1812 1 0.0 158.35294554087355 118.66217802753407 23.177512387833552 # Ar
1813 1813 1 0.0 364.43280889177635 368.4049889433461 573.321072610569 # Ar
1814 1814 1 0.0 0.5653802187757392 543.3028643537941 75.16529368516863 # Ar
1815 1815 1 0.0 47.63948528511109 492.1691941362082 147.31221222906757 # Ar
1816 1816 1 0.0 480.0063945273769 460.77352261953223 394.42483517585754 # Ar
1817 1817 1 0.0 529.5600132203625 166.05365801652044 16.23589288093976 # Ar
1818 1818 1 0.0 538.192255564038 569.8044372554222 309.5973648862927 # Ar
1819 1819 1 0.0 531.4337512221119 417.5039196153606 158.13088521320037 # Ar
1820 1820 1 0.0 478.2183117866867 341.218109175651 578.2555630868231 # Ar
1821 1821 1 0.0 378.4177031765103 544.3687833503704 44.02122848278331 # Ar
1822 1822 1 0.0 181.63803470905827 546.9884386349114 184.19193849495096 # Ar
1823 1823 1 0.0 301.4693483498254 212.16628778226897 486.0883129358675 # Ar
1824 1824 1 0.0 159.7984640866707 271.8676770040496 478.0532576593073 # Ar
1825 1825 1 0.0 294.22026086154665 272.3989525596907 351.020812159853 # Ar
1826 1826 1 0.0 467.59172082980314 312.7610231593601 302.87295382875345 # Ar
1827 1827 1 0.0 8.066566062806448 391.4564295284244 244.59832103709107 # Ar
1828 1828 1 0.0 73.25393962259707 195.63747280305958 178.30586359457666 # Ar
1829 1829 1 0.0 84.25278483992167 285.8705954262573 217.83708525497374 # Ar
1830 1830 1 0.0 587.3233111478293 43.12066971838953 369.3969796806461 # Ar
1831 1831 1 0.0 485.65946252803315 555.2550513600711 297.92087026822963 # Ar
1832 1832 1 0.0 229.8364276871171 222.82277901362758 22.716270909492316 # Ar
1833 1833 1 0.0 91.69428590163581 38.078122779866625 45.63056202352746 # Ar
1834 1834 1 0.0 269.6868434793024 288.1303524142306 20.287363597452853 # Ar
1835 1835 1 0.0 121.42855651606449 187.402637144734 423.2457406833835 # Ar
1836 1836 1 0.0 302.79690637044547 220.9818932775413 549.2190928127609 # Ar
1837 1837 1 0.0 271.5886089087838 130.52657232500442 297.4774690460819 # Ar
1838 1838 1 0.0 496.7409489608954 526.1840016018623 248.4637581824596 # Ar
1839 1839 1 0.0 522.6292710148958 418.61574878427456 453.41732310236836 # Ar
1840 1840 1 0.0 182.6531449265328 364.44120415042556 414.12739034357463 # Ar
1841 1841 1 0.0 4.544689398157003 61.9997437734942 420.6999929789554 # Ar
1842 1842 1 0.0 26.652396454624775 369.95368742903435 559.6199508121459 # Ar
1843 1843 1 0.0 401.1818323810057 339.29943585137335 213.8895541547504 # Ar
1844 1844 1 0.0 67.16692751977821 245.60287669810307 540.0815933662709 # Ar
1845 1845 1 0.0 300.7933200158715 412.93474135021074 226.86356587095102 # Ar
1846 1846 1 0.0 424.5215373404882 588.3124268618021 347.6239852794361 # Ar
1847 1847 1 0.0 310.02671641698214 354.42371349758974 91.21077631868863 # Ar
1848 1848 1 0.0 414.260773291873 67.14288887145511 433.27491725738463 # Ar
1849 1849 1 0.0 68.99162556249962 135.14534725025834 221.24794119415859 # Ar
1850 1850 1 0.0 1.241068597873702 6.39069741896041 481.5564649270788 # Ar
1851 1851 1 0.0 343.4364834675857 251.43617142808077 116.31882925696485 # Ar
1852 1852 1 0.0 94.68992224012882 444.45256160644595 303.3983770050895 # Ar
1853 1853 1 0.0 332.98697270013 26.15490301934064 48.132771293251665 # Ar
1854 1854 1 0.0 134.89853240064494 155.4072047023859 360.9964930596541 # Ar
1855 1855 1 0.0 467.9902820297401 294.2186531678009 157.93327231731752 # Ar
1856 1856 1 0.0 86.21997824393738 279.32105287469255 474.48521817429787 # Ar
1857 1857 1 0.0 454.3524648557943 109.19062354338831 247.171597834578 # Ar
1858 1858 1 0.0 72.16674543722226 469.09456871732266 399.1719024440385 # Ar
1859 1859 1 0.0 34.97223104778695 566.2296046552857 565.3526542389511 # Ar
1860 1860 1 0.0 91.75699527593176 242.86698295563454 317.70712526504724 # Ar
1861 1861 1 0.0 44.03323457942781 75.09013626154942 531.4587770059525 # Ar
1862 1862 1 0.0 335.93226251050595 69.04675596255524 420.07017665696014 # Ar
1863 1863 1 0.0 63.74880074694049 2.836866079756275 589.0287941815652 # Ar
1864 1864 1 0.0 519.5590127294137 539.9168150475201 476.1602692461937 # Ar
1865 1865 1 0.0 304.47493148344444 497.24174489788487 96.28739196098424 # Ar
1866 1866 1 0.0 36.564592365466034 60.23390553526983 444.14502963800595 # Ar
1867 1867 1 0.0 362.73883711370087 336.1702535655626 393.25506761407513 # Ar
1868 1868 1 0.0 302.746970780089 279.8728315573338 410.0083823641449 # Ar
1869 1869 1 0.0 554.7177238105712 96.44224595099203 349.37736190164253 # Ar
1870 1870 1 0.0 260.1554231069315 121.87198421348364 91.84320906344298 # Ar
1871 1871 1 0.0 222.38194975285828 70.6107325542685 295.9970632224404 # Ar
1872 1872 1 0.0 192.1423735946157 544.0497520664305 252.85441155396651 # Ar
1873 1873 1 0.0 559.110927791209 166.30803920425885 78.67430217764328 # Ar
1874 1874 1 0.0 459.91138448312273 293.2831506537462 54.01981186332281 # Ar
1875 1875 1 0.0 425.2845602477485 518.6593395822224 2.61293239876219 # Ar
1876 1876 1 0.0 146.5341004487876 190.0754305197379 526.1413436802362 # Ar
1877 1877 1 0.0 396.75364880637 91.70072848618808 421.173794983051 # Ar
1878 1878 1 0.0 245.95364975505134 60.381892869482414 160.8557083406415 # Ar
1879 1879 1 0.0 178.83984119367128 445.32833077679777 218.02217245488762 # Ar
1880 1880 1 0.0 156.16172213929042 417.6813843986402 401.18357570477036 # Ar
1881 1881 1 0.0 223.293493494937 250.20868541530987 499.87439922818487 # Ar
1882 1882 1 0.0 256.1802514724751 329.5910541952355 476.9125128399025 # Ar
1883 1883 1 0.0 164.2524843869062 362.62687823887256 415.6103713704445 # Ar
1884 1884 1 0.0 231.44171578213937 502.95234698024854 375.9225965453745 # Ar
1885 1885 1 0.0 235.53423460225102 214.5349979077132 246.59384710731916 # Ar
1886 1886 1 0.0 238.93172422332526 577.2672487394759 242.29219883141434 # Ar
1887 1887 1 0.0 532.8430411721272 501.8853831494657 188.11527070709545 # Ar
1888 1888 1 0.0 274.4504175824661 422.2650143827605 230.41231107341508 # Ar
1889 1889 1 0.0 243.0151861121255 563.9905483267706 158.3150792651129 # Ar
1890 1890 1 0.0 575.973508057875 75.01250806169347 271.86030300029415 # Ar
1891 1891 1 0.0 1.3982727652094593 281.2607433457003 200.84357460670202 # Ar
1892 1892 1 0.0 488.0974666172015 220.3531453214233 232.80654208681923 # Ar
1893 1893 1 0.0 352.2208065627245 449.8052634377472 286.96633318217357 # Ar
1894 1894 1 0.0 410.6734422114842 169.65857636375117 129.7274463759249 # Ar
1895 1895 1 0.0 356.1436857180585 262.5938811829851 416.43166883877154 # Ar
1896 1896 1 0.0 423.49293859540205 254.04655846898828 107.7115917496837 # Ar
1897 1897 1 0.0 276.3951769698955 377.8180674505379 141.93550825443972 # Ar
1898 1898 1 0.0 125.27373283924555 454.539900565632 176.892076305025 # Ar
1899 1899 1 0.0 530.3098169777732 532.9376171949176 264.56953532508663 # Ar
1900 1900 1 0.0 83.55012821163817 19.987105264444722 100.26598047238896 # Ar
1901 1901 1 0.0 376.36967719921836 561.4287681761634 195.0203387543384 # Ar
1902 1902 1 0.0 60.19407793604277 437.5085777919852 474.5773117951441 # Ar
1903 1903 1 0.0 403.11732044208827 334.8799190712608 17.398546378222463 # Ar
1904 1904 1 0.0 525.1920161893776 60.47502705722923 105.80618083715302 # Ar
1905 1905 1 0.0 504.07336538983276 166.94712635402124 12.50056183961227 # Ar
1906 1906 1 0.0 42.611778500162856 395.2614434786302 22.466594820539797 # Ar
1907 1907 1 0.0 104.25508911723556 353.8257525101902 6.447358600391903 # Ar
1908 1908 1 0.0 88.54901628053831 301.22570652044595 124.35116136360702 # Ar
1909 1909 1 0.0 337.76102089484255 474.61356176112554 528.2755118681752 # Ar
1910 1910 1 0.0 559.525325767381 518.7702065376892 332.9532019013625 # Ar
1911 1911 1 0.0 247.82348190966775 461.03654733173784 529.5559978269661 # Ar
1912 1912 1 0.0 186.26215744023665 165.99456322845296 141.1501474103021 # Ar
1913 1913 1 0.0 368.4547451632117 443.3414218808752 522.68416143297 # Ar
1914 1914 1 0.0 253.2769215486656 408.2635695678782 193.08701682721008 # Ar
1915 1915 1 0.0 101.73502536946317 447.7127504880044 5.713864209139788 # Ar
1916 1916 1 0.0 537.7333587784295 373.7132122188793 146.86942818538282 # Ar
1917 1917 1 0.0 208.10606604116023 38.00229840993895 172.6329183784701 # Ar
1918 1918 1 0.0 130.92566175418727 412.1969514943534 148.82864222986086 # Ar
1919 1919 1 0.0 359.18260789356844 26.280733956513362 474.9293199403392 # Ar
1920 1920 1 0.0 433.3066565688477 424.36989019902245 467.7127464149656 # Ar
1921 1921 1 0.0 349.99339231956236 409.1424568217094 464.9451065497564 # Ar
1922 1922 1 0.0 145.52129962766978 230.87531272347607 239.10530491561497 # Ar
1923 1923 1 0.0 496.1057709341426 493.4555046811501 397.07291128447224 # Ar
1924 1924 1 0.0 71.57584696476081 425.0344752289463 498.8242068639676 # Ar
1925 1925 1 0.0 330.4394539896455 456.05980119753724 49.56496611355109 # Ar
1926 1926 1 0.0 376.8126118527346 310.7170338007778 103.18832863486455 # Ar
1927 1927 1 0.0 429.6795385311229 378.1745611034919 128.50049974704476 # Ar
1928 1928 1 0.0 88.55208268109295 281.12449139073203 86.87433680006436 # Ar
1929 1929 1 0.0 385.678152360034 433.43366517914535 570.5980036214013 # Ar
1930 1930 1 0.0 164.75739254130104 253.57668570353405 517.9714432503687 # Ar
1931 1931 1 0.0 400.0627285860711 352.21362466407356 151.47231331044554 # Ar
1932 1932 1 0.0 81.05095107124396 276.26679900851343 454.13065383442597 # Ar
1933 1933 1 0.0 143.81703063993308 544.3565147521821 119.08201611658079 # Ar
1934 1934 1 0.0 56.01169806069206 16.213282671721124 317.0907645584969 # Ar
1935 1935 1 0.0 69.02743009697883 166.4218995041788 61.4079404688418 # Ar
1936 1936 1 0.0 62.05473154197745 260.58980787539764 365.8656413392169 # Ar
1937 1937 1 0.0 255.16435809594938 422.3113908264232 209.37280887339557 # Ar
1938 1938 1 0.0 131.12521714960448 414.1083113720782 109.358234755172 # Ar
1939 1939 1 0.0 391.48670626664045 489.0052055270313 497.05725037032346 # Ar
1940 1940 1 0.0 165.79109913249644 237.22185405479414 52.81079797854625 # Ar
1941 1941 1 0.0 223.4012037610898 211.2295270606938 59.12407737554894 # Ar
1942 1942 1 0.0 250.0452007605856 356.852130629941 253.52171544048716 # Ar
1943 1943 1 0.0 141.99795347829468 433.454777574567 429.9857957719337 # Ar
1944 1944 1 0.0 362.20017691636673 483.0024658387622 69.63529763664206 # Ar
1945 1945 1 0.0 271.4982629982225 237.75538593309608 114.08026864414664 # Ar
1946 1946 1 0.0 252.71572456400335 586.1855599221028 553.2140455635589 # Ar
1947 1947 1 0.0 482.35059387915334 60.33398025432744 523.6025685049135 # Ar
1948 1948 1 0.0 425.71989167449993 465.34056712700607 434.8182706579773 # Ar
1949 1949 1 0.0 41.376318073126214 461.90328443155386 125.23877509520965 # Ar
1950 1950 1 0.0 65.18856654058438 176.53457338765165 130.00952706828235 # Ar
1951 1951 1 0.0 565.381282914776 482.81654704809944 544.5565492479914 # Ar
1952 1952 1 0.0 507.2903405268613 464.8689546901892 369.3748902261113 # Ar
1953 1953 1 0.0 308.49591052784734 473.1751901527128 71.81560321637227 # Ar
1954 1954 1 0.0 269.59221765233127 356.09634013270573 494.6596441101911 # Ar
1955 1955 1 0.0 558.1260423835344 129.3903500120906 195.97348102952085 # Ar
1956 1956 1 0.0 279.7320509782077 171.14088274611015 524.5210243628909 # Ar
1957 1957 1 0.0 533.4205888222265 160.04703978793 251.08435116300544 # Ar
1958 1958 1 0.0 292.18092986590074 260.59781694270293 77.04821240660505 # Ar
1959 1959 1 0.0 119.38350255424892 114.54734929106354 583.1725644515902 # Ar
1960 1960 1 0.0 342.18776658006504 432.08530857759473 487.60584941027264 # Ar
1961 1961 1 0.0 132.98697511050966 12.96945194370586 544.0647097555681 # Ar
1962 1962 1 0.0 499.0911320316304 23.841780028444294 561.5553136966334 # Ar
1963 1963 1 0.0 98.64306275460186 547.0363522599765 210.51900598177843 # Ar
1964 1964 1 0.0 216.50084523793996 392.62165399490067 5.078106931475129 # Ar
1965 1965 1 0.0 497.6717395216968 225.80859830698708 531.5689293518536 # Ar
1966 1966 1 0.0 141.30757643308687 267.701986114051 525.2056821359097 # Ar
1967 1967 1 0.0 323.4778506487817 38.783006349595034 289.3808617461151 # Ar
1968 1968 1 0.0 31.77478041765356 88.4787520009342 190.50127116983273 # Ar
1969 1969 1 0.0 348.81297722786184 220.86222035212273 0.7384364904467284 # Ar
1970 1970 1 0.0 517.8537143708437 75.65365167811235 391.9199503342555 # Ar
1971 1971 1 0.0 454.5542767908616 113.59870160738848 218.70653134763006 # Ar
1972 1972 1 0.0 32.95076184530662 77.69215424539559 7.625083014718568 # Ar
1973 1973 1 0.0 262.9135006278391 283.91470389195985 139.86619213973088 # Ar
1974 1974 1 0.0 505.01402411462317 565.5363626714809 487.43255388916754 # Ar
1975 1975 1 0.0 560.2566133544708 506.44594156719256 508.9884297555017 # Ar
1976 1976 1 0.0 37.73790510936918 302.83588879720776 307.7005923825083 # Ar
1977 1977 1 0.0 285.4480458422118 580.8068277384489 411.61900753746596 # Ar
1978 1978 1 0.0 439.6304510056866 511.64128238378595 522.2402414906522 # Ar
1979 1979 1 0.0 553.0489358083695 31.875435509405342 61.73722607594554 # Ar
1980 1980 1 0.0 408.136655686442 98.6324892366359 223.4629058103026 # Ar
1981 1981 1 0.0 74.37745773117136 544.2836558627396 150.68388209342916 # Ar
1982 1982 1 0.0 554.6513801187958 344.1396447789329 586.3919811778048 # Ar
1983 1983 1 0.0 353.8720608835225 96.16783073398476 137.49580149680563 # Ar
1984 1984 1 0.0 167.82398149456708 371.57137478624725 483.60587234115076 # Ar
1985 1985 1 0.0 83.28135153505976 298.70108752745716 171.2291265813298 # Ar
1986 1986 1 0.0 327.2532550742319 349.9398081305099 559.0281109362535 # Ar
1987 1987 1 0.0 546.0191855465555 39.18652014622117 474.50018823864553 # Ar
1988 1988 1 0.0 494.32397279114224 208.44221672715622 52.545826417481244 # Ar
1989 1989 1 0.0 107.80598077745407 38.81858332423913 395.5774711280204 # Ar
1990 1990 1 0.0 73.06520893988638 233.46961313264242 451.8840420059476 # Ar
1991 1991 1 0.0 10.611377511939985 249.4445226871105 46.9471013992664 # Ar
1992 1992 1 0.0 59.63279334166998 511.48292910171233 207.47418377591868 # Ar
1993 1993 1 0.0 85.99622468277502 199.0324824530677 527.5768533921803 # Ar
1994 1994 1 0.0 21.26811949402439 68.35781855897785 118.66130685170569 # Ar
1995 1995 1 0.0 3.660969807024692 177.47005098849394 111.80011679643862 # Ar
1996 1996 1 0.0 200.51615291856984 546.7165437913213 1.4553486691051147 # Ar
1997 1997 1 0.0 510.8735388897271 267.79413666389803 539.7921120308634 # Ar
1998 1998 1 0.0 375.9230457017644 358.2451598629986 344.183693273529 # Ar
1999 1999 1 0.0 247.93281155465957 334.6735319782852 200.5180071481529 # Ar
2000 2000 1 0.0 495.2423750796744 122.93476212814085 553.3509890059677 # Ar
