LAMMPS data file -- atom_style full -- generated by chemfiles
150 atoms
0 bonds
0 angles
0 dihedrals
0 impropers
2 atom types
0 bond types
0 angle types
0 dihedral types
0 improper types
0.00000000 958.758975 xlo xhi
0.00000000 958.758975 ylo yhi
0.00000000 958.758975 zlo zhi

# Pair Coeffs
# 1 Ar
# 2 Ar+

Masses

1 39.948 # Ar
2 39.948 # Ar+

Atoms # full

1 1 1 0.0 345.3146210207569 393.3753942760382 826.215198749658 # Ar
2 2 1 0.0 165.10563713486408 102.94120348899656 467.35901148531417 # Ar
3 3 1 0.0 344.03622993822756 432.56872322193954 441.2226017255099 # Ar
4 4 1 0.0 610.7073552810405 488.4565637886323 943.4699574115049 # Ar
5 5 1 0.0 187.26794988538344 200.24922889399525 11.993491147996544 # Ar
6 6 1 0.0 499.1226372139855 177.4869371744564 750.4727988130908 # Ar
7 7 1 0.0 669.5695501252443 594.8849560294697 572.388558849872 # Ar
8 8 1 0.0 151.13338636617067 730.2437923776338 904.9436541231838 # Ar
9 9 1 0.0 554.1711523098827 652.0490678587934 511.84544890131673 # Ar
10 10 1 0.0 138.3972658781753 85.53954328018364 784.8816751967107 # Ar
11 11 1 0.0 205.76547569301275 566.0204789217031 742.2632635074949 # Ar
12 12 1 0.0 286.17297856553853 815.8279023797569 696.7572882329214 # Ar
13 13 1 0.0 558.6452360117056 848.9538172045627 131.40582698551887 # Ar
14 14 1 0.0 946.1801601434 935.7970806203264 264.1534312193128 # Ar
15 15 1 0.0 334.9082652292266 774.5754632653496 841.4782435138529 # Ar
16 16 1 0.0 300.3393723271931 423.2654613344894 427.0711403572852 # Ar
17 17 1 0.0 643.4506058035087 493.8416199548931 609.0690667149831 # Ar
18 18 1 0.0 417.0909394152063 562.8434752537886 331.14444962504376 # Ar
19 19 1 0.0 316.1884429747104 172.4147748342413 42.957612330078135 # Ar
20 20 1 0.0 305.4860517304676 2.4319400697322946 32.227020226661054 # Ar
21 21 1 0.0 861.4636991952121 801.863525715806 27.643916183470118 # Ar
22 22 1 0.0 517.581956939169 293.916897314829 575.0856151434699 # Ar
23 23 1 0.0 537.2903213045412 284.5775441997921 188.90702244366997 # Ar
24 24 1 0.0 732.0043681822448 890.730487040012 38.411260481221255 # Ar
25 25 1 0.0 160.95507649689816 858.5103337215938 351.0888420332352 # Ar
26 26 1 0.0 832.676198426627 171.57065377926415 54.82885093044334 # Ar
27 27 1 0.0 311.08252966936465 740.6502774056281 361.43288698153293 # Ar
28 28 1 0.0 623.7722210928682 840.8180943142019 445.79843508971453 # Ar
29 29 1 0.0 295.16916682506275 777.6028377664635 45.25954280287365 # Ar
30 30 1 0.0 668.8609324657599 405.5514094237343 794.3293177346068 # Ar
31 31 1 0.0 153.45947614382848 339.05110438281935 711.9934697462004 # Ar
32 32 1 0.0 792.0863152496736 532.5715676716242 744.630242670193 # Ar
33 33 1 0.0 173.8836635547063 903.4876601253786 472.0954829028912 # Ar
34 34 1 0.0 919.2784966311266 708.9974784069401 514.6037042893778 # Ar
35 35 1 0.0 132.1052679513394 56.15666804490769 715.5866347564564 # Ar
36 36 1 0.0 657.6027191639803 907.8949271227294 545.8893871625569 # Ar
37 37 1 0.0 322.3821662475384 889.1195172328313 566.5697402737302 # Ar
38 38 1 0.0 791.3864546589512 579.6591881754966 411.33522814295316 # Ar
39 39 1 0.0 60.11013376181546 193.5618279205037 819.4217819309375 # Ar
40 40 1 0.0 469.505685624251 604.9484670853993 535.6199779062811 # Ar
41 41 1 0.0 850.5003449342853 745.2914695160176 576.4452202895716 # Ar
42 42 1 0.0 870.9855124077552 671.3942073715756 165.80105756388784 # Ar
43 43 1 0.0 232.01037796133951 590.6583617622616 225.76983251805413 # Ar
44 44 1 0.0 912.1646944816684 479.6592050765252 739.2970786643185 # Ar
45 45 1 0.0 83.4226404775836 845.9758102116211 688.5779882808802 # Ar
46 46 1 0.0 351.3777482615593 188.29929644031398 434.8427501046916 # Ar
47 47 1 0.0 426.05659305219916 36.103421441423805 607.1665111036534 # Ar
48 48 1 0.0 919.1695575407051 376.56400329901936 615.6914348858934 # Ar
49 49 1 0.0 222.47474535701645 780.7796976278432 749.1448844239153 # Ar
50 50 1 0.0 950.4460147135422 443.8897162191754 345.862217019065 # Ar
51 51 1 0.0 520.3661570714604 765.1782178284154 251.4508984597201 # Ar
52 52 1 0.0 361.3744997450274 311.1114184486059 465.08138405483635 # Ar
53 53 1 0.0 138.63710479072304 264.5568477471717 870.7605021393308 # Ar
54 54 1 0.0 699.0908772889882 321.6579715882299 500.16319898921233 # Ar
55 55 1 0.0 800.494240828521 546.365530250109 567.4470051648703 # Ar
56 56 1 0.0 830.9989891224783 671.4246518553637 811.6600284352004 # Ar
57 57 1 0.0 610.0446164652128 826.4621804426638 865.2281356703619 # Ar
58 58 1 0.0 71.88391812636394 803.052994745218 352.98700928539984 # Ar
59 59 1 0.0 837.4785291338512 674.5675694322412 458.0960788670205 # Ar
60 60 1 0.0 646.4146067472983 861.3082053956729 678.7883853912505 # Ar
61 61 1 0.0 301.3895002770006 433.5845939017973 165.0121471786637 # Ar
62 62 1 0.0 806.8887945082047 809.2019847894402 151.31764926239632 # Ar
63 63 1 0.0 425.33172882354967 93.49935241684776 764.4304488944392 # Ar
64 64 1 0.0 353.81047386850344 396.4391539004733 497.3911722096843 # Ar
65 65 1 0.0 863.1672870588887 885.7339826807677 954.0092773212649 # Ar
66 66 1 0.0 476.3471963394196 750.7044167871298 761.9349526745227 # Ar
67 67 1 0.0 328.04015314433735 24.39068207987184 533.9009692805781 # Ar
68 68 1 0.0 824.5194957440747 280.54363106542917 52.228915109341585 # Ar
69 69 1 0.0 398.29536485517934 16.05071805102488 46.277786596492966 # Ar
70 70 1 0.0 358.4256754205412 852.0904140021528 40.619010993177106 # Ar
71 71 1 0.0 546.8477572381927 69.09153727338565 655.4710014904892 # Ar
72 72 1 0.0 755.9445190373281 529.0989574029085 702.1142302359547 # Ar
73 73 1 0.0 398.6919107226222 780.4209168254105 353.28567452470395 # Ar
74 74 1 0.0 815.4530015982061 766.3394061557993 280.3023143467733 # Ar
75 75 1 0.0 141.8781216167511 951.7534291682239 900.9974965157787 # Ar
76 76 1 0.0 927.3690951029922 203.97173899105854 549.6684711701291 # Ar
77 77 1 0.0 686.5703164638026 807.5662096014262 155.09924467411807 # Ar
78 78 1 0.0 394.54670997529314 238.64794124237358 313.96218387680483 # Ar
79 79 1 0.0 482.72305755321617 854.9286525154465 14.033465984351945 # Ar
80 80 1 0.0 797.8420882644339 254.65784211131174 188.84355742333105 # Ar
81 81 1 0.0 886.5198859158504 937.6731211116177 107.81267808033223 # Ar
82 82 1 0.0 496.3655711696678 48.13048372456973 602.8337891652144 # Ar
83 83 1 0.0 872.5802583462289 108.78356278670651 198.3865690589446 # Ar
84 84 1 0.0 222.54711578708503 180.6887861231493 650.8588347000408 # Ar
85 85 1 0.0 286.83947305129317 522.1543184169882 386.8096312630739 # Ar
86 86 1 0.0 269.9406765194837 437.7337388743906 539.1704231021936 # Ar
87 87 1 0.0 288.76967025261547 641.1941121023018 714.4967797127829 # Ar
88 88 1 0.0 738.7596784845886 913.1100920785599 513.9362487797088 # Ar
89 89 1 0.0 404.0652693730007 944.3124985200756 177.31682474003216 # Ar
90 90 1 0.0 582.4389982200039 498.2203798287824 828.7095665748124 # Ar
91 91 1 0.0 504.3942357978372 640.7590199475359 330.579068292682 # Ar
92 92 1 0.0 299.41028421640704 799.4742746478449 68.21861217072765 # Ar
93 93 1 0.0 485.05787583429577 500.42987539024364 570.140263889686 # Ar
94 94 1 0.0 449.7297737439997 301.9886267868107 244.37249943768083 # Ar
95 95 1 0.0 348.3022667459536 923.4749789878576 355.08295352998186 # Ar
96 96 1 0.0 497.107433328795 874.3829150904097 446.87631793934554 # Ar
97 97 1 0.0 667.3672614005317 517.2242992277909 329.9892089582062 # Ar
98 98 1 0.0 893.6649945376093 28.998651190544102 51.88721896113378 # Ar
99 99 1 0.0 595.9959745699261 790.6689682670625 77.39073601723182 # Ar
100 100 1 0.0 586.9784863529272 217.03352588012004 784.2110197274121 # Ar
101 101 1 0.0 301.7026485750003 951.2521605492466 242.42556402751137 # Ar
102 102 2 0.0 89.37222816266406 809.5450575350579 859.3756099778237 # Ar+
103 103 2 0.0 725.3398373940047 418.74879311817494 764.3494082710602 # Ar+
104 104 2 0.0 274.8132262211706 124.92210495601044 502.1388600698792 # Ar+
105 105 2 0.0 868.9261476614734 45.8586942943581 613.6422778976827 # Ar+
106 106 2 0.0 318.39132749736154 728.4385534211593 38.253122706356436 # Ar+
107 107 2 0.0 812.8882575121011 262.1841745871105 69.25356427568798 # Ar+
108 108 2 0.0 485.99303893873173 802.4089082303709 866.8726630453921 # Ar+
109 109 2 0.0 136.37940859301563 893.2094386622922 77.07776430696872 # Ar+
110 110 2 0.0 574.2152486405429 316.3499774641771 473.2691852485212 # Ar+
111 111 2 0.0 491.0755431470825 705.1045997413364 334.0634690665421 # Ar+
112 112 2 0.0 530.7982669592488 481.8911351879744 258.7259340948261 # Ar+
113 113 2 0.0 650.2442208154263 904.4246256161414 827.373681523526 # Ar+
114 114 2 0.0 623.0598218945837 278.2440350476503 618.3333836333887 # Ar+
115 115 2 0.0 435.4405430351787 920.8886154592407 436.91006784404595 # Ar+
116 116 2 0.0 181.92834321772057 593.6982814695128 778.6174313842586 # Ar+
117 117 2 0.0 225.82013647574524 683.607154810859 884.776366208912 # Ar+
118 118 2 0.0 513.8811457157343 291.0690868174306 400.82819570033473 # Ar+
119 119 2 0.0 643.8993614269388 680.7265340168461 441.8903159378436 # Ar+
120 120 2 0.0 112.08808301463694 694.9214621995711 894.4207565119337 # Ar+
121 121 2 0.0 310.6852725294008 826.7115380872899 197.16308972898133 # Ar+
122 122 2 0.0 85.24020166781744 202.23743923609808 468.1778821802979 # Ar+
123 123 2 0.0 335.78168962422524 663.8518462370895 593.4794079387871 # Ar+
124 124 2 0.0 560.8536460231677 65.11119818420428 351.2856877096892 # Ar+
125 125 2 0.0 498.10560479014475 937.6839993428868 688.1554749339174 # Ar+
126 126 2 0.0 682.8970124460882 734.747291694356 85.99198672078381 # Ar+
127 127 2 0.0 700.6357468608154 501.5316332218134 951.0346635321855 # Ar+
128 128 2 0.0 511.55014403827886 756.2298533942146 951.6590096438606 # Ar+
129 129 2 0.0 751.9350851756892 151.2921638561056 730.9456998069545 # Ar+
130 130 2 0.0 880.8413652204022 477.3814992929345 167.14141285759646 # Ar+
131 131 2 0.0 857.3871880569305 885.7479629377528 449.45627561348255 # Ar+
132 132 2 0.0 511.12774523453027 49.23894563398752 795.1445679064514 # Ar+
133 133 2 0.0 783.3772421879474 566.2005342017908 430.77013520394604 # Ar+
134 134 2 0.0 728.464937699877 857.9782343839943 922.1236219701561 # Ar+
135 135 2 0.0 294.25156785754626 700.3787946931839 158.8032006980427 # Ar+
136 136 2 0.0 223.54120745908008 836.195227677976 862.1364470684701 # Ar+
137 137 2 0.0 350.06240736425735 511.41449499586486 295.91353063531693 # Ar+
138 138 2 0.0 652.3170173891083 808.9049515061236 284.2487489415893 # Ar+
139 139 2 0.0 911.3572720053093 178.45045275670088 252.17090358301184 # Ar+
140 140 2 0.0 419.10623156514293 656.3201566326618 427.69381296010675 # Ar+
141 141 2 0.0 221.4576378164284 275.7399606841398 416.19129360461847 # Ar+
142 142 2 0.0 227.32096468555875 260.2789413260008 674.0052206604852 # Ar+
143 143 2 0.0 679.8327164230346 910.1132733386765 680.3166047173697 # Ar+
144 144 2 0.0 748.8787408255467 588.6455859229369 710.4846297002334 # Ar+
145 145 2 0.0 81.30982018912934 172.88709295884743 460.84302421640297 # Ar+
146 146 2 0.0 274.2255486166817 532.7748741582038 726.0161060872363 # Ar+
147 147 2 0.0 696.7475042253292 231.68171276522096 631.5191484610665 # Ar+
148 148 2 0.0 248.31936556907894 582.6268795422317 23.53855337174774 # Ar+
149 149 2 0.0 76.051697738195 652.3094494282735 274.08439347340385 # Ar+
150 150 2 0.0 192.02866804080006 409.19353319127134 670.9538192660593 # Ar+
