LAMMPS data file -- atom_style full -- generated by chemfiles
150 atoms
0 bonds
0 angles
0 dihedrals
0 impropers
2 atom types
0 bond types
0 angle types
0 dihedral types
0 improper types
0.00000000 1169.82196 xlo xhi
0.00000000 1169.82196 ylo yhi
0.00000000 1169.82196 zlo zhi

# Pair Coeffs
# 1 Ar
# 2 Ar+

Masses

1 39.948 # Ar
2 39.948 # Ar+

Atoms # full

1 1 1 0.0 696.4573462164036 355.93093754669013 795.7641818833231 # Ar
2 2 1 0.0 681.0571599401535 166.73081705132319 608.1189436586168 # Ar
3 3 1 0.0 640.2468096122359 447.9407171050316 343.86481323066954 # Ar
4 4 1 0.0 396.7499185680604 717.8061540227413 1152.2112776792978 # Ar
5 5 1 0.0 1129.3691930058958 112.53272640367406 790.5983369490793 # Ar
6 6 1 0.0 1078.7221624255715 340.90330416052984 570.6071080952918 # Ar
7 7 1 0.0 261.38245016550593 826.5995831049995 199.33731652631863 # Ar
8 8 1 0.0 199.38758440441677 678.913589542311 624.335682303832 # Ar
9 9 1 0.0 642.1442195221935 890.1435120334594 257.6444810087582 # Ar
10 10 1 0.0 248.4315138462303 406.9287610063175 581.9047551146767 # Ar
11 11 1 0.0 623.5844295577688 1135.2696451644101 18.52931892982371 # Ar
12 12 1 0.0 434.32264687802547 43.874937402041844 515.582410750693 # Ar
13 13 1 0.0 1117.8669177882352 68.33993649625907 530.4046579762523 # Ar
14 14 1 0.0 492.62613549872384 254.69186405222612 957.5463738593804 # Ar
15 15 1 0.0 806.7330454188519 987.4771105357289 225.3844489173673 # Ar
16 16 1 0.0 310.19841845990965 1167.032531283794 598.5614966847667 # Ar
17 17 1 0.0 483.15461599267894 881.2199082986125 973.4706072948782 # Ar
18 18 1 0.0 241.61545695298184 525.8314081753922 679.0323257878049 # Ar
19 19 1 0.0 986.6331505214667 747.1633663218678 451.64674429928414 # Ar
20 20 1 0.0 649.5613524241027 568.2664979661413 144.54205529609342 # Ar
21 21 1 0.0 97.7081683371341 296.4203082234831 309.03344792853756 # Ar
22 22 1 0.0 662.6994297980483 777.5853099210676 762.5530901500543 # Ar
23 23 1 0.0 983.2811192815177 454.6492873933324 498.0269251626014 # Ar
24 24 1 0.0 1030.7281101971719 296.63119344509016 768.9336301911883 # Ar
25 25 1 0.0 56.07074371194408 841.1915031635142 925.3834510745917 # Ar
26 26 1 0.0 931.649229027764 671.2044369091915 1154.2409631725739 # Ar
27 27 1 0.0 498.98153206847593 624.1286555402012 785.4070910952312 # Ar
28 28 1 0.0 828.1246141007334 972.5424447540455 265.8611287053635 # Ar
29 29 1 0.0 744.12970184308 764.8957291003961 438.8903910257986 # Ar
30 30 1 0.0 280.6371232244534 712.3652991862402 240.07681421413548 # Ar
31 31 1 0.0 1027.1104705862733 491.027596398823 406.15208540621484 # Ar
32 32 1 0.0 1168.5403493282406 1055.197078407669 507.2266194105616 # Ar
33 33 1 0.0 146.56467470632649 969.9900365238823 131.74990499678276 # Ar
34 34 1 0.0 948.6033817867559 530.6920694928201 343.4551389572781 # Ar
35 35 1 0.0 465.4626726497569 1140.1247177055675 922.7899826856163 # Ar
36 36 1 0.0 1102.121051403748 835.8537270956756 405.65269911302386 # Ar
37 37 1 0.0 61.7082973349031 304.97454920758776 541.4756443499198 # Ar
38 38 1 0.0 371.52432474414974 755.1678673728192 438.7226644889855 # Ar
39 39 1 0.0 890.2714021435836 278.4399345268808 429.64520569497006 # Ar
40 40 1 0.0 567.6747623943928 786.0118346087044 1040.6974818421436 # Ar
41 41 1 0.0 996.7376696234891 536.6219899425781 104.74821879536157 # Ar
42 42 1 0.0 57.512627038873745 958.611041118157 439.69570886457905 # Ar
43 43 1 0.0 850.6216373128935 616.8210790749545 591.3137916878021 # Ar
44 44 1 0.0 655.2001459637979 1160.9552849376087 1137.513637355045 # Ar
45 45 1 0.0 150.98164559791053 316.6671182850438 170.7145011777041 # Ar
46 46 1 0.0 928.7174773551486 945.8432142946147 47.55907835947311 # Ar
47 47 1 0.0 701.9232812254592 240.7965012917747 647.4019539080155 # Ar
48 48 1 0.0 678.4850116955596 595.9932167719214 542.5346730325224 # Ar
49 49 1 0.0 614.903033145667 690.9231725359468 361.04307789746616 # Ar
50 50 1 0.0 1159.384171142407 935.3226082721292 1042.525521020547 # Ar
51 51 1 0.0 643.8398040238883 620.866245775659 919.3167381878862 # Ar
52 52 1 0.0 952.8168294996976 1126.4627121756591 1145.567350004567 # Ar
53 53 1 0.0 695.1930357054259 1011.1925366114489 602.9162698733056 # Ar
54 54 1 0.0 1090.7274148171412 531.1188675138757 627.8727937530472 # Ar
55 55 1 0.0 703.4619781306087 583.8089486463292 492.2381830348227 # Ar
56 56 1 0.0 247.94522817127546 700.3520906500449 1079.605998985246 # Ar
57 57 1 0.0 20.56338620307689 626.9990758395429 999.8907934972171 # Ar
58 58 1 0.0 546.9340980027778 580.3187031438289 237.64892118625497 # Ar
59 59 1 0.0 577.7366988486275 744.1762005725716 659.8345970776244 # Ar
60 60 1 0.0 213.37826207913187 604.4942438794346 151.1005492517658 # Ar
61 61 1 0.0 21.17105984604574 251.14105859660546 861.3827320727802 # Ar
62 62 1 0.0 694.8805007541742 585.2503086411126 1094.9539300800657 # Ar
63 63 1 0.0 839.130511325938 481.80243817309565 381.15883795357126 # Ar
64 64 1 0.0 1126.186819843043 605.7174384608181 350.5788959984449 # Ar
65 65 1 0.0 1070.0056057327415 211.35261830732694 685.1344755100167 # Ar
66 66 1 0.0 489.4751576132688 828.7380758015654 391.70689538821 # Ar
67 67 1 0.0 233.32384756326385 378.174034229423 303.4666909947531 # Ar
68 68 1 0.0 854.2765713443199 1150.5154480797162 113.50582434750407 # Ar
69 69 1 0.0 587.9484830677706 371.95507317590676 130.05215631849066 # Ar
70 70 1 0.0 967.8266190339198 449.6859393950576 891.3772792578585 # Ar
71 71 1 0.0 701.1668558625281 252.46488969236037 549.6648141667101 # Ar
72 72 1 0.0 269.32905530118745 1158.4530340945068 889.533657684479 # Ar
73 73 1 0.0 1167.9398224446006 669.5530689622639 49.37289855605814 # Ar
74 74 1 0.0 865.6067300082303 660.7334462358365 602.8010366896663 # Ar
75 75 1 0.0 211.49749970218627 897.2932876021029 455.7469374354047 # Ar
76 76 1 0.0 532.1254426451928 959.3244381845917 332.12898687997347 # Ar
77 77 1 0.0 397.5613272569903 460.7213842894621 577.7834569495758 # Ar
78 78 1 0.0 613.3377102370271 1039.085046933587 1100.7095466355008 # Ar
79 79 1 0.0 489.94649723301677 1006.851308290521 327.16628630874726 # Ar
80 80 1 0.0 177.5073918796995 770.3320461453842 113.29057800488252 # Ar
81 81 1 0.0 695.4717131432507 81.81395986499206 488.5317753735754 # Ar
82 82 1 0.0 125.91146491758781 1124.0820288506072 207.16147727783382 # Ar
83 83 1 0.0 530.0331611673047 67.25015293068186 196.68227941977693 # Ar
84 84 1 0.0 732.4582948660925 727.4461278641612 492.78062452279767 # Ar
85 85 1 0.0 347.3536687051857 1086.6087139979113 986.632514394288 # Ar
86 86 1 0.0 936.4478687430768 725.1766915461884 897.9006227302285 # Ar
87 87 2 0.0 298.54902815368354 157.85126088313316 1087.510682874697 # Ar+
88 88 2 0.0 991.4494311668775 450.94879141380164 706.3176834690412 # Ar+
89 89 2 0.0 1063.948625144021 117.82486104826867 554.4857156549202 # Ar+
90 90 2 0.0 1159.6639202137783 761.2945134522307 944.4447251374436 # Ar+
91 91 2 0.0 108.34583273340448 225.77365747552165 332.51791694058926 # Ar+
92 92 2 0.0 1092.3428723550373 644.8699356193582 1052.1603344332275 # Ar+
93 93 2 0.0 487.63074819518704 7.550947057928773 969.9115757854119 # Ar+
94 94 2 0.0 167.90626650543882 983.3162966055221 1015.4365154774082 # Ar+
95 95 2 0.0 678.7664103272765 1083.9089636110432 868.0316281806223 # Ar+
96 96 2 0.0 523.3823091090541 481.0265034602609 1019.6533882899237 # Ar+
97 97 2 0.0 641.9094602921849 362.4539811913841 930.6530048899409 # Ar+
98 98 2 0.0 397.75988994343913 237.33940040237906 322.5657143678557 # Ar+
99 99 2 0.0 209.34130948118758 326.92275674809014 1063.9103297873753 # Ar+
100 100 2 0.0 62.11067221841782 367.2018067446235 592.0160405858002 # Ar+
101 101 2 0.0 990.0527916879468 385.5172270604521 343.0531629283246 # Ar+
102 102 2 0.0 670.3767209620515 1003.417551984893 1025.909202282639 # Ar+
103 103 2 0.0 729.0950982496437 11.848021823930726 910.7204583621514 # Ar+
104 104 2 0.0 883.4939182496545 1123.421098200841 651.9419416060724 # Ar+
105 105 2 0.0 864.7733164686161 572.3955316062905 23.96504564464717 # Ar+
106 106 2 0.0 350.03173789024135 654.3483087154145 686.5035829795879 # Ar+
107 107 2 0.0 697.737798852704 691.0146891052212 558.7608376378666 # Ar+
108 108 2 0.0 941.8998708589525 925.0047800503115 797.4173339983213 # Ar+
109 109 2 0.0 270.01382501212487 350.3105969247103 1014.9994107796065 # Ar+
110 110 2 0.0 320.7662959172077 1006.5451851432499 84.29880724646105 # Ar+
111 111 2 0.0 1167.192326380413 44.352120637327594 54.410500335118485 # Ar+
112 112 2 0.0 893.9630142927036 98.669839552526 1018.2676519605566 # Ar+
113 113 2 0.0 434.1200064743571 849.9708891068556 1033.1283686295671 # Ar+
114 114 2 0.0 746.9824903852149 850.6509547442689 390.0539843655392 # Ar+
115 115 2 0.0 280.951925014176 1114.1520658488428 977.1498704511716 # Ar+
116 116 2 0.0 864.3859634979116 911.2023840522901 475.3939477456262 # Ar+
117 117 2 0.0 978.2718180048207 454.1433694113871 270.557785989816 # Ar+
118 118 2 0.0 1128.520622920256 900.75918937396 784.1635598106002 # Ar+
119 119 2 0.0 962.4661893264673 666.5933800324632 196.27115157616905 # Ar+
120 120 2 0.0 86.03207366836598 892.0404276290633 374.51384209717173 # Ar+
121 121 2 0.0 812.9363328782384 574.9476242536459 420.7895995603054 # Ar+
122 122 2 0.0 196.48447541578406 681.4463103299565 283.840813855648 # Ar+
123 123 2 0.0 635.1448659864006 536.5779156454217 307.20310747566174 # Ar+
124 124 2 0.0 666.6420522209479 27.642436281381173 1152.9353695631287 # Ar+
125 125 2 0.0 665.2108437537202 691.4204499022776 8.782018182281924 # Ar+
126 126 2 0.0 126.89311023222807 337.69515540603845 979.6661341547189 # Ar+
127 127 2 0.0 1051.5069888604191 223.1420142548759 445.41243983824666 # Ar+
128 128 2 0.0 650.1726699257247 877.0291972068952 960.527995603272 # Ar+
129 129 2 0.0 1013.08888646835 233.0722387085872 429.13250420856815 # Ar+
130 130 2 0.0 225.32494778312434 574.4661093065369 442.9253807926523 # Ar+
131 131 2 0.0 69.63245267374629 99.11394760001868 581.2226855696921 # Ar+
132 132 2 0.0 936.4775806507793 683.239465071876 504.2379110827464 # Ar+
133 133 2 0.0 586.7076520194967 365.425704901283 473.3448929870278 # Ar+
134 134 2 0.0 537.163467320084 679.4875976641068 300.354245978276 # Ar+
135 135 2 0.0 300.67187813702543 298.636937426691 1040.064114640807 # Ar+
136 136 2 0.0 128.880151609923 899.9910654817127 415.1689071054209 # Ar+
137 137 2 0.0 196.9500953499153 595.8820389075046 622.7052237954864 # Ar+
138 138 2 0.0 408.2087872760883 668.4644669166225 658.9061396528093 # Ar+
139 139 2 0.0 211.97529948793914 7.055618025637051 863.3633871367174 # Ar+
140 140 2 0.0 894.5583845405371 892.0907643100707 339.2933666145454 # Ar+
141 141 2 0.0 879.5333996206007 452.64704739552445 176.70444381800897 # Ar+
142 142 2 0.0 619.277701550324 70.91305081096822 717.524316953842 # Ar+
143 143 2 0.0 635.332537925005 1124.0239688713457 507.71471758748356 # Ar+
144 144 2 0.0 86.44569698681296 177.1382428124508 1064.534911187809 # Ar+
145 145 2 0.0 103.15522910916448 770.2128379795762 285.0370556153584 # Ar+
146 146 2 0.0 8.872514276421377 1100.0090513418722 522.4822242237506 # Ar+
147 147 2 0.0 616.8892524301818 926.2876290580436 815.7139099482201 # Ar+
148 148 2 0.0 480.32994987502536 45.6918776525001 758.8508101990022 # Ar+
149 149 2 0.0 271.5674476348786 73.95388577845249 250.8515049860791 # Ar+
150 150 2 0.0 89.31104359165137 1086.4198064555167 1142.4420311234535 # Ar+
