LAMMPS data file -- atom_style full -- generated by chemfiles
150 atoms
0 bonds
0 angles
0 dihedrals
0 impropers
2 atom types
0 bond types
0 angle types
0 dihedral types
0 improper types
0.00000000 192.649377 xlo xhi
0.00000000 192.649377 ylo yhi
0.00000000 192.649377 zlo zhi

# Pair Coeffs
# 1 Ar
# 2 Ar+

Masses

1 39.948 # Ar
2 39.948 # Ar+

Atoms # full

1 1 1 0.0 144.77454144394656 69.78980019071997 173.92999344576265 # Ar
2 2 1 0.0 15.732072306520877 105.00781745014756 108.07685659018719 # Ar
3 3 1 0.0 126.00688110951964 6.573086731244633 146.5704374602962 # Ar
4 4 1 0.0 169.97862110079163 55.72567259349602 173.07998620100443 # Ar
5 5 1 0.0 44.12214904402562 181.41296083471494 45.72705225775248 # Ar
6 6 1 0.0 174.42703770492605 138.4026554758056 34.85481751039193 # Ar
7 7 1 0.0 92.10330792569636 146.8711549439776 171.99944528126372 # Ar
8 8 1 0.0 116.41180931790093 63.926557456291 33.336389104927626 # Ar
9 9 1 0.0 13.266667174926564 163.91134029042956 70.90815151672918 # Ar
10 10 1 0.0 81.4080682901935 95.15596866119785 7.734741607238505 # Ar
11 11 1 0.0 65.52334300683845 165.55029756802452 94.02664839518991 # Ar
12 12 1 0.0 69.71446944128091 57.52989599844067 127.59286373697729 # Ar
13 13 1 0.0 177.3115827796034 90.36166547634299 64.77790808554796 # Ar
14 14 1 0.0 126.2014886171 20.037098064007825 167.7714970818446 # Ar
15 15 1 0.0 3.731684287847828 33.96685267954803 35.05280419026804 # Ar
16 16 1 0.0 5.167383725676736 41.463371820984264 10.37650776695721 # Ar
17 17 1 0.0 88.1764623873471 112.31621731280282 185.13867906953948 # Ar
18 18 1 0.0 6.587417139868794 16.753568464492936 64.4578840894497 # Ar
19 19 1 0.0 94.56142514329342 52.02750764554325 115.79420131899101 # Ar
20 20 1 0.0 186.769281804188 169.5973476907481 12.836371394991932 # Ar
21 21 1 0.0 115.41715186797316 9.364784039404846 101.81461536259364 # Ar
22 22 1 0.0 171.3090921566733 62.98052672466563 89.9131583376639 # Ar
23 23 1 0.0 69.510056924641 187.17951974532846 89.48214650578349 # Ar
24 24 1 0.0 77.41717418709189 1.7299510943896377 75.4247646027405 # Ar
25 25 1 0.0 137.44634505030123 159.72979361388354 191.08413770785072 # Ar
26 26 1 0.0 119.09260019907636 182.14124501423524 52.74474126724296 # Ar
27 27 1 0.0 62.784614380597795 22.40679423396374 19.01904866062338 # Ar
28 28 1 0.0 5.645054912185501 42.93839372307093 170.9660008353186 # Ar
29 29 1 0.0 43.69529751180416 134.8571781271076 26.25743483331964 # Ar
30 30 1 0.0 24.41442419190527 138.068545890032 168.4510888743868 # Ar
31 31 1 0.0 58.382068706479316 121.62210379718496 169.3819639225876 # Ar
32 32 1 0.0 115.24378572515505 130.87071572163504 161.99854688522467 # Ar
33 33 1 0.0 168.29564536006149 45.91459781888534 191.54697055807145 # Ar
34 34 1 0.0 186.1810710128776 173.86152782080802 38.18667808215884 # Ar
35 35 1 0.0 86.03244489438866 141.86551407704815 169.2409288737237 # Ar
36 36 1 0.0 84.96485321525627 88.49758999595547 80.6198678341998 # Ar
37 37 1 0.0 181.9220872078519 134.46096583821617 25.1327550562616 # Ar
38 38 1 0.0 90.58125998998183 153.58231091033002 62.191038572079655 # Ar
39 39 1 0.0 83.11830094120013 104.90687828539343 171.3694151957919 # Ar
40 40 1 0.0 145.49729483740842 144.86900535346177 61.999462661362195 # Ar
41 41 1 0.0 140.09244398972348 134.2738757323698 159.58424539261176 # Ar
42 42 1 0.0 10.815138153670187 39.522695382601135 104.3476800366109 # Ar
43 43 1 0.0 0.8819400644740854 95.77087124648385 32.40172457006372 # Ar
44 44 1 0.0 58.15642534160041 25.908585124600755 98.56220443119085 # Ar
45 45 1 0.0 81.77282412708917 116.07490859127427 133.0622235797773 # Ar
46 46 1 0.0 32.75515240925011 185.58953508218707 75.33387668309244 # Ar
47 47 1 0.0 160.2294408945298 44.377427243378925 105.39712906873493 # Ar
48 48 1 0.0 191.46508250451035 136.81820702865465 179.73122644636368 # Ar
49 49 1 0.0 31.524082441442943 106.02587081883235 59.812917492135384 # Ar
50 50 1 0.0 136.5904783210798 187.7289392371754 65.30897215895233 # Ar
51 51 1 0.0 143.39546652415606 155.65194577854447 175.72743092250167 # Ar
52 52 1 0.0 97.3385218803667 172.26506731232635 7.039141773188684 # Ar
53 53 1 0.0 98.88657903386276 182.01074708675696 186.26455924150105 # Ar
54 54 1 0.0 152.38796782675922 1.3646336134821944 81.79258101750344 # Ar
55 55 1 0.0 97.92786358566626 140.4870422841644 74.20454142534267 # Ar
56 56 1 0.0 154.45978111681342 4.739186441533199 95.15343442528282 # Ar
57 57 1 0.0 121.9191605659896 177.03203767509265 49.342487946135506 # Ar
58 58 1 0.0 54.53840231062295 164.0147622832683 143.78825858222012 # Ar
59 59 1 0.0 152.2747536162561 164.19754772617227 5.713414245304488 # Ar
60 60 1 0.0 97.45694515500952 42.97998581853656 67.33057043493606 # Ar
61 61 1 0.0 186.22507975876684 39.61850668355991 84.09346352146736 # Ar
62 62 1 0.0 68.4322619450818 80.13703794474658 40.41857321905655 # Ar
63 63 1 0.0 28.135104313205005 178.04459193379208 118.80066618482668 # Ar
64 64 1 0.0 74.02571822166166 154.92899632892772 131.97031514051454 # Ar
65 65 1 0.0 133.7480207818822 83.89450285672383 73.61896731057011 # Ar
66 66 1 0.0 54.57144881397341 28.462054827695592 134.4952144740144 # Ar
67 67 1 0.0 15.716992573777997 87.46006407088171 115.16205982839286 # Ar
68 68 1 0.0 26.31731283191781 101.40912965175067 69.72582969316484 # Ar
69 69 1 0.0 184.01084510921618 174.9986342547528 39.92575052796216 # Ar
70 70 1 0.0 75.08042631814239 125.59562757142068 21.61089095647165 # Ar
71 71 1 0.0 51.957756722677125 141.60097278724092 24.42792987512435 # Ar
72 72 1 0.0 59.26777962416962 91.8195496124081 126.06778860294757 # Ar
73 73 1 0.0 164.20024127579853 175.90666368735074 101.71105279198756 # Ar
74 74 1 0.0 179.0673394338333 94.0384504620019 116.55506980917708 # Ar
75 75 1 0.0 95.46666011258142 126.64334082709667 63.2865541028414 # Ar
76 76 1 0.0 181.3764615415163 44.961505398717534 11.436721518167241 # Ar
77 77 1 0.0 72.70171962185593 142.70544424283528 62.78336465585584 # Ar
78 78 1 0.0 71.66437033308671 95.08280371919862 163.49658588533984 # Ar
79 79 1 0.0 140.73190720349206 159.82876290208029 131.615259692465 # Ar
80 80 1 0.0 43.16173415167212 2.8770782239627404 164.3858091401493 # Ar
81 81 1 0.0 27.587177002482363 30.507278799674385 188.8177948075412 # Ar
82 82 1 0.0 152.9997214855942 16.593930701145972 150.7889723418405 # Ar
83 83 1 0.0 183.2606098120117 40.93662421827605 4.992216625292614 # Ar
84 84 1 0.0 110.23953602561865 142.3290825841048 99.4877745230656 # Ar
85 85 1 0.0 157.1712060320011 34.68845722443345 70.86716850191704 # Ar
86 86 1 0.0 25.524741093358628 119.87848149854098 149.41717171494986 # Ar
87 87 1 0.0 183.02837023573235 163.92738339718647 103.07060130683249 # Ar
88 88 1 0.0 130.68047869307102 111.05848695217252 165.365539617041 # Ar
89 89 1 0.0 12.66546854292709 89.4563950580162 89.1607869925366 # Ar
90 90 1 0.0 117.57855647955944 155.3364577771281 175.43068137348814 # Ar
91 91 1 0.0 60.01431249824989 113.6147441807066 103.45958009791094 # Ar
92 92 1 0.0 44.829012299306804 140.1057273346015 133.45897311366988 # Ar
93 93 1 0.0 66.09093989624098 87.17823340152208 48.92778352235273 # Ar
94 94 1 0.0 57.545115083077924 73.38338864703158 136.48109748562774 # Ar
95 95 1 0.0 150.4537223014494 180.43768904704993 143.70098690572033 # Ar
96 96 1 0.0 63.01282013022269 158.38769860944632 112.94132143854227 # Ar
97 97 1 0.0 67.86969231216463 127.72651324646428 123.60322130145288 # Ar
98 98 1 0.0 92.39398637588386 107.25603583174342 29.781606006228706 # Ar
99 99 1 0.0 53.03234377687727 103.44910228459412 21.35393496848129 # Ar
100 100 1 0.0 161.33253396660874 178.08491445661076 104.26703731534322 # Ar
101 101 1 0.0 30.424723004741764 48.47165435006596 161.97129783962095 # Ar
102 102 1 0.0 60.376939086892754 174.4344064569342 131.22768138061713 # Ar
103 103 1 0.0 137.1224660087122 65.25187900702278 138.92552561128136 # Ar
104 104 1 0.0 76.43568211094895 84.92035194520876 14.93726818897351 # Ar
105 105 1 0.0 65.65560331947654 114.64589680678029 12.271076294473698 # Ar
106 106 1 0.0 151.51426557405094 26.429582449441487 44.03738212545358 # Ar
107 107 1 0.0 26.12569436024423 91.02814945106557 136.29584644318825 # Ar
108 108 1 0.0 79.78179498755547 153.64186701728676 70.9932424525518 # Ar
109 109 1 0.0 114.2494398388983 169.8243192998972 102.86228013441313 # Ar
110 110 1 0.0 164.95596848505946 62.652709941791116 120.68071257100404 # Ar
111 111 1 0.0 61.68207491461728 151.00455153883658 113.18653701925382 # Ar
112 112 1 0.0 64.55475702514603 54.42628864206468 6.495533843374472 # Ar
113 113 1 0.0 21.081822432283612 174.04175010820916 31.246342725598492 # Ar
114 114 1 0.0 110.15645968985618 34.027854271644074 113.02230917505202 # Ar
115 115 1 0.0 49.99212412326102 16.015197951776347 97.89718055612036 # Ar
116 116 1 0.0 18.680142993277208 158.3634654420025 190.7183706402764 # Ar
117 117 1 0.0 171.40655600657357 68.03308753493202 178.48890326599172 # Ar
118 118 1 0.0 183.80294080686002 102.7970548255592 31.49575957396941 # Ar
119 119 1 0.0 179.79903400514362 186.599557989025 95.88778864873181 # Ar
120 120 1 0.0 75.30772753203719 8.801692948519893 29.157483754218077 # Ar
121 121 1 0.0 184.17374160818744 172.92268131672355 61.54028329147346 # Ar
122 122 1 0.0 25.392512756491485 72.66131571439129 2.114878594939868 # Ar
123 123 1 0.0 39.03565138762416 187.76654779702804 92.20399675524082 # Ar
124 124 1 0.0 31.083346521383913 31.7368458722964 67.2137357502439 # Ar
125 125 1 0.0 97.55618841693158 18.87473577847179 13.917344136928639 # Ar
126 126 1 0.0 40.398650342428475 168.01658508024042 76.65575596682845 # Ar
127 127 1 0.0 158.40651812168872 125.97458916832574 136.40820063946927 # Ar
128 128 1 0.0 94.36596280366456 7.754252029108911 176.15213998499576 # Ar
129 129 1 0.0 111.30055351031719 86.05284088578244 34.283201877476756 # Ar
130 130 1 0.0 18.788889371684068 141.4260432568322 46.172216331153955 # Ar
131 131 1 0.0 159.49523927405335 180.36246688933645 70.60001663995207 # Ar
132 132 1 0.0 61.77069429978327 108.62427597928364 16.336285184320058 # Ar
133 133 1 0.0 29.761649369780802 7.498459173750703 161.179356067073 # Ar
134 134 1 0.0 33.15243623614424 41.02084822429288 57.8227508283632 # Ar
135 135 1 0.0 54.24418665913597 38.027037002330424 150.88639908392028 # Ar
136 136 1 0.0 146.2506202257647 83.25320577252954 85.46895418944771 # Ar
137 137 1 0.0 83.15143272927556 117.595419177288 75.58989852277242 # Ar
138 138 1 0.0 6.303918078836973 150.61243605495596 65.05434657144522 # Ar
139 139 1 0.0 76.35684077829835 86.28280431762698 81.60730073347536 # Ar
140 140 1 0.0 151.27020662857208 164.84436647644154 54.60565632700716 # Ar
141 141 1 0.0 57.242619138910946 144.47914278364772 147.50813506874402 # Ar
142 142 1 0.0 24.838695978731515 145.42107832363598 28.709683490834788 # Ar
143 143 2 0.0 60.20677386089621 37.272396387870764 30.694584990370103 # Ar+
144 144 2 0.0 189.5688323558766 114.17440163909511 60.02117060425638 # Ar+
145 145 2 0.0 18.060879432602984 173.56188177982762 115.43298962512053 # Ar+
146 146 2 0.0 54.14521411267121 130.99039781934894 28.409274621922425 # Ar+
147 147 2 0.0 90.67984247832243 151.04209395532868 180.98027286757494 # Ar+
148 148 2 0.0 126.69549021305082 135.93416074576075 20.94703352827318 # Ar+
149 149 2 0.0 62.75806199415593 58.1260988344254 124.44417280859966 # Ar+
150 150 2 0.0 23.689657551190155 33.68064064937309 60.76833266006964 # Ar+
